Generated using phonoLAMMPS
1.0
       17.0154000000         0.0000000000         0.0000000000
        0.0000000000        17.0154000000         0.0000000000
        0.0000000000         0.0000000000        17.0154000000
C H N Zn 
72 72 48 12
Direct
0.500763238090201   0.119410691085722   0.880585214558576
0.500763238101955   0.880585692566734   0.119410213083442
0.604373689064024   0.133939905520881   0.191828261892168
0.604373689064024   0.191828739912080   0.133939427500970
0.604373689040516   0.808167643722745   0.866056000111664
0.604373689040516   0.866056478113944   0.808167165720465
0.104373689069901   0.308167643752130   0.366056000129295
0.104373689069901   0.366056478143329   0.308167165743973
0.104373689011131   0.633939905585528   0.691828261980324
0.104373689011131   0.691828739976727   0.633939427589125
0.119413867237914   0.500760061932132   0.880585214564453
0.119413867243791   0.119410691091599   0.499235843694536
0.119413867243791   0.499236321714447   0.119410213083442
0.119413867232037   0.880585692572611   0.500759583923975
0.133943081643687   0.604370512935341   0.191828261874537
0.133943081643687   0.191828739876817   0.604370034921307
0.133943081684827   0.395625870752377   0.808167165726342
0.133943081702458   0.808167643710991   0.395625392767728
0.191831916034886   0.604370512929464   0.133939427483339
0.191831916029009   0.133939905485619   0.604370034921307
0.191831916076025   0.395625870752377   0.866056000117541
0.191831916093656   0.866056478102190   0.395625392761851
0.308170819886691   0.104370512911833   0.366056000117541
0.308170819910199   0.366056478149206   0.104370034909553
0.308170819921953   0.633939905497373   0.895625392726589
0.308170819939584   0.895625870722992   0.633939427465708
0.366059654277889   0.104370512911833   0.308167165726342
0.366059654295521   0.308167643758007   0.104370034903675
0.366059654313152   0.691828739888572   0.895625392726589
0.366059654330783   0.895625870722992   0.691828261856906
0.380588868713048   0.380585692566734   0.999235843700413
0.380588868713048   0.619410691091599   0.000759583941606
0.380588868718925   0.999236321726201   0.380585214558576
0.380588868718925   0.000760061949763   0.619410213077565
0.395629046898692   0.133939905515004   0.808167165732219
0.395629046892815   0.191828739906203   0.866056000123418
0.395629046881061   0.808167643775639   0.133939427489216
0.395629046881061   0.866056478166837   0.191828261874537
0.499239497860761   0.119410691091599   0.119410213077565
0.499239497866638   0.880585692572611   0.880585214564453
0.619413867237914   0.380585692566734   0.000759583941606
0.619413867232037   0.619410691079845   0.999235843723921
0.619413867237914   0.999236321732078   0.619410213071688
0.619413867243791   0.000760061955640   0.380585214558576
0.633943081720089   0.104370512876571   0.691828261950938
0.633943081655442   0.308167643763884   0.895625392726589
0.633943081702458   0.691828739941465   0.104370034880167
0.633943081649564   0.895625870740623   0.308167165761604
0.691831916111287   0.104370512882448   0.633939427559740
0.691831916046640   0.366056478155083   0.895625392732466
0.691831916087779   0.633939905550266   0.104370034886044
0.691831916034886   0.895625870740623   0.366056000152803
0.808170819886691   0.604370512888325   0.866056000123418
0.808170819886691   0.133939905532635   0.395625392750097
0.808170819916076   0.395625870734746   0.133939427500970
0.808170819916076   0.866056478155083   0.604370034909553
0.866059654277889   0.604370512888325   0.808167165732219
0.866059654277889   0.191828739923834   0.395625392744220
0.866059654313152   0.395625870734746   0.191828261892168
0.866059654307275   0.808167643763885   0.604370034915430
0.880588868718925   0.500760061943886   0.119410213089319
0.880588868724802   0.119410691085722   0.500759583929852
0.880588868724802   0.499236321708570   0.880585214570330
0.880588868718925   0.880585692566734   0.499235843706290
0.895629046886938   0.308167643769761   0.633939427483339
0.895629046886938   0.366056478155083   0.691828261874537
0.895629046869307   0.633939905473865   0.308167165790989
0.895629046869307   0.691828739865063   0.366056000182188
0.999239497872515   0.380585692566734   0.380585214558576
0.999239497884269   0.619410691073968   0.619410213077565
0.000763238101955   0.380585692566734   0.619410213083442
0.000763238107832   0.619410691091599   0.380585214558576
0.556053339815696   0.095868916005501   0.904126989644675
0.556053339839204   0.904127467641078   0.095868438014975
0.595872092122430   0.595868915976116   0.943945742010179
0.595872092157692   0.404127467641078   0.056049685672979
0.595872092122430   0.943946220030090   0.595868437956204
0.595872092169446   0.056050163692890   0.404126989638798
0.621549095219625   0.146838909916899   0.738692114155412
0.621549095131469   0.261303791594673   0.853156995662753
0.621549095196116   0.738692592140061   0.146838431926373
0.621549095119715   0.853157473676787   0.261303313586516
0.095872092140061   0.556050163651751   0.904126989662306
0.095872092175324   0.095868916023132   0.443945741951409
0.095872092175324   0.443946219971320   0.095868438014975
0.095872092128307   0.904127467688094   0.556049685631839
0.121549095107961   0.238692592046029   0.646838431991020
0.121549095172608   0.353157473700295   0.761303313539499
0.121549095113838   0.646838909999177   0.238692114043749
0.121549095201994   0.761303791506518   0.353156995727400
0.146842086039705   0.621545919096818   0.738692114196551
0.146842086133738   0.261303791571165   0.378449986653267
0.146842086133738   0.378450464661424   0.261303313563008
0.146842086039705   0.738692592192955   0.621545441106292
0.238695768198220   0.121545918949892   0.646838431991020
0.238695768262868   0.353157473700295   0.878449986629759
0.238695768204097   0.646838909999177   0.121545440947612
0.238695768292253   0.878450464602654   0.353156995715646
0.261306967752742   0.621545918973401   0.853156995656876
0.261306967699848   0.146838909963915   0.378449986635636
0.261306967729234   0.378450464673178   0.146838431973389
0.261306967776250   0.853157473647402   0.621545440924104
0.353160649840733   0.121545918991032   0.761303313551253
0.353160649834856   0.238692592087168   0.878449986641513
0.353160649811347   0.761303791606427   0.121545440959366
0.353160649811347   0.878450464702563   0.238692114043749
0.378453640795985   0.146838909969792   0.261303313545377
0.378453640825370   0.261303791577042   0.146838431967512
0.378453640843001   0.738692592063660   0.853156995662753
0.378453640872386   0.853157473647402   0.738692114020240
0.404130643787393   0.595868916017255   0.056049685678856
0.404130643793270   0.404127467646955   0.943945741969040
0.404130643810901   0.943946220000705   0.404126989650552
0.404130643781516   0.056050163698767   0.595868438014975
0.443949396135266   0.095868916011378   0.095868437997344
0.443949396152897   0.904127467676340   0.904126989668183
0.646842086121984   0.121545919002786   0.238692114073134
0.646842086121984   0.238692592087168   0.121545440976997
0.646842086086721   0.761303791530026   0.878449986618005
0.646842086086721   0.878450464620285   0.761303313521868
0.738695768286376   0.621545919049802   0.146838431932250
0.738695768315761   0.146838909922776   0.621545441065153
0.738695768221729   0.378450464684932   0.853156995674507
0.738695768209975   0.853157473670910   0.378449986682652
0.761306967693971   0.121545919020417   0.353156995698015
0.761306967746865   0.353157473665033   0.121545440976997
0.761306967693971   0.646838909940407   0.878449986635636
0.761306967740987   0.878450464684932   0.646838431973389
0.853160649793716   0.621545918932261   0.261303313627655
0.853160649823101   0.261303791600550   0.621545440953489
0.853160649823101   0.378450464684932   0.738692114049626
0.853160649793716   0.738692592022521   0.378449986723791
0.878453640790108   0.238692592110676   0.353156995692138
0.878453640843001   0.353157473670910   0.238692114061380
0.878453640790108   0.646838909940407   0.761303313539499
0.878453640831247   0.761303791588796   0.646838431979266
0.904130643793270   0.556050163681136   0.095868438014975
0.904130643822655   0.095868915993747   0.556049685649470
0.904130643816778   0.443946219988951   0.904126989668183
0.904130643799147   0.904127467646955   0.443945741969040
0.943949396194036   0.595868915940854   0.595868437944450
0.943949396147020   0.404127467652832   0.404126989638798
0.056053339856836   0.595868916034886   0.404126989615290
0.056053339839204   0.404127467641078   0.595868438009098
0.537795997472878   0.087794641765695   0.181686883599563
0.537795997467000   0.181687361613597   0.087794163745783
0.537795997467000   0.818309022038859   0.912201263884481
0.537795997467000   0.912201741886761   0.818308544030702
0.587797817906132   0.318309022044736   0.962203084323613
0.587797817917886   0.681687361619474   0.037792343312529
0.587797817906132   0.962203562343524   0.318308544042456
0.587797817929640   0.037792821320686   0.681686883617194
0.087797817912009   0.537792821326563   0.181686883599563
0.087797817906132   0.181687361607720   0.537792343312529
0.087797817917886   0.462203562331770   0.818308544030702
0.087797817923763   0.818309022032982   0.462203084335367
0.181690537759912   0.537792821326563   0.087794163745783
0.181690537759912   0.087794641753941   0.537792343312529
0.181690537771666   0.462203562331770   0.912201263884481
0.181690537771666   0.912201741886761   0.462203084329490
0.318312198196928   0.587794641759818   0.962203084329490
0.318312198191050   0.412201741898515   0.037792343312529
0.318312198208682   0.962203562337647   0.587794163739906
0.318312198191050   0.037792821326563   0.412201263878604
0.412204918044830   0.318309022044736   0.037792343306652
0.412204918050707   0.681687361607720   0.962203084329490
0.412204918056584   0.962203562337647   0.681686883587809
0.412204918044830   0.037792821326563   0.318308544030702
0.462206738483962   0.087794641759818   0.818308544030702
0.462206738483962   0.181687361613597   0.912201263878604
0.462206738489839   0.818309022050613   0.087794163751660
0.462206738483962   0.912201741904392   0.181686883599563
0.681690537771666   0.587794641771572   0.037792343318406
0.681690537759912   0.412201741898515   0.962203084335367
0.681690537759912   0.962203562343524   0.412201263896235
0.681690537777543   0.037792821320686   0.587794163769291
0.818312198191050   0.537792821308932   0.912201263890358
0.818312198191050   0.087794641765695   0.462203084329490
0.818312198196927   0.462203562337647   0.087794163757537
0.818312198196927   0.912201741898515   0.537792343312529
0.912204918044830   0.537792821308932   0.818308544042456
0.912204918044830   0.181687361619474   0.462203084329490
0.912204918050707   0.462203562337647   0.181686883605440
0.912204918050707   0.818309022050613   0.537792343318406
0.962206738489839   0.587794641753941   0.318308544048333
0.962206738489839   0.318309022050613   0.587794163745783
0.962206738489839   0.412201741898515   0.681686883599563
0.962206738489839   0.681687361601843   0.412201263902112
0.037795997467000   0.587794641777449   0.681686883628948
0.037795997478755   0.318309022044736   0.412201263884481
0.037795997478755   0.412201741892638   0.318308544030702
0.037795997467000   0.681687361625351   0.587794163781045
0.500001367972543   0.249998191826228   0.999997713812194
0.500001367978420   0.749998191832105   0.999997713823948
0.500001367978420   0.999998191837982   0.249997713818071
0.500001367984297   0.999998191826228   0.749997713818071
0.250001367978420   0.499998191832105   0.999997713818071
0.250001367978420   0.999998191826228   0.499997713812194
0.750001367978420   0.499998191826228   0.999997713829825
0.750001367984297   0.999998191832105   0.499997713823948
0.000001367984297   0.499998191832105   0.249997713823948
0.000001367978420   0.499998191826228   0.749997713823948
0.000001367984297   0.249998191832105   0.499997713818071
0.000001367984297   0.749998191826228   0.499997713829825
