LAMMPS data file via write_data, version 15 Jun 2023, timestep = 101757, units = real

3392 atoms
5 atom types
4096 bonds
5 bond types
7296 angles
8 angle types
7680 dihedrals
3 dihedral types
4608 impropers
1 improper types

-0.4347904181970608 52.09879041819649 xlo xhi
-0.4347904181970608 52.09879041819649 ylo yhi
-0.4347904181970608 52.09879041819649 zlo zhi

Masses

    1    15.999400000 # O_2
    2    12.010700000 # C_R
    3     1.007940000 # H_
    4    65.380000000 # Zn3f2
    5    15.999400000 # O_3_f

Bond Coeffs

    1      714.557442        1.269010  # O_2 C_R
    2      122.127512        2.014866  # O_2 Zn3f2
    3      391.669513        1.458000  # C_R C_R
    4      462.655054        1.379256  # C_R C_R
    5      357.440381        1.081418  # C_R H_

Angle Coeffs

    1              cosine/periodic       42.206165              -1               3 # C_R O_2 Zn3f2
    2              cosine/periodic      137.714246              -1               3 # O_2 C_R C_R
    3              cosine/periodic      206.778426              -1               3 # O_2 C_R O_2
    4              cosine/periodic      102.183280              -1               3 # C_R C_R C_R
    5              cosine/periodic      111.297508              -1               3 # C_R C_R C_R
    6              cosine/periodic       57.289016              -1               3 # C_R C_R H_
    7                      fourier      131.511072        0.343737        0.374972        0.281246 # O_2 Zn3f2 O_3_f
    8                      fourier       42.532620        0.343737        0.374972        0.281246 # Zn3f2 O_3_f Zn3f2

Dihedral Coeffs

    1        6.737110              -1               2 # Zn3f2 O_2 C_R C_R
    2        1.250000              -1               2 # O_2 C_R C_R C_R
    3        3.368555              -1               2 # C_R C_R C_R H_

Improper Coeffs

    1        2.000000        1.000000       -1.000000        0.000000               0 # O_2 C_R C_R O_2

Pair Coeffs

    1        0.060000        3.118146 # O_2 O_2
    2        0.105000        3.430851 # C_R C_R
    3        0.044000        2.571134 # H_ H_
    4        0.124000        2.461553 # Zn3f2 Zn3f2
    5        0.060000        3.118146 # O_3_f O_3_f
	
Atoms # full

1 1 1 0 3.069683172968256 6.916106781220447 5.34770759148374 0 0 0
2 2 2 0 2.4476528875699284 6.131907186352096 6.1319071863521 0 0 0
3 2 2 0 0.973193551412285 6.131907186352108 6.131907186352111 0 0 0
4 2 2 0 0.26206432134457486 6.988749124676987 5.275065248027239 0 0 0
5 2 3 0 0.7799968016292831 7.6614641879115295 4.602350184792698 0 0 0
14 1 1 0 3.0696831729682548 5.3477075914837355 6.91610678122045 0 0 0
15 2 2 0 0.26206432134456936 5.275065248027238 6.988749124676989 0 0 0
16 2 3 0 0.7799968016292759 4.602350184792699 7.661464187911532 0 0 0
17 1 4 0 5.008675797194498 7.255138575509669 5.0086757971945 0 0 0
19 1 4 0 5.008675797194497 5.008675797194496 7.25513857550967 0 0 0
21 1 1 0 5.347707591483738 3.069683172968254 6.916106781220448 0 0 0
22 4 2 0 6.131907186352098 2.4476528875699266 6.131907186352098 0 0 0
23 4 2 0 6.131907186352109 0.9731935514122826 6.13190718635211 0 0 0
24 4 2 0 5.275065248027238 0.2620643213445692 6.988749124676989 0 0 0
25 4 3 0 4.602350184792697 0.7799968016292765 7.66146418791153 0 0 0
31 1 1 0 6.9161067812204475 3.069683172968254 5.347707591483738 0 0 0
32 4 2 0 6.988749124676987 0.26206432134456914 5.275065248027238 0 0 0
33 4 3 0 7.661464187911529 0.779996801629277 4.602350184792698 0 0 0
37 1 4 0 7.255138575509669 5.008675797194496 5.008675797194499 0 0 0
40 1 5 0 6.131907186352082 6.131907186352081 6.131907186352083 0 0 0
41 1 1 0 6.916106781220448 5.347707591483738 3.069683172968257 0 0 0
42 6 2 0 6.131907186352099 6.131907186352099 2.4476528875699293 0 0 0
43 6 2 0 6.13190718635211 6.13190718635211 0.9731935514122839 0 0 0
44 6 2 0 6.988749124676988 5.275065248027238 0.26206432134456975 0 0 0
45 6 3 0 7.66146418791153 4.602350184792698 0.7799968016292774 0 0 0
158 1 1 0 5.347707591483737 6.9161067812204475 3.069683172968257 0 0 0
159 6 2 0 5.275065248027238 6.988749124676987 0.2620643213445696 0 0 0
160 6 3 0 4.602350184792697 7.6614641879115295 0.779996801629277 0 0 0
179 1 4 0 7.255138575509668 7.255138575509668 7.255138575509668 0 0 0
180 1 1 0 6.916106781220448 6.916106781220448 9.194131199735898 0 0 0
181 21 2 0 6.131907186352095 6.131907186352095 9.816161485134224 0 0 0
182 21 2 0 6.131907186352098 6.131907186352098 11.290620821291864 0 0 0
183 21 2 0 6.988749124676974 6.988749124676974 12.001750051359574 0 0 0
184 21 3 0 7.661464187911517 7.661464187911517 11.483817571074873 0 0 0
195 1 1 0 5.347707591483739 9.194131199735901 5.34770759148374 0 0 0
196 24 2 0 6.1319071863520955 9.816161485134224 6.1319071863520955 0 0 0
197 24 2 0 6.131907186352098 11.290620821291864 6.131907186352099 0 0 0
198 24 2 0 5.275065248027224 12.001750051359574 5.275065248027224 0 0 0
199 24 3 0 4.602350184792682 11.483817571074873 4.602350184792682 0 0 0
282 1 1 0 5.347707591483739 5.347707591483738 9.194131199735901 0 0 0
283 21 2 0 5.275065248027224 5.275065248027224 12.001750051359576 0 0 0
284 21 3 0 4.602350184792682 4.602350184792682 11.483817571074875 0 0 0
288 1 1 0 6.916106781220449 9.194131199735898 6.916106781220449 0 0 0
289 24 2 0 6.988749124676974 12.001750051359574 6.988749124676975 0 0 0
290 24 3 0 7.661464187911516 11.483817571074871 7.661464187911517 0 0 0
312 1 1 0 9.194131199735898 6.916106781220448 6.916106781220449 0 0 0
313 29 2 0 9.816161485134224 6.131907186352095 6.1319071863520955 0 0 0
314 29 2 0 11.290620821291864 6.131907186352098 6.131907186352098 0 0 0
315 29 2 0 12.001750051359574 6.988749124676975 6.988749124676975 0 0 0
316 29 3 0 11.483817571074871 7.661464187911516 7.661464187911516 0 0 0
317 1 1 0 16.203078382066664 5.347707591483739 5.347707591483738 0 0 0
318 29 2 0 15.58104809666834 6.131907186352095 6.1319071863520955 0 0 0
319 29 2 0 14.106588760510702 6.131907186352098 6.131907186352098 0 0 0
320 29 2 0 13.395459530442992 5.275065248027224 5.275065248027223 0 0 0
321 29 3 0 13.913392010727694 4.602350184792684 4.602350184792682 0 0 0
343 1 1 0 16.203078382066664 6.916106781220449 6.91610678122045 0 0 0
344 29 2 0 13.395459530442992 6.988749124676974 6.988749124676974 0 0 0
345 29 3 0 13.913392010727696 7.661464187911515 7.661464187911516 0 0 0
352 1 1 0 9.194131199735901 5.347707591483738 5.34770759148374 0 0 0
353 29 2 0 12.001750051359576 5.275065248027224 5.275065248027223 0 0 0
354 29 3 0 11.483817571074873 4.602350184792683 4.602350184792681 0 0 0
70 1 4 0 20.38853378460804 7.255138575509673 5.008675797194496 0 0 0
71 1 5 0 19.265302395450465 6.131907186352083 6.131907186352083 0 0 0
72 1 1 0 20.04950199031881 6.916106781220456 3.0696831729682565 0 0 0
73 9 2 0 19.26530239545046 6.131907186352101 2.4476528875699275 0 0 0
74 9 2 0 19.26530239545045 6.131907186352112 0.9731935514122847 0 0 0
75 9 2 0 20.122144333775314 6.988749124677 0.2620643213445748 0 0 0
76 9 3 0 20.794859397009855 7.661464187911542 0.779996801629283 0 0 0
83 1 4 0 18.14207100629289 5.008675797194496 5.008675797194496 0 0 0
84 1 1 0 18.481102800582114 3.0696831729682548 5.347707591483736 0 0 0
85 11 2 0 19.265302395450462 2.4476528875699284 6.131907186352099 0 0 0
86 11 2 0 19.265302395450455 0.973193551412285 6.131907186352111 0 0 0
87 11 2 0 18.408460457125585 0.2620643213445691 5.275065248027233 0 0 0
88 11 3 0 17.73574539389105 0.779996801629275 4.602350184792684 0 0 0
113 1 4 0 20.38853378460804 5.008675797194496 7.2551385755096724 0 0 0
114 1 1 0 22.327526408834263 5.347707591483739 6.916106781220449 0 0 0
115 16 2 0 22.949556694232587 6.131907186352098 6.131907186352098 0 0 0
116 16 2 0 24.424016030390224 6.131907186352106 6.131907186352105 0 0 0
117 16 2 0 25.135145260457936 5.275065248027233 6.988749124676983 0 0 0
118 16 3 0 24.617212780173233 4.602350184792692 7.661464187911526 0 0 0
128 1 1 0 18.481102800582114 5.347707591483735 3.0696831729682534 0 0 0
129 9 2 0 18.40846045712558 5.275065248027235 0.2620643213445691 0 0 0
130 9 3 0 17.735745393891044 4.602350184792689 0.7799968016292754 0 0 0
134 1 1 0 22.327526408834263 6.916106781220448 5.347707591483738 0 0 0
135 16 2 0 25.135145260457936 6.988749124676983 5.275065248027233 0 0 0
136 16 3 0 24.617212780173237 7.661464187911525 4.602350184792691 0 0 0
149 1 1 0 20.049501990318817 3.0696831729682565 6.916106781220453 0 0 0
150 11 2 0 20.122144333775317 0.2620643213445752 6.988749124676999 0 0 0
151 11 3 0 20.79485939700986 0.7799968016292843 7.66146418791154 0 0 0
210 1 1 0 20.04950199031881 5.347707591483732 9.194131199735905 0 0 0
211 19 2 0 19.26530239545046 6.131907186352091 9.816161485134229 0 0 0
212 19 2 0 19.26530239545046 6.131907186352094 11.290620821291867 0 0 0
213 19 2 0 20.12214433377532 5.275065248027207 12.001750051359577 0 0 0
214 19 3 0 20.794859397009855 4.602350184792658 11.483817571074875 0 0 0
237 1 4 0 18.14207100629289 7.255138575509672 7.255138575509673 0 0 0
238 1 1 0 18.481102800582114 9.194131199735901 6.916106781220454 0 0 0
239 23 2 0 19.265302395450462 9.816161485134229 6.131907186352095 0 0 0
240 23 2 0 19.26530239545046 11.290620821291867 6.131907186352095 0 0 0
241 23 2 0 18.408460457125596 12.001750051359577 6.988749124676983 0 0 0
242 23 3 0 17.73574539389106 11.483817571074875 7.661464187911533 0 0 0
249 1 1 0 18.48110280058211 6.91610678122045 9.194131199735905 0 0 0
250 19 2 0 18.4084604571256 6.988749124676985 12.00175005135958 0 0 0
251 19 3 0 17.735745393891065 7.661464187911535 11.483817571074876 0 0 0
261 1 1 0 20.04950199031881 9.194131199735905 5.347707591483732 0 0 0
262 23 2 0 20.12214433377532 12.001750051359577 5.275065248027208 0 0 0
263 23 3 0 20.79485939700985 11.483817571074875 4.602350184792655 0 0 0
59 1 4 0 5.0086757971944955 7.255138575509674 20.38853378460804 0 0 0
60 1 5 0 6.131907186352082 6.131907186352084 19.265302395450462 0 0 0
77 1 4 0 7.255138575509672 5.008675797194498 20.38853378460804 0 0 0
78 1 1 0 6.916106781220456 3.0696831729682583 20.049501990318813 0 0 0
79 10 2 0 6.131907186352099 2.4476528875699306 19.265302395450462 0 0 0
80 10 2 0 6.131907186352111 0.9731935514122882 19.265302395450455 0 0 0
81 10 2 0 6.9887491246770015 0.2620643213445758 20.122144333775314 0 0 0
82 10 3 0 7.6614641879115455 0.779996801629284 20.79485939700985 0 0 0
101 1 4 0 5.008675797194493 5.008675797194496 18.14207100629289 0 0 0
102 1 1 0 3.0696831729682503 5.3477075914837355 18.481102800582114 0 0 0
103 14 2 0 2.447652887569925 6.131907186352099 19.265302395450462 0 0 0
104 14 2 0 0.973193551412282 6.131907186352107 19.26530239545046 0 0 0
105 14 2 0 0.2620643213445678 5.2750652480272295 18.40846045712559 0 0 0
106 14 3 0 0.7799968016292732 4.602350184792686 17.735745393891047 0 0 0
137 1 1 0 3.069683172968254 6.916106781220455 20.049501990318813 0 0 0
138 14 2 0 0.2620643213445696 6.988749124676998 20.122144333775317 0 0 0
139 14 3 0 0.7799968016292781 7.661464187911543 20.794859397009855 0 0 0
152 1 1 0 5.347707591483733 3.0696831729682565 18.481102800582118 0 0 0
153 10 2 0 5.275065248027231 0.2620643213445752 18.408460457125585 0 0 0
154 10 3 0 4.602350184792684 0.7799968016292828 17.73574539389105 0 0 0
215 1 1 0 5.347707591483737 5.347707591483739 16.20307838206666 0 0 0
216 21 2 0 6.131907186352095 6.1319071863520955 15.581048096668338 0 0 0
217 21 2 0 6.131907186352098 6.131907186352098 14.106588760510702 0 0 0
218 21 2 0 5.275065248027224 5.275065248027224 13.395459530442992 0 0 0
219 21 3 0 4.602350184792683 4.602350184792683 13.913392010727694 0 0 0
243 1 4 0 7.255138575509672 7.2551385755096724 18.142071006292888 0 0 0
244 1 1 0 6.916106781220451 9.194131199735901 18.481102800582114 0 0 0
245 22 2 0 6.131907186352093 9.816161485134229 19.265302395450462 0 0 0
246 22 2 0 6.131907186352095 11.290620821291867 19.26530239545046 0 0 0
247 22 2 0 6.98874912467698 12.001750051359577 18.408460457125592 0 0 0
248 22 3 0 7.66146418791153 11.483817571074875 17.735745393891058 0 0 0
255 1 1 0 6.916106781220449 6.916106781220449 16.203078382066664 0 0 0
256 21 2 0 6.988749124676974 6.988749124676974 13.395459530442992 0 0 0
257 21 3 0 7.661464187911515 7.661464187911515 13.913392010727696 0 0 0
264 1 1 0 5.347707591483729 9.194131199735907 20.04950199031881 0 0 0
265 22 2 0 5.275065248027208 12.001750051359577 20.12214433377532 0 0 0
266 22 3 0 4.602350184792659 11.483817571074876 20.794859397009855 0 0 0
367 1 1 0 5.347707591483738 6.916106781220449 22.327526408834263 0 0 0
370 1 1 0 6.916106781220449 5.347707591483739 22.327526408834263 0 0 0
385 32 2 0 6.131907186352099 6.131907186352099 22.949556694232587 0 0 0
386 32 2 0 6.131907186352107 6.131907186352106 24.424016030390227 0 0 0
387 32 2 0 5.275065248027233 6.988749124676984 25.135145260457936 0 0 0
388 32 3 0 4.602350184792693 7.661464187911525 24.617212780173233 0 0 0
395 32 2 0 6.988749124676985 5.275065248027233 25.135145260457936 0 0 0
396 32 3 0 7.661464187911527 4.602350184792692 24.617212780173233 0 0 0
297 1 1 0 16.203078382066664 6.916106781220453 18.481102800582118 0 0 0
298 26 2 0 15.581048096668338 6.131907186352093 19.265302395450465 0 0 0
299 26 2 0 14.106588760510702 6.131907186352094 19.265302395450462 0 0 0
300 26 2 0 13.395459530442993 6.988749124676982 18.4084604571256 0 0 0
301 26 3 0 13.913392010727698 7.66146418791153 17.735745393891065 0 0 0
327 1 1 0 9.194131199735903 5.34770759148373 20.04950199031881 0 0 0
328 26 2 0 9.816161485134227 6.131907186352093 19.265302395450462 0 0 0
329 26 2 0 11.290620821291865 6.1319071863520955 19.265302395450462 0 0 0
330 26 2 0 12.001750051359576 5.275065248027209 20.122144333775324 0 0 0
331 26 3 0 11.483817571074873 4.602350184792657 20.794859397009855 0 0 0
340 1 1 0 9.194131199735901 6.916106781220453 18.481102800582114 0 0 0
341 26 2 0 12.001750051359577 6.988749124676984 18.4084604571256 0 0 0
342 26 3 0 11.483817571074875 7.661464187911534 17.735745393891065 0 0 0
358 1 1 0 16.20307838206666 5.347707591483729 20.049501990318813 0 0 0
359 26 2 0 13.395459530442992 5.275065248027208 20.122144333775324 0 0 0
360 26 3 0 13.913392010727694 4.602350184792659 20.79485939700986 0 0 0
26 1 1 0 20.04950199031882 3.0696831729682565 18.48110280058211 0 0 0
27 5 2 0 19.265302395450465 2.447652887569931 19.265302395450465 0 0 0
28 5 2 0 19.265302395450462 0.9731935514122904 19.265302395450462 0 0 0
29 5 2 0 20.12214433377534 0.262064321344576 18.40846045712559 0 0 0
30 5 3 0 20.79485939700988 0.7799968016292812 17.735745393891044 0 0 0
34 1 1 0 18.481102800582114 3.0696831729682588 20.04950199031882 0 0 0
35 5 2 0 18.408460457125585 0.26206432134458074 20.122144333775335 0 0 0
36 5 3 0 17.735745393891044 0.7799968016292885 20.794859397009876 0 0 0
38 1 4 0 18.142071006292888 5.0086757971944955 20.388533784608047 0 0 0
39 1 4 0 20.388533784608043 5.0086757971944955 18.142071006292888 0 0 0
53 1 5 0 19.265302395450465 6.131907186352083 19.26530239545047 0 0 0
57 1 4 0 20.388533784608043 7.255138575509676 20.388533784608043 0 0 0
167 1 4 0 18.142071006292888 7.255138575509673 18.14207100629289 0 0 0
168 1 1 0 18.48110280058211 6.916106781220449 16.203078382066668 0 0 0
169 19 2 0 19.265302395450462 6.131907186352093 15.581048096668342 0 0 0
170 19 2 0 19.265302395450462 6.131907186352096 14.106588760510705 0 0 0
171 19 2 0 18.4084604571256 6.988749124676984 13.395459530442995 0 0 0
172 19 3 0 17.735745393891065 7.661464187911533 13.913392010727698 0 0 0
200 1 1 0 20.049501990318813 9.194131199735905 20.049501990318817 0 0 0
201 25 2 0 19.26530239545046 9.816161485134229 19.265302395450462 0 0 0
202 25 2 0 19.26530239545046 11.290620821291867 19.265302395450462 0 0 0
203 25 2 0 20.122144333775335 12.001750051359577 20.12214433377534 0 0 0
204 25 3 0 20.794859397009876 11.483817571074873 20.794859397009876 0 0 0
273 1 1 0 20.049501990318813 5.347707591483733 16.203078382066664 0 0 0
274 19 2 0 20.122144333775324 5.275065248027209 13.395459530442993 0 0 0
275 19 3 0 20.79485939700986 4.60235018479266 13.913392010727696 0 0 0
285 1 1 0 18.481102800582104 9.194131199735905 18.481102800582107 0 0 0
286 25 2 0 18.408460457125585 12.00175005135958 18.40846045712559 0 0 0
287 25 3 0 17.735745393891044 11.483817571074878 17.735745393891044 0 0 0
361 1 1 0 18.48110280058211 5.347707591483739 22.32752640883427 0 0 0
364 1 1 0 22.327526408834267 6.916106781220458 20.04950199031881 0 0 0
371 1 1 0 20.049501990318813 6.9161067812204555 22.32752640883427 0 0 0
376 1 1 0 22.32752640883427 5.347707591483737 18.48110280058211 0 0 0
377 30 2 0 19.26530239545046 6.131907186352101 22.949556694232594 0 0 0
378 30 2 0 19.26530239545045 6.131907186352109 24.42401603039023 0 0 0
379 30 2 0 18.408460457125585 5.275065248027224 25.13514526045794 0 0 0
380 30 3 0 17.73574539389105 4.602350184792676 24.617212780173237 0 0 0
397 30 2 0 20.12214433377531 6.988749124677 25.13514526045794 0 0 0
398 30 3 0 20.794859397009844 7.661464187911549 24.617212780173237 0 0 0
417 37 2 0 22.94955669423259 6.131907186352102 19.26530239545046 0 0 0
418 37 2 0 24.424016030390227 6.131907186352111 19.26530239545045 0 0 0
419 37 2 0 25.13514526045794 6.988749124677001 20.12214433377531 0 0 0
420 37 3 0 24.61721278017324 7.661464187911552 20.794859397009844 0 0 0
423 37 2 0 25.135145260457936 5.275065248027225 18.408460457125585 0 0 0
424 37 3 0 24.617212780173233 4.6023501847926775 17.73574539389105 0 0 0
425 1 1 0 3.0696831729682486 6.916106781220456 31.61449800968047 0 0 0
426 38 2 0 2.4476528875699217 6.131907186352098 32.39869760454882 0 0 0
427 38 2 0 0.9731935514122781 6.131907186352113 32.398697604548836 0 0 0
428 38 2 0 0.26206432134456303 6.988749124676996 31.54185566622397 0 0 0
429 38 3 0 0.7799968016292704 7.661464187911541 30.869140602989432 0 0 0
438 1 1 0 3.06968317296825 5.34770759148373 33.18289719941716 0 0 0
439 38 2 0 0.2620643213445672 5.275065248027242 33.25553954287371 0 0 0
440 38 3 0 0.7799968016292748 4.602350184792701 33.928254606108254 0 0 0
441 1 4 0 5.00867579719449 7.2551385755096724 31.275466215391244 0 0 0
443 1 4 0 5.008675797194492 5.008675797194492 33.52192899370638 0 0 0
445 1 1 0 5.347707591483732 3.0696831729682508 33.18289719941716 0 0 0
446 40 2 0 6.131907186352101 2.447652887569924 32.39869760454882 0 0 0
447 40 2 0 6.131907186352115 0.9731935514122813 32.398697604548836 0 0 0
448 40 2 0 5.275065248027242 0.2620643213445686 33.25553954287371 0 0 0
449 40 3 0 4.6023501847927015 0.7799968016292766 33.928254606108254 0 0 0
455 1 1 0 6.916106781220457 3.0696831729682517 31.61449800968047 0 0 0
456 40 2 0 6.988749124676999 0.26206432134456836 31.54185566622397 0 0 0
457 40 3 0 7.661464187911545 0.7799968016292752 30.869140602989432 0 0 0
461 1 4 0 7.2551385755096724 5.008675797194492 31.275466215391244 0 0 0
464 1 5 0 6.131907186352079 6.1319071863520795 32.39869760454881 0 0 0
465 1 1 0 6.916106781220448 5.347707591483736 29.33647359116502 0 0 0
466 32 2 0 6.131907186352097 6.131907186352096 28.714443305766697 0 0 0
467 32 2 0 6.131907186352106 6.131907186352105 27.23998396960906 0 0 0
468 32 2 0 6.988749124676985 5.275065248027233 26.52885473954135 0 0 0
469 32 3 0 7.661464187911526 4.602350184792691 27.04678721982605 0 0 0
582 1 1 0 5.347707591483736 6.916106781220447 29.33647359116502 0 0 0
583 32 2 0 5.275065248027233 6.988749124676983 26.52885473954135 0 0 0
584 32 3 0 4.602350184792692 7.661464187911524 27.04678721982605 0 0 0
603 1 4 0 7.25513857550967 7.255138575509668 33.52192899370638 0 0 0
604 1 1 0 6.916106781220447 6.9161067812204475 35.460921617932605 0 0 0
605 53 2 0 6.131907186352093 6.131907186352094 36.08295190333093 0 0 0
606 53 2 0 6.131907186352097 6.131907186352098 37.557411239488566 0 0 0
607 53 2 0 6.988749124676975 6.988749124676975 38.26854046955628 0 0 0
608 53 3 0 7.661464187911515 7.661464187911515 37.75060798927157 0 0 0
619 1 1 0 5.347707591483727 9.194131199735903 31.614498009680478 0 0 0
620 56 2 0 6.131907186352095 9.816161485134225 32.39869760454882 0 0 0
621 56 2 0 6.1319071863520955 11.290620821291864 32.39869760454883 0 0 0
622 56 2 0 5.275065248027221 12.001750051359574 31.541855666223956 0 0 0
623 56 3 0 4.60235018479268 11.483817571074871 30.869140602989415 0 0 0
706 1 1 0 5.347707591483736 5.347707591483737 35.460921617932605 0 0 0
707 53 2 0 5.275065248027224 5.275065248027224 38.26854046955628 0 0 0
708 53 3 0 4.602350184792682 4.602350184792683 37.75060798927158 0 0 0
712 1 1 0 6.916106781220458 9.194131199735896 33.18289719941716 0 0 0
713 56 2 0 6.9887491246769695 12.001750051359574 33.255539542873706 0 0 0
714 56 3 0 7.661464187911505 11.483817571074871 33.928254606108254 0 0 0
736 1 1 0 9.1941311997359 6.916106781220453 33.18289719941717 0 0 0
737 61 2 0 9.816161485134225 6.131907186352095 32.39869760454882 0 0 0
738 61 2 0 11.290620821291864 6.131907186352093 32.39869760454883 0 0 0
739 61 2 0 12.001750051359574 6.988749124676972 33.2555395428737 0 0 0
740 61 3 0 11.483817571074871 7.661464187911508 33.92825460610825 0 0 0
741 1 1 0 16.203078382066657 5.34770759148373 31.61449800968047 0 0 0
742 61 2 0 15.581048096668335 6.131907186352097 32.398697604548815 0 0 0
743 61 2 0 14.106588760510698 6.131907186352097 32.39869760454882 0 0 0
744 61 2 0 13.395459530442988 5.275065248027222 31.54185566622395 0 0 0
745 61 3 0 13.91339201072769 4.602350184792687 30.8691406029894 0 0 0
767 1 1 0 16.20307838206666 6.916106781220456 33.18289719941716 0 0 0
768 61 2 0 13.395459530442992 6.988749124676972 33.2555395428737 0 0 0
769 61 3 0 13.913392010727696 7.661464187911512 33.92825460610824 0 0 0
776 1 1 0 9.194131199735903 5.347707591483728 31.614498009680478 0 0 0
777 61 2 0 12.001750051359574 5.27506524802722 31.541855666223952 0 0 0
778 61 3 0 11.48381757107487 4.602350184792681 30.86914060298941 0 0 0
494 1 4 0 20.388533784608043 7.255138575509672 31.275466215391237 0 0 0
495 1 5 0 19.265302395450462 6.1319071863520795 32.39869760454881 0 0 0
496 1 1 0 20.049501990318813 6.9161067812204475 29.33647359116502 0 0 0
497 30 2 0 19.26530239545046 6.131907186352093 28.714443305766697 0 0 0
498 30 2 0 19.26530239545045 6.131907186352105 27.239983969609064 0 0 0
499 30 2 0 20.12214433377531 6.988749124676998 26.528854739541355 0 0 0
500 30 3 0 20.794859397009844 7.661464187911546 27.046787219826058 0 0 0
507 1 4 0 18.142071006292884 5.008675797194487 31.27546621539124 0 0 0
508 1 1 0 18.4811028005821 3.069683172968247 31.61449800968047 0 0 0
509 43 2 0 19.265302395450455 2.4476528875699244 32.39869760454883 0 0 0
510 43 2 0 19.265302395450448 0.973193551412283 32.39869760454884 0 0 0
511 43 2 0 18.408460457125585 0.26206432134456736 31.541855666223963 0 0 0
512 43 3 0 17.73574539389105 0.7799968016292713 30.86914060298941 0 0 0
537 1 4 0 20.38853378460804 5.008675797194494 33.52192899370639 0 0 0
538 1 1 0 22.327526408834267 5.347707591483729 33.182897199417155 0 0 0
539 48 2 0 22.94955669423259 6.131907186352099 32.398697604548815 0 0 0
540 48 2 0 24.424016030390224 6.1319071863521115 32.39869760454882 0 0 0
541 48 2 0 25.135145260457936 5.275065248027227 33.255539542873684 0 0 0
542 48 3 0 24.617212780173237 4.602350184792672 33.92825460610821 0 0 0
552 1 1 0 18.481102800582114 5.347707591483727 29.33647359116502 0 0 0
553 30 2 0 18.408460457125585 5.275065248027223 26.52885473954135 0 0 0
554 30 3 0 17.73574539389105 4.602350184792674 27.04678721982605 0 0 0
558 1 1 0 22.327526408834267 6.91610678122046 31.614498009680467 0 0 0
559 48 2 0 25.135145260457932 6.988749124677008 31.541855666223967 0 0 0
560 48 3 0 24.61721278017323 7.661464187911559 30.869140602989436 0 0 0
573 1 1 0 20.049501990318813 3.0696831729682543 33.18289719941718 0 0 0
574 43 2 0 20.122144333775303 0.26206432134457497 33.25553954287374 0 0 0
575 43 3 0 20.794859397009827 0.7799968016292858 33.9282546061083 0 0 0
634 1 1 0 20.049501990318813 5.347707591483738 35.46092161793261 0 0 0
635 51 2 0 19.265302395450462 6.1319071863521 36.08295190333093 0 0 0
636 51 2 0 19.265302395450465 6.131907186352106 37.557411239488566 0 0 0
637 51 2 0 20.122144333775328 5.275065248027219 38.26854046955628 0 0 0
638 51 3 0 20.79485939700986 4.6023501847926696 37.75060798927157 0 0 0
661 1 4 0 18.142071006292888 7.255138575509675 33.52192899370638 0 0 0
662 1 1 0 18.48110280058211 9.194131199735903 33.182897199417155 0 0 0
663 55 2 0 19.265302395450465 9.816161485134227 32.3986976045488 0 0 0
664 55 2 0 19.265302395450462 11.290620821291865 32.3986976045488 0 0 0
665 55 2 0 18.408460457125575 12.001750051359574 33.25553954287366 0 0 0
666 55 3 0 17.735745393891026 11.48381757107487 33.9282546061082 0 0 0
673 1 1 0 18.48110280058211 6.9161067812204555 35.460921617932605 0 0 0
674 51 2 0 18.408460457125603 6.9887491246769935 38.26854046955628 0 0 0
675 51 3 0 17.735745393891065 7.661464187911539 37.75060798927157 0 0 0
685 1 1 0 20.04950199031882 9.194131199735901 31.61449800968045 0 0 0
686 55 2 0 20.122144333775346 12.001750051359576 31.54185566622393 0 0 0
687 55 3 0 20.79485939700989 11.483817571074873 30.869140602989393 0 0 0
483 1 4 0 5.008675797194496 7.255138575509665 46.65532420280477 0 0 0
484 1 5 0 6.1319071863520795 6.13190718635208 45.53209281364718 0 0 0
501 1 4 0 7.255138575509665 5.008675797194495 46.65532420280476 0 0 0
502 1 1 0 6.916106781220446 3.0696831729682517 46.31629240851553 0 0 0
503 42 2 0 6.131907186352098 2.4476528875699235 45.53209281364717 0 0 0
504 42 2 0 6.1319071863521195 0.9731935514122776 45.53209281364715 0 0 0
505 42 2 0 6.988749124676985 0.2620643213445632 46.38893475197203 0 0 0
506 42 3 0 7.661464187911515 0.7799968016292723 47.06164981520658 0 0 0
525 1 4 0 5.008675797194497 5.0086757971944955 44.408861424489594 0 0 0
526 1 1 0 3.069683172968255 5.347707591483736 44.74789321877882 0 0 0
527 46 2 0 2.447652887569928 6.131907186352099 45.53209281364717 0 0 0
528 46 2 0 0.9731935514122834 6.131907186352115 45.532092813647154 0 0 0
529 46 2 0 0.2620643213445689 5.27506524802726 44.67525087532226 0 0 0
530 46 3 0 0.7799968016292754 4.602350184792739 44.0025358120877 0 0 0
561 1 1 0 3.0696831729682557 6.916106781220447 46.31629240851553 0 0 0
562 46 2 0 0.26206432134456986 6.988749124676986 46.38893475197203 0 0 0
563 46 3 0 0.7799968016292784 7.661464187911513 47.061649815206586 0 0 0
576 1 1 0 5.347707591483742 3.069683172968251 44.74789321877881 0 0 0
577 42 2 0 5.275065248027263 0.26206432134456276 44.675250875322256 0 0 0
578 42 3 0 4.602350184792738 0.7799968016292708 44.0025358120877 0 0 0
639 1 1 0 5.34770759148374 5.347707591483741 42.46986880026336 0 0 0
640 53 2 0 6.131907186352096 6.131907186352098 41.84783851486504 0 0 0
641 53 2 0 6.1319071863521 6.131907186352102 40.3733791787074 0 0 0
642 53 2 0 5.275065248027225 5.275065248027226 39.6622499486397 0 0 0
643 53 3 0 4.602350184792684 4.602350184792685 40.1801824289244 0 0 0
667 1 4 0 7.255138575509667 7.255138575509668 44.4088614244896 0 0 0
668 1 1 0 6.916106781220442 9.1941311997359 44.74789321877882 0 0 0
669 54 2 0 6.131907186352088 9.816161485134224 45.532092813647175 0 0 0
670 54 2 0 6.1319071863520875 11.290620821291862 45.53209281364717 0 0 0
671 54 2 0 6.988749124676934 12.001750051359572 44.67525087532226 0 0 0
672 54 3 0 7.661464187911448 11.48381757107487 44.00253581208769 0 0 0
679 1 1 0 6.916106781220449 6.91610678122045 42.46986880026337 0 0 0
680 53 2 0 6.988749124676977 6.988749124676977 39.66224994863969 0 0 0
681 53 3 0 7.661464187911519 7.661464187911519 40.1801824289244 0 0 0
688 1 1 0 5.347707591483733 9.194131199735898 46.31629240851553 0 0 0
689 54 2 0 5.275065248027233 12.001750051359576 46.38893475197206 0 0 0
690 54 3 0 4.602350184792712 11.483817571074875 47.06164981520662 0 0 0
791 1 1 0 5.347707591483736 6.916106781220447 48.594316827031015 0 0 0
794 1 1 0 6.916106781220448 5.347707591483738 48.59431682703101 0 0 0
809 6 2 0 6.131907186352099 6.131907186352097 49.21634711242934 0 0 0
810 6 2 0 6.131907186352111 6.131907186352109 50.69080644858698 0 0 0
811 6 2 0 5.275065248027239 6.988749124676987 51.401935678654695 0 0 0
812 6 3 0 4.602350184792698 7.6614641879115295 50.884003198369996 0 0 0
819 6 2 0 6.988749124676988 5.275065248027239 51.401935678654695 0 0 0
820 6 3 0 7.66146418791153 4.6023501847927 50.884003198369996 0 0 0
721 1 1 0 16.203078382066664 6.9161067812204395 44.74789321877881 0 0 0
722 58 2 0 15.581048096668338 6.131907186352086 45.53209281364717 0 0 0
723 58 2 0 14.1065887605107 6.131907186352083 45.53209281364716 0 0 0
724 58 2 0 13.39545953044299 6.988749124676928 44.675250875322256 0 0 0
725 58 3 0 13.913392010727694 7.661464187911446 44.00253581208769 0 0 0
751 1 1 0 9.194131199735898 5.347707591483732 46.31629240851552 0 0 0
752 58 2 0 9.816161485134224 6.131907186352087 45.53209281364717 0 0 0
753 58 2 0 11.290620821291862 6.131907186352083 45.53209281364716 0 0 0
754 58 2 0 12.001750051359574 5.275065248027233 46.38893475197206 0 0 0
755 58 3 0 11.483817571074873 4.602350184792719 47.06164981520663 0 0 0
764 1 1 0 9.194131199735898 6.91610678122044 44.74789321877881 0 0 0
765 58 2 0 12.001750051359572 6.988749124676928 44.675250875322256 0 0 0
766 58 3 0 11.483817571074871 7.6614641879114425 44.002535812087686 0 0 0
782 1 1 0 16.20307838206666 5.3477075914837355 46.31629240851553 0 0 0
783 58 2 0 13.39545953044299 5.275065248027233 46.38893475197206 0 0 0
784 58 3 0 13.913392010727692 4.602350184792719 47.06164981520663 0 0 0
450 1 1 0 20.049501990318806 3.0696831729682548 44.74789321877883 0 0 0
451 41 2 0 19.265302395450455 2.447652887569931 45.53209281364719 0 0 0
452 41 2 0 19.265302395450444 0.9731935514122889 45.53209281364718 0 0 0
453 41 2 0 20.122144333775296 0.2620643213445749 44.67525087532229 0 0 0
454 41 3 0 20.794859397009823 0.7799968016292814 44.002535812087736 0 0 0
458 1 1 0 18.481102800582107 3.069683172968259 46.31629240851555 0 0 0
459 41 2 0 18.408460457125575 0.26206432134457625 46.38893475197206 0 0 0
460 41 3 0 17.735745393891044 0.7799968016292829 47.061649815206614 0 0 0
462 1 4 0 18.142071006292884 5.0086757971945 46.65532420280478 0 0 0
463 1 4 0 20.388533784608033 5.008675797194493 44.4088614244896 0 0 0
477 1 5 0 19.265302395450462 6.131907186352081 45.53209281364719 0 0 0
481 1 4 0 20.388533784608043 7.25513857550967 46.65532420280477 0 0 0
591 1 4 0 18.142071006292888 7.255138575509671 44.4088614244896 0 0 0
592 1 1 0 18.481102800582114 6.916106781220457 42.46986880026337 0 0 0
593 51 2 0 19.26530239545046 6.131907186352096 41.84783851486504 0 0 0
594 51 2 0 19.265302395450462 6.1319071863521035 40.3733791787074 0 0 0
595 51 2 0 18.4084604571256 6.988749124676992 39.66224994863969 0 0 0
596 51 3 0 17.73574539389106 7.66146418791154 40.18018242892439 0 0 0
624 1 1 0 20.04950199031882 9.1941311997359 46.31629240851553 0 0 0
625 57 2 0 19.26530239545047 9.816161485134225 45.532092813647175 0 0 0
626 57 2 0 19.265302395450476 11.290620821291864 45.53209281364717 0 0 0
627 57 2 0 20.122144333775324 12.001750051359574 46.388934751972066 0 0 0
628 57 3 0 20.794859397009844 11.483817571074871 47.06164981520663 0 0 0
697 1 1 0 20.0495019903188 5.347707591483726 42.46986880026336 0 0 0
698 51 2 0 20.122144333775324 5.275065248027216 39.66224994863969 0 0 0
699 51 3 0 20.794859397009855 4.602350184792664 40.1801824289244 0 0 0
709 1 1 0 18.48110280058211 9.194131199735901 44.74789321877882 0 0 0
710 57 2 0 18.408460457125635 12.001750051359574 44.67525087532226 0 0 0
711 57 3 0 17.735745393891126 11.483817571074873 44.002535812087686 0 0 0
785 1 1 0 18.481102800582107 5.347707591483747 48.594316827031015 0 0 0
788 1 1 0 22.327526408834267 6.916106781220445 46.31629240851552 0 0 0
795 1 1 0 20.049501990318817 6.916106781220458 48.594316827031015 0 0 0
800 1 1 0 22.32752640883426 5.347707591483735 44.74789321877881 0 0 0
801 9 2 0 19.26530239545046 6.131907186352107 49.21634711242934 0 0 0
802 9 2 0 19.26530239545045 6.131907186352117 50.69080644858698 0 0 0
803 9 2 0 18.40846045712558 5.2750652480272375 51.401935678654695 0 0 0
804 9 3 0 17.735745393891044 4.6023501847926935 50.884003198369996 0 0 0
821 9 2 0 20.122144333775314 6.9887491246770015 51.4019356786547 0 0 0
822 9 3 0 20.794859397009848 7.661464187911548 50.884003198369996 0 0 0
841 65 2 0 22.949556694232587 6.131907186352095 45.53209281364716 0 0 0
842 65 2 0 24.424016030390224 6.1319071863521115 45.53209281364714 0 0 0
843 65 2 0 25.135145260457936 6.988749124676977 46.38893475197202 0 0 0
844 65 3 0 24.617212780173233 7.661464187911505 47.06164981520658 0 0 0
847 65 2 0 25.135145260457932 5.27506524802726 44.67525087532224 0 0 0
848 65 3 0 24.61721278017323 4.6023501847927335 44.002535812087686 0 0 0
63 1 4 0 5.0086757971944955 18.14207100629289 5.0086757971944955 0 0 0
64 1 5 0 6.131907186352083 19.265302395450465 6.131907186352083 0 0 0
65 1 1 0 5.347707591483733 18.481102800582118 3.0696831729682557 0 0 0
66 8 2 0 6.131907186352099 19.265302395450462 2.4476528875699297 0 0 0
67 8 2 0 6.131907186352111 19.265302395450455 0.9731935514122876 0 0 0
68 8 2 0 5.275065248027231 18.408460457125585 0.2620643213445746 0 0 0
69 8 3 0 4.602350184792683 17.73574539389105 0.7799968016292814 0 0 0
95 1 4 0 7.255138575509674 20.38853378460804 5.008675797194497 0 0 0
96 1 1 0 6.91610678122045 22.327526408834263 5.34770759148374 0 0 0
97 13 2 0 6.131907186352098 22.949556694232587 6.131907186352098 0 0 0
98 13 2 0 6.131907186352106 24.424016030390227 6.131907186352106 0 0 0
99 13 2 0 6.988749124676984 25.135145260457936 5.275065248027232 0 0 0
100 13 3 0 7.661464187911525 24.617212780173233 4.602350184792692 0 0 0
107 1 4 0 5.008675797194496 20.38853378460804 7.255138575509674 0 0 0
108 1 1 0 3.069683172968257 20.04950199031881 6.916106781220458 0 0 0
109 15 2 0 2.447652887569928 19.265302395450462 6.131907186352098 0 0 0
110 15 2 0 0.9731935514122847 19.265302395450455 6.131907186352111 0 0 0
111 15 2 0 0.2620643213445749 20.122144333775317 6.988749124677 0 0 0
112 15 3 0 0.7799968016292838 20.79485939700985 7.661464187911547 0 0 0
125 1 1 0 6.916106781220456 20.049501990318813 3.0696831729682574 0 0 0
126 8 2 0 6.988749124677 20.122144333775317 0.2620643213445758 0 0 0
127 8 3 0 7.661464187911544 20.794859397009855 0.7799968016292844 0 0 0
140 1 1 0 3.0696831729682534 18.481102800582114 5.347707591483734 0 0 0
141 15 2 0 0.26206432134456903 18.408460457125585 5.275065248027232 0 0 0
142 15 3 0 0.7799968016292753 17.73574539389105 4.602350184792683 0 0 0
146 1 1 0 5.347707591483737 22.327526408834267 6.916106781220449 0 0 0
147 13 2 0 5.275065248027233 25.135145260457936 6.988749124676984 0 0 0
148 13 3 0 4.602350184792692 24.617212780173233 7.661464187911526 0 0 0
205 1 1 0 5.34770759148373 20.049501990318806 9.194131199735905 0 0 0
206 18 2 0 6.131907186352094 19.26530239545046 9.816161485134229 0 0 0
207 18 2 0 6.131907186352094 19.265302395450455 11.290620821291867 0 0 0
208 18 2 0 5.275065248027204 20.122144333775314 12.001750051359577 0 0 0
209 18 3 0 4.6023501847926545 20.794859397009848 11.483817571074875 0 0 0
225 1 4 0 7.255138575509672 18.142071006292888 7.255138575509672 0 0 0
226 1 1 0 6.916106781220448 16.203078382066664 6.916106781220449 0 0 0
227 24 2 0 6.131907186352095 15.581048096668338 6.131907186352095 0 0 0
228 24 2 0 6.131907186352098 14.1065887605107 6.131907186352098 0 0 0
229 24 2 0 6.988749124676975 13.39545953044299 6.988749124676975 0 0 0
230 24 3 0 7.661464187911516 13.913392010727694 7.661464187911516 0 0 0
252 1 1 0 6.916106781220454 18.48110280058211 9.194131199735903 0 0 0
253 18 2 0 6.988749124676985 18.408460457125596 12.00175005135958 0 0 0
254 18 3 0 7.661464187911535 17.73574539389106 11.483817571074876 0 0 0
270 1 1 0 5.347707591483738 16.20307838206666 5.347707591483737 0 0 0
271 24 2 0 5.275065248027224 13.39545953044299 5.275065248027223 0 0 0
272 24 3 0 4.602350184792683 13.913392010727692 4.602350184792682 0 0 0
302 1 1 0 16.203078382066668 18.481102800582114 6.916106781220451 0 0 0
303 27 2 0 15.581048096668342 19.265302395450462 6.131907186352091 0 0 0
304 27 2 0 14.106588760510704 19.26530239545046 6.131907186352094 0 0 0
305 27 2 0 13.395459530442995 18.408460457125596 6.988749124676982 0 0 0
306 27 3 0 13.913392010727698 17.73574539389106 7.661464187911531 0 0 0
332 1 1 0 9.194131199735905 20.04950199031881 5.347707591483733 0 0 0
333 27 2 0 9.816161485134229 19.26530239545046 6.131907186352092 0 0 0
334 27 2 0 11.290620821291867 19.265302395450455 6.131907186352092 0 0 0
335 27 2 0 12.001750051359577 20.122144333775317 5.2750652480272056 0 0 0
336 27 3 0 11.483817571074875 20.79485939700985 4.602350184792656 0 0 0
337 1 1 0 9.194131199735903 18.48110280058211 6.916106781220451 0 0 0
338 27 2 0 12.001750051359577 18.408460457125596 6.988749124676983 0 0 0
339 27 3 0 11.483817571074876 17.73574539389106 7.661464187911534 0 0 0
355 1 1 0 16.203078382066664 20.049501990318813 5.34770759148373 0 0 0
356 27 2 0 13.395459530442993 20.12214433377532 5.275065248027207 0 0 0
357 27 3 0 13.913392010727694 20.79485939700985 4.6023501847926545 0 0 0
46 1 4 0 18.142071006292888 20.388533784608047 5.0086757971944955 0 0 0
47 1 5 0 19.26530239545047 19.26530239545047 6.131907186352083 0 0 0
48 1 1 0 18.48110280058211 20.049501990318824 3.069683172968257 0 0 0
49 7 2 0 19.265302395450465 19.26530239545047 2.447652887569931 0 0 0
50 7 2 0 19.265302395450462 19.265302395450465 0.9731935514122901 0 0 0
51 7 2 0 18.408460457125585 20.12214433377534 0.26206432134457597 0 0 0
52 7 3 0 17.735745393891044 20.79485939700988 0.7799968016292833 0 0 0
56 1 4 0 20.388533784608047 18.14207100629289 5.0086757971944955 0 0 0
58 1 4 0 20.388533784608043 20.388533784608043 7.255138575509675 0 0 0
155 1 1 0 20.04950199031882 18.481102800582118 3.0696831729682588 0 0 0
156 7 2 0 20.122144333775335 18.40846045712559 0.2620643213445808 0 0 0
157 7 3 0 20.794859397009873 17.735745393891044 0.7799968016292893 0 0 0
173 1 4 0 18.14207100629289 18.14207100629289 7.255138575509673 0 0 0
174 1 1 0 18.48110280058211 18.48110280058211 9.194131199735901 0 0 0
175 20 2 0 19.265302395450465 19.265302395450465 9.816161485134227 0 0 0
176 20 2 0 19.265302395450462 19.265302395450462 11.290620821291864 0 0 0
177 20 2 0 18.40846045712559 18.40846045712559 12.001750051359574 0 0 0
178 20 3 0 17.735745393891044 17.735745393891044 11.483817571074873 0 0 0
190 1 1 0 20.049501990318813 16.203078382066664 5.34770759148373 0 0 0
191 23 2 0 19.265302395450462 15.581048096668342 6.131907186352091 0 0 0
192 23 2 0 19.26530239545046 14.106588760510704 6.131907186352094 0 0 0
193 23 2 0 20.12214433377532 13.395459530442993 5.275065248027208 0 0 0
194 23 3 0 20.794859397009855 13.913392010727696 4.602350184792659 0 0 0
279 1 1 0 20.04950199031882 20.04950199031882 9.194131199735905 0 0 0
280 20 2 0 20.122144333775335 20.122144333775335 12.001750051359574 0 0 0
281 20 3 0 20.79485939700988 20.794859397009876 11.483817571074873 0 0 0
294 1 1 0 18.481102800582114 16.203078382066668 6.91610678122045 0 0 0
295 23 2 0 18.408460457125596 13.395459530442995 6.988749124676982 0 0 0
296 23 3 0 17.735745393891058 13.913392010727698 7.661464187911528 0 0 0
363 1 1 0 22.32752640883427 18.481102800582114 5.347707591483735 0 0 0
366 1 1 0 20.049501990318817 22.32752640883427 6.9161067812204555 0 0 0
373 1 1 0 18.481102800582114 22.327526408834267 5.347707591483739 0 0 0
375 1 1 0 22.327526408834267 20.049501990318813 6.916106781220456 0 0 0
405 35 2 0 19.265302395450462 22.94955669423259 6.1319071863521 0 0 0
406 35 2 0 19.26530239545045 24.424016030390227 6.13190718635211 0 0 0
407 35 2 0 20.12214433377531 25.13514526045794 6.988749124677001 0 0 0
408 35 3 0 20.794859397009844 24.61721278017324 7.661464187911553 0 0 0
409 35 2 0 18.408460457125585 25.135145260457936 5.275065248027225 0 0 0
410 35 3 0 17.73574539389105 24.617212780173233 4.6023501847926775 0 0 0
413 36 2 0 22.94955669423259 19.26530239545046 6.131907186352102 0 0 0
414 36 2 0 24.424016030390227 19.26530239545045 6.131907186352109 0 0 0
415 36 2 0 25.135145260457932 18.40846045712558 5.275065248027226 0 0 0
416 36 3 0 24.61721278017323 17.735745393891047 4.602350184792678 0 0 0
421 36 2 0 25.13514526045794 20.12214433377531 6.988749124676999 0 0 0
422 36 3 0 24.61721278017324 20.794859397009848 7.661464187911547 0 0 0
6 1 1 0 3.069683172968257 18.481102800582118 20.04950199031882 0 0 0
7 3 2 0 2.447652887569928 19.26530239545047 19.26530239545047 0 0 0
8 3 2 0 0.9731935514122867 19.265302395450465 19.265302395450465 0 0 0
9 3 2 0 0.2620643213445752 18.408460457125585 20.122144333775335 0 0 0
10 3 3 0 0.7799968016292845 17.735745393891044 20.794859397009873 0 0 0
11 1 1 0 3.0696831729682534 20.049501990318824 18.481102800582114 0 0 0
12 3 2 0 0.2620643213445745 20.12214433377534 18.408460457125592 0 0 0
13 3 3 0 0.7799968016292834 20.794859397009876 17.73574539389105 0 0 0
18 1 4 0 5.008675797194494 18.142071006292888 20.388533784608043 0 0 0
20 1 4 0 5.008675797194495 20.388533784608043 18.14207100629289 0 0 0
54 1 4 0 7.255138575509676 20.388533784608043 20.388533784608043 0 0 0
55 1 5 0 6.131907186352083 19.265302395450465 19.26530239545047 0 0 0
161 1 4 0 7.255138575509673 18.142071006292888 18.14207100629289 0 0 0
162 1 1 0 6.916106781220451 18.481102800582114 16.203078382066668 0 0 0
163 18 2 0 6.131907186352092 19.265302395450462 15.581048096668342 0 0 0
164 18 2 0 6.131907186352095 19.26530239545046 14.106588760510704 0 0 0
165 18 2 0 6.988749124676984 18.408460457125596 13.395459530442995 0 0 0
166 18 3 0 7.661464187911533 17.73574539389106 13.9133920107277 0 0 0
185 1 1 0 5.347707591483728 16.203078382066664 20.04950199031881 0 0 0
186 22 2 0 6.131907186352092 15.58104809666834 19.265302395450462 0 0 0
187 22 2 0 6.131907186352094 14.106588760510704 19.26530239545046 0 0 0
188 22 2 0 5.275065248027208 13.395459530442993 20.12214433377532 0 0 0
189 22 3 0 4.602350184792659 13.913392010727696 20.794859397009855 0 0 0
276 1 1 0 5.347707591483731 20.049501990318813 16.203078382066664 0 0 0
277 18 2 0 5.2750652480272056 20.122144333775317 13.395459530442993 0 0 0
278 18 3 0 4.602350184792656 20.79485939700985 13.913392010727696 0 0 0
291 1 1 0 6.916106781220452 16.203078382066664 18.481102800582114 0 0 0
292 22 2 0 6.988749124676979 13.395459530442995 18.408460457125592 0 0 0
293 22 3 0 7.661464187911528 13.913392010727698 17.735745393891058 0 0 0
362 1 1 0 6.916106781220455 20.049501990318813 22.327526408834267 0 0 0
365 1 1 0 5.347707591483737 22.32752640883427 18.481102800582114 0 0 0
372 1 1 0 5.347707591483737 18.48110280058211 22.327526408834267 0 0 0
374 1 1 0 6.916106781220457 22.327526408834267 20.049501990318813 0 0 0
381 31 2 0 6.1319071863521 19.26530239545046 22.94955669423259 0 0 0
382 31 2 0 6.131907186352108 19.26530239545045 24.424016030390227 0 0 0
383 31 2 0 6.988749124676999 20.12214433377531 25.13514526045794 0 0 0
384 31 3 0 7.66146418791155 20.794859397009844 24.61721278017324 0 0 0
399 31 2 0 5.275065248027226 18.40846045712558 25.135145260457936 0 0 0
400 31 3 0 4.6023501847926775 17.735745393891047 24.617212780173237 0 0 0
401 34 2 0 6.1319071863521035 22.949556694232594 19.26530239545046 0 0 0
402 34 2 0 6.1319071863521115 24.42401603039023 19.26530239545045 0 0 0
403 34 2 0 5.275065248027226 25.135145260457936 18.408460457125585 0 0 0
404 34 3 0 4.602350184792681 24.617212780173233 17.735745393891047 0 0 0
411 34 2 0 6.988749124676998 25.13514526045794 20.122144333775314 0 0 0
412 34 3 0 7.661464187911548 24.61721278017324 20.794859397009848 0 0 0
307 1 1 0 9.194131199735903 18.481102800582104 18.48110280058211 0 0 0
308 28 2 0 9.816161485134229 19.26530239545046 19.265302395450465 0 0 0
309 28 2 0 11.290620821291865 19.26530239545046 19.265302395450465 0 0 0
310 28 2 0 12.001750051359576 18.408460457125585 18.40846045712559 0 0 0
311 28 3 0 11.483817571074873 17.73574539389104 17.735745393891047 0 0 0
322 1 1 0 16.20307838206666 20.049501990318817 20.049501990318817 0 0 0
323 28 2 0 15.581048096668336 19.265302395450462 19.265302395450462 0 0 0
324 28 2 0 14.1065887605107 19.265302395450462 19.265302395450462 0 0 0
325 28 2 0 13.39545953044299 20.122144333775335 20.122144333775335 0 0 0
326 28 3 0 13.913392010727694 20.794859397009876 20.794859397009873 0 0 0
346 1 1 0 16.20307838206666 18.481102800582107 18.481102800582107 0 0 0
347 28 2 0 13.395459530442992 18.408460457125585 18.40846045712559 0 0 0
348 28 3 0 13.913392010727694 17.735745393891044 17.735745393891044 0 0 0
349 1 1 0 9.194131199735905 20.049501990318817 20.049501990318817 0 0 0
350 28 2 0 12.001750051359576 20.122144333775335 20.12214433377534 0 0 0
351 28 3 0 11.483817571074873 20.794859397009876 20.79485939700988 0 0 0
61 1 4 0 20.388533784608043 18.142071006292888 20.388533784608043 0 0 0
62 1 5 0 19.265302395450465 19.26530239545047 19.265302395450465 0 0 0
89 1 4 0 18.142071006292884 20.388533784608047 20.388533784608043 0 0 0
90 1 1 0 18.481102800582107 22.32752640883427 20.049501990318817 0 0 0
91 12 2 0 19.265302395450462 22.949556694232594 19.265302395450465 0 0 0
92 12 2 0 19.26530239545046 24.42401603039023 19.26530239545046 0 0 0
93 12 2 0 18.40846045712558 25.13514526045794 20.12214433377533 0 0 0
94 12 3 0 17.735745393891037 24.61721278017324 20.794859397009873 0 0 0
119 1 4 0 20.388533784608047 20.388533784608047 18.142071006292884 0 0 0
120 1 1 0 22.327526408834267 20.049501990318817 18.481102800582107 0 0 0
121 17 2 0 22.94955669423259 19.265302395450462 19.26530239545046 0 0 0
122 17 2 0 24.424016030390227 19.26530239545046 19.265302395450455 0 0 0
123 17 2 0 25.135145260457936 20.122144333775335 18.40846045712558 0 0 0
124 17 3 0 24.617212780173233 20.794859397009873 17.73574539389104 0 0 0
131 1 1 0 22.327526408834267 18.48110280058211 20.049501990318817 0 0 0
132 17 2 0 25.135145260457936 18.408460457125578 20.122144333775328 0 0 0
133 17 3 0 24.617212780173237 17.735745393891033 20.79485939700987 0 0 0
143 1 1 0 20.04950199031882 22.32752640883427 18.481102800582114 0 0 0
144 12 2 0 20.12214433377533 25.13514526045794 18.40846045712558 0 0 0
145 12 3 0 20.794859397009873 24.617212780173237 17.735745393891037 0 0 0
220 1 1 0 20.049501990318817 20.04950199031882 16.20307838206666 0 0 0
221 20 2 0 19.265302395450462 19.265302395450465 15.581048096668336 0 0 0
222 20 2 0 19.265302395450465 19.265302395450462 14.1065887605107 0 0 0
223 20 2 0 20.12214433377534 20.122144333775335 13.39545953044299 0 0 0
224 20 3 0 20.79485939700988 20.794859397009876 13.913392010727692 0 0 0
231 1 4 0 18.142071006292884 18.142071006292888 18.142071006292884 0 0 0
232 1 1 0 18.48110280058211 16.203078382066664 18.481102800582107 0 0 0
233 25 2 0 19.265302395450465 15.58104809666834 19.265302395450462 0 0 0
234 25 2 0 19.265302395450465 14.106588760510704 19.265302395450462 0 0 0
235 25 2 0 18.40846045712559 13.395459530442995 18.40846045712559 0 0 0
236 25 3 0 17.735745393891047 13.913392010727696 17.735745393891044 0 0 0
258 1 1 0 18.481102800582107 18.48110280058211 16.20307838206666 0 0 0
259 20 2 0 18.40846045712559 18.40846045712559 13.39545953044299 0 0 0
260 20 3 0 17.735745393891047 17.735745393891047 13.913392010727694 0 0 0
267 1 1 0 20.049501990318817 16.203078382066664 20.049501990318817 0 0 0
268 25 2 0 20.12214433377534 13.395459530442993 20.12214433377534 0 0 0
269 25 3 0 20.79485939700988 13.913392010727696 20.79485939700988 0 0 0
368 1 1 0 20.049501990318817 18.48110280058211 22.327526408834267 0 0 0
369 1 1 0 18.481102800582107 20.04950199031882 22.32752640883427 0 0 0
389 33 2 0 19.26530239545046 19.265302395450462 22.94955669423259 0 0 0
390 33 2 0 19.265302395450455 19.265302395450462 24.424016030390227 0 0 0
391 33 2 0 20.122144333775328 18.408460457125585 25.13514526045794 0 0 0
392 33 3 0 20.794859397009866 17.73574539389104 24.617212780173237 0 0 0
393 33 2 0 18.408460457125578 20.122144333775335 25.135145260457936 0 0 0
394 33 3 0 17.73574539389103 20.794859397009873 24.617212780173237 0 0 0
487 1 4 0 5.008675797194486 18.14207100629288 31.27546621539124 0 0 0
488 1 5 0 6.131907186352079 19.265302395450462 32.39869760454881 0 0 0
489 1 1 0 5.347707591483729 18.481102800582107 29.336473591165017 0 0 0
490 31 2 0 6.131907186352094 19.265302395450455 28.714443305766693 0 0 0
491 31 2 0 6.131907186352105 19.265302395450448 27.23998396960906 0 0 0
492 31 2 0 5.275065248027224 18.40846045712558 26.52885473954135 0 0 0
493 31 3 0 4.6023501847926775 17.735745393891044 27.04678721982605 0 0 0
519 1 4 0 7.255138575509671 20.38853378460804 31.275466215391237 0 0 0
520 1 1 0 6.916106781220455 22.327526408834263 31.614498009680467 0 0 0
521 45 2 0 6.1319071863520955 22.949556694232587 32.398697604548815 0 0 0
522 45 2 0 6.13190718635211 24.42401603039022 32.39869760454882 0 0 0
523 45 2 0 6.988749124677003 25.13514526045793 31.541855666223963 0 0 0
524 45 3 0 7.661464187911555 24.617212780173226 30.869140602989432 0 0 0
531 1 4 0 5.008675797194493 20.38853378460804 33.52192899370639 0 0 0
532 1 1 0 3.0696831729682525 20.049501990318813 33.18289719941718 0 0 0
533 47 2 0 2.447652887569922 19.265302395450455 32.39869760454883 0 0 0
534 47 2 0 0.9731935514122808 19.265302395450455 32.398697604548836 0 0 0
535 47 2 0 0.262064321344574 20.122144333775314 33.25553954287373 0 0 0
536 47 3 0 0.7799968016292839 20.794859397009834 33.92825460610829 0 0 0
549 1 1 0 6.916106781220446 20.049501990318813 29.336473591165017 0 0 0
550 31 2 0 6.988749124676996 20.12214433377531 26.528854739541355 0 0 0
551 31 3 0 7.661464187911547 20.79485939700984 27.046787219826058 0 0 0
564 1 1 0 3.0696831729682454 18.4811028005821 31.61449800968047 0 0 0
565 47 2 0 0.26206432134456203 18.40846045712559 31.54185566622396 0 0 0
566 47 3 0 0.7799968016292652 17.73574539389105 30.86914060298941 0 0 0
570 1 1 0 5.34770759148373 22.327526408834267 33.18289719941716 0 0 0
571 45 2 0 5.275065248027226 25.135145260457932 33.255539542873684 0 0 0
572 45 3 0 4.602350184792677 24.617212780173233 33.92825460610822 0 0 0
629 1 1 0 5.347707591483736 20.04950199031881 35.46092161793261 0 0 0
630 50 2 0 6.1319071863521 19.26530239545046 36.08295190333093 0 0 0
631 50 2 0 6.131907186352105 19.26530239545046 37.557411239488566 0 0 0
632 50 2 0 5.275065248027218 20.12214433377532 38.26854046955628 0 0 0
633 50 3 0 4.602350184792671 20.794859397009855 37.75060798927157 0 0 0
649 1 4 0 7.255138575509676 18.142071006292884 33.521928993706375 0 0 0
650 1 1 0 6.9161067812204635 16.20307838206666 33.182897199417155 0 0 0
651 56 2 0 6.131907186352098 15.581048096668335 32.398697604548815 0 0 0
652 56 2 0 6.131907186352099 14.106588760510698 32.39869760454882 0 0 0
653 56 2 0 6.988749124676969 13.39545953044299 33.255539542873706 0 0 0
654 56 3 0 7.66146418791151 13.913392010727694 33.92825460610825 0 0 0
676 1 1 0 6.916106781220457 18.48110280058211 35.4609216179326 0 0 0
677 50 2 0 6.988749124676992 18.408460457125596 38.26854046955628 0 0 0
678 50 3 0 7.661464187911538 17.73574539389106 37.75060798927157 0 0 0
694 1 1 0 5.347707591483725 16.203078382066657 31.614498009680478 0 0 0
695 56 2 0 5.275065248027225 13.395459530442988 31.54185566622395 0 0 0
696 56 3 0 4.60235018479269 13.913392010727689 30.8691406029894 0 0 0
726 1 1 0 16.203078382066657 18.481102800582107 33.18289719941716 0 0 0
727 59 2 0 15.581048096668335 19.265302395450462 32.39869760454881 0 0 0
728 59 2 0 14.106588760510698 19.26530239545046 32.3986976045488 0 0 0
729 59 2 0 13.395459530442988 18.40846045712557 33.25553954287366 0 0 0
730 59 3 0 13.913392010727692 17.73574539389102 33.92825460610819 0 0 0
756 1 1 0 9.194131199735901 20.04950199031882 31.61449800968045 0 0 0
757 59 2 0 9.816161485134225 19.265302395450462 32.3986976045488 0 0 0
758 59 2 0 11.290620821291864 19.265302395450462 32.3986976045488 0 0 0
759 59 2 0 12.001750051359574 20.122144333775342 31.54185566622393 0 0 0
760 59 3 0 11.483817571074871 20.794859397009887 30.869140602989397 0 0 0
761 1 1 0 9.194131199735901 18.481102800582107 33.182897199417155 0 0 0
762 59 2 0 12.001750051359572 18.408460457125575 33.25553954287366 0 0 0
763 59 3 0 11.483817571074868 17.73574539389102 33.92825460610819 0 0 0
779 1 1 0 16.20307838206666 20.049501990318817 31.614498009680457 0 0 0
780 59 2 0 13.39545953044299 20.122144333775342 31.541855666223935 0 0 0
781 59 3 0 13.913392010727694 20.79485939700989 30.8691406029894 0 0 0
470 1 4 0 18.142071006292884 20.388533784608047 31.27546621539124 0 0 0
471 1 5 0 19.265302395450465 19.265302395450462 32.398697604548815 0 0 0
472 1 1 0 18.481102800582114 20.049501990318824 29.33647359116502 0 0 0
473 33 2 0 19.265302395450465 19.26530239545047 28.714443305766697 0 0 0
474 33 2 0 19.26530239545046 19.265302395450465 27.23998396960906 0 0 0
475 33 2 0 18.40846045712558 20.12214433377534 26.52885473954135 0 0 0
476 33 3 0 17.73574539389104 20.79485939700988 27.046787219826054 0 0 0
480 1 4 0 20.388533784608047 18.142071006292884 31.275466215391237 0 0 0
482 1 4 0 20.388533784608047 20.388533784608043 33.52192899370639 0 0 0
579 1 1 0 20.04950199031882 18.481102800582114 29.33647359116502 0 0 0
580 33 2 0 20.12214433377533 18.408460457125585 26.52885473954135 0 0 0
581 33 3 0 20.79485939700987 17.73574539389104 27.046787219826054 0 0 0
597 1 4 0 18.14207100629288 18.14207100629288 33.52192899370638 0 0 0
598 1 1 0 18.481102800582107 18.481102800582107 35.460921617932605 0 0 0
599 52 2 0 19.26530239545046 19.265302395450462 36.08295190333093 0 0 0
600 52 2 0 19.26530239545046 19.265302395450462 37.557411239488566 0 0 0
601 52 2 0 18.408460457125585 18.408460457125585 38.26854046955628 0 0 0
602 52 3 0 17.735745393891044 17.735745393891044 37.75060798927157 0 0 0
614 1 1 0 20.04950199031882 16.20307838206666 31.614498009680457 0 0 0
615 55 2 0 19.265302395450462 15.581048096668335 32.39869760454881 0 0 0
616 55 2 0 19.26530239545046 14.106588760510698 32.3986976045488 0 0 0
617 55 2 0 20.122144333775342 13.395459530442992 31.541855666223935 0 0 0
618 55 3 0 20.794859397009894 13.913392010727694 30.8691406029894 0 0 0
703 1 1 0 20.049501990318813 20.049501990318817 35.46092161793261 0 0 0
704 52 2 0 20.122144333775335 20.122144333775335 38.26854046955627 0 0 0
705 52 3 0 20.794859397009876 20.794859397009876 37.75060798927157 0 0 0
718 1 1 0 18.481102800582107 16.203078382066657 33.18289719941716 0 0 0
719 55 2 0 18.408460457125575 13.395459530442988 33.25553954287366 0 0 0
720 55 3 0 17.735745393891015 13.91339201072769 33.92825460610819 0 0 0
787 1 1 0 22.32752640883427 18.481102800582107 31.61449800968047 0 0 0
790 1 1 0 20.049501990318824 22.32752640883427 33.18289719941717 0 0 0
797 1 1 0 18.481102800582107 22.327526408834267 31.61449800968047 0 0 0
799 1 1 0 22.32752640883427 20.049501990318817 33.18289719941718 0 0 0
829 63 2 0 19.265302395450462 22.94955669423259 32.39869760454882 0 0 0
830 63 2 0 19.265302395450455 24.424016030390227 32.39869760454883 0 0 0
831 63 2 0 20.122144333775317 25.13514526045794 33.25553954287371 0 0 0
832 63 3 0 20.794859397009855 24.61721278017324 33.92825460610826 0 0 0
833 63 2 0 18.40846045712558 25.135145260457932 31.541855666223952 0 0 0
834 63 3 0 17.735745393891037 24.61721278017323 30.86914060298941 0 0 0
837 64 2 0 22.949556694232594 19.26530239545046 32.39869760454883 0 0 0
838 64 2 0 24.424016030390227 19.26530239545045 32.398697604548836 0 0 0
839 64 2 0 25.135145260457936 18.40846045712558 31.541855666223956 0 0 0
840 64 3 0 24.617212780173237 17.735745393891044 30.86914060298941 0 0 0
845 64 2 0 25.13514526045794 20.12214433377532 33.25553954287371 0 0 0
846 64 3 0 24.61721278017324 20.79485939700985 33.92825460610827 0 0 0
430 1 1 0 3.069683172968259 18.481102800582114 46.31629240851556 0 0 0
431 39 2 0 2.44765288756993 19.265302395450455 45.53209281364719 0 0 0
432 39 2 0 0.9731935514122882 19.26530239545044 45.53209281364718 0 0 0
433 39 2 0 0.2620643213445765 18.408460457125575 46.388934751972066 0 0 0
434 39 3 0 0.779996801629285 17.735745393891047 47.06164981520662 0 0 0
435 1 1 0 3.069683172968254 20.0495019903188 44.74789321877882 0 0 0
436 39 2 0 0.26206432134457397 20.122144333775292 44.67525087532229 0 0 0
437 39 3 0 0.7799968016292798 20.794859397009812 44.00253581208773 0 0 0
442 1 4 0 5.0086757971945 18.142071006292888 46.65532420280478 0 0 0
444 1 4 0 5.008675797194493 20.388533784608033 44.4088614244896 0 0 0
478 1 4 0 7.255138575509668 20.38853378460804 46.65532420280477 0 0 0
479 1 5 0 6.131907186352082 19.265302395450462 45.53209281364719 0 0 0
585 1 4 0 7.25513857550967 18.142071006292888 44.408861424489594 0 0 0
586 1 1 0 6.916106781220456 18.48110280058211 42.46986880026336 0 0 0
587 50 2 0 6.131907186352094 19.265302395450455 41.84783851486504 0 0 0
588 50 2 0 6.131907186352102 19.26530239545046 40.3733791787074 0 0 0
589 50 2 0 6.988749124676991 18.408460457125596 39.66224994863969 0 0 0
590 50 3 0 7.661464187911538 17.735745393891058 40.18018242892439 0 0 0
609 1 1 0 5.347707591483733 16.203078382066664 46.31629240851552 0 0 0
610 54 2 0 6.131907186352088 15.581048096668338 45.53209281364717 0 0 0
611 54 2 0 6.131907186352084 14.1065887605107 45.53209281364716 0 0 0
612 54 2 0 5.275065248027234 13.395459530442992 46.38893475197206 0 0 0
613 54 3 0 4.602350184792715 13.913392010727694 47.06164981520662 0 0 0
700 1 1 0 5.347707591483727 20.0495019903188 42.46986880026336 0 0 0
701 50 2 0 5.275065248027215 20.12214433377532 39.66224994863969 0 0 0
702 50 3 0 4.602350184792664 20.79485939700985 40.1801824289244 0 0 0
715 1 1 0 6.916106781220445 16.20307838206666 44.74789321877881 0 0 0
716 54 2 0 6.9887491246769295 13.39545953044299 44.675250875322256 0 0 0
717 54 3 0 7.661464187911448 13.913392010727694 44.00253581208769 0 0 0
786 1 1 0 6.916106781220457 20.049501990318817 48.594316827031015 0 0 0
789 1 1 0 5.347707591483736 22.32752640883426 44.747893218778806 0 0 0
796 1 1 0 5.347707591483748 18.481102800582107 48.59431682703102 0 0 0
798 1 1 0 6.91610678122044 22.327526408834263 46.31629240851552 0 0 0
805 8 2 0 6.131907186352109 19.26530239545046 49.21634711242935 0 0 0
806 8 2 0 6.131907186352119 19.26530239545045 50.69080644858699 0 0 0
807 8 2 0 6.988749124677005 20.122144333775314 51.4019356786547 0 0 0
808 8 3 0 7.661464187911553 20.794859397009848 50.884003198369996 0 0 0
823 8 2 0 5.275065248027235 18.408460457125585 51.4019356786547 0 0 0
824 8 3 0 4.602350184792691 17.735745393891047 50.884003198369996 0 0 0
825 62 2 0 6.131907186352097 22.949556694232587 45.532092813647154 0 0 0
826 62 2 0 6.1319071863521115 24.424016030390224 45.53209281364714 0 0 0
827 62 2 0 5.27506524802726 25.135145260457932 44.67525087532224 0 0 0
828 62 3 0 4.602350184792734 24.61721278017323 44.002535812087686 0 0 0
835 62 2 0 6.988749124676977 25.135145260457932 46.38893475197202 0 0 0
836 62 3 0 7.661464187911504 24.617212780173233 47.06164981520658 0 0 0
731 1 1 0 9.1941311997359 18.481102800582118 44.74789321877881 0 0 0
732 60 2 0 9.816161485134225 19.265302395450473 45.53209281364717 0 0 0
733 60 2 0 11.290620821291864 19.26530239545048 45.53209281364716 0 0 0
734 60 2 0 12.001750051359574 18.408460457125635 44.675250875322256 0 0 0
735 60 3 0 11.48381757107487 17.73574539389112 44.00253581208769 0 0 0
746 1 1 0 16.20307838206666 20.049501990318813 46.31629240851554 0 0 0
747 60 2 0 15.581048096668336 19.265302395450473 45.53209281364717 0 0 0
748 60 2 0 14.1065887605107 19.26530239545048 45.53209281364716 0 0 0
749 60 2 0 13.39545953044299 20.12214433377533 46.38893475197206 0 0 0
750 60 3 0 13.91339201072769 20.794859397009848 47.06164981520663 0 0 0
770 1 1 0 16.20307838206666 18.481102800582118 44.74789321877881 0 0 0
771 60 2 0 13.39545953044299 18.408460457125635 44.675250875322256 0 0 0
772 60 3 0 13.913392010727692 17.735745393891122 44.002535812087686 0 0 0
773 1 1 0 9.1941311997359 20.04950199031882 46.31629240851553 0 0 0
774 60 2 0 12.001750051359574 20.122144333775328 46.38893475197206 0 0 0
775 60 3 0 11.483817571074871 20.79485939700985 47.06164981520662 0 0 0
485 1 4 0 20.38853378460804 18.142071006292884 46.655324202804785 0 0 0
486 1 5 0 19.265302395450465 19.265302395450462 45.53209281364719 0 0 0
513 1 4 0 18.142071006292884 20.388533784608036 46.655324202804785 0 0 0
514 1 1 0 18.481102800582104 22.32752640883426 46.31629240851555 0 0 0
515 44 2 0 19.26530239545046 22.949556694232584 45.532092813647196 0 0 0
516 44 2 0 19.265302395450448 24.42401603039022 45.53209281364719 0 0 0
517 44 2 0 18.408460457125585 25.135145260457932 46.38893475197208 0 0 0
518 44 3 0 17.73574539389106 24.617212780173226 47.061649815206636 0 0 0
543 1 4 0 20.388533784608043 20.38853378460804 44.4088614244896 0 0 0
544 1 1 0 22.327526408834267 20.049501990318806 44.74789321877883 0 0 0
545 49 2 0 22.94955669423259 19.26530239545046 45.53209281364719 0 0 0
546 49 2 0 24.424016030390224 19.265302395450448 45.53209281364718 0 0 0
547 49 2 0 25.135145260457936 20.122144333775296 44.675250875322284 0 0 0
548 49 3 0 24.617212780173233 20.794859397009823 44.00253581208773 0 0 0
555 1 1 0 22.327526408834267 18.48110280058211 46.31629240851555 0 0 0
556 49 2 0 25.135145260457932 18.408460457125585 46.388934751972066 0 0 0
557 49 3 0 24.617212780173233 17.735745393891058 47.06164981520662 0 0 0
567 1 1 0 20.04950199031881 22.327526408834263 44.747893218778835 0 0 0
568 44 2 0 20.122144333775296 25.135145260457932 44.67525087532229 0 0 0
569 44 3 0 20.79485939700982 24.617212780173233 44.00253581208773 0 0 0
644 1 1 0 20.04950199031882 20.04950199031882 42.46986880026336 0 0 0
645 52 2 0 19.265302395450465 19.265302395450462 41.84783851486504 0 0 0
646 52 2 0 19.265302395450462 19.265302395450462 40.3733791787074 0 0 0
647 52 2 0 20.12214433377534 20.122144333775335 39.66224994863969 0 0 0
648 52 3 0 20.79485939700988 20.79485939700988 40.18018242892439 0 0 0
655 1 4 0 18.142071006292888 18.142071006292884 44.408861424489594 0 0 0
656 1 1 0 18.481102800582125 16.20307838206666 44.74789321877881 0 0 0
657 57 2 0 19.265302395450473 15.581048096668336 45.532092813647175 0 0 0
658 57 2 0 19.26530239545048 14.1065887605107 45.53209281364717 0 0 0
659 57 2 0 18.40846045712564 13.39545953044299 44.67525087532226 0 0 0
660 57 3 0 17.73574539389113 13.913392010727692 44.002535812087686 0 0 0
682 1 1 0 18.48110280058211 18.481102800582107 42.46986880026337 0 0 0
683 52 2 0 18.408460457125585 18.408460457125585 39.66224994863969 0 0 0
684 52 3 0 17.73574539389104 17.735745393891044 40.1801824289244 0 0 0
691 1 1 0 20.049501990318813 16.20307838206666 46.316292408515544 0 0 0
692 57 2 0 20.122144333775328 13.39545953044299 46.388934751972066 0 0 0
693 57 3 0 20.79485939700984 13.913392010727692 47.061649815206636 0 0 0
792 1 1 0 20.049501990318813 18.481102800582107 48.59431682703102 0 0 0
793 1 1 0 18.481102800582104 20.049501990318813 48.59431682703102 0 0 0
813 7 2 0 19.26530239545046 19.26530239545046 49.216347112429354 0 0 0
814 7 2 0 19.26530239545046 19.26530239545046 50.690806448587 0 0 0
815 7 2 0 20.12214433377533 18.40846045712558 51.40193567865471 0 0 0
816 7 3 0 20.794859397009873 17.735745393891037 50.88400319837 0 0 0
817 7 2 0 18.40846045712558 20.122144333775335 51.4019356786547 0 0 0
818 7 3 0 17.73574539389104 20.794859397009873 50.88400319837 0 0 0
849 1 1 0 3.06968317296825 33.18289719941717 5.347707591483732 0 0 0
850 66 2 0 2.447652887569923 32.39869760454883 6.131907186352101 0 0 0
851 66 2 0 0.9731935514122808 32.39869760454884 6.131907186352117 0 0 0
852 66 2 0 0.26206432134456803 33.25553954287371 5.275065248027239 0 0 0
853 66 3 0 0.7799968016292765 33.928254606108254 4.6023501847927 0 0 0
862 1 1 0 3.0696831729682503 31.614498009680478 6.916106781220458 0 0 0
863 66 2 0 0.2620643213445685 31.541855666223977 6.988749124677001 0 0 0
864 66 3 0 0.7799968016292772 30.869140602989436 7.66146418791154 0 0 0
865 1 4 0 5.008675797194492 33.52192899370638 5.008675797194493 0 0 0
867 1 4 0 5.008675797194491 31.275466215391244 7.255138575509672 0 0 0
869 1 1 0 5.3477075914837355 29.33647359116502 6.916106781220446 0 0 0
870 13 2 0 6.131907186352095 28.714443305766697 6.131907186352094 0 0 0
871 13 2 0 6.131907186352104 27.23998396960906 6.1319071863521035 0 0 0
872 13 2 0 5.275065248027232 26.52885473954135 6.988749124676983 0 0 0
873 13 3 0 4.602350184792691 27.046787219826054 7.661464187911524 0 0 0
879 1 1 0 6.916106781220445 29.33647359116502 5.347707591483732 0 0 0
880 13 2 0 6.988749124676984 26.52885473954135 5.275065248027231 0 0 0
881 13 3 0 7.661464187911525 27.046787219826054 4.60235018479269 0 0 0
885 1 4 0 7.255138575509672 31.275466215391244 5.008675797194491 0 0 0
888 1 5 0 6.1319071863520795 32.39869760454881 6.1319071863520795 0 0 0
889 1 1 0 6.9161067812204555 31.61449800968048 3.0696831729682517 0 0 0
890 68 2 0 6.131907186352103 32.398697604548836 2.4476528875699235 0 0 0
891 68 2 0 6.131907186352115 32.39869760454884 0.9731935514122811 0 0 0
892 68 2 0 6.988749124676999 31.541855666223977 0.2620643213445687 0 0 0
893 68 3 0 7.661464187911543 30.86914060298944 0.7799968016292768 0 0 0
1006 1 1 0 5.347707591483733 33.18289719941718 3.0696831729682494 0 0 0
1007 68 2 0 5.275065248027243 33.25553954287372 0.26206432134456803 0 0 0
1008 68 3 0 4.602350184792702 33.92825460610826 0.7799968016292756 0 0 0
1027 1 4 0 7.255138575509669 33.52192899370638 7.25513857550967 0 0 0
1028 1 1 0 6.91610678122045 33.18289719941718 9.1941311997359 0 0 0
1029 79 2 0 6.131907186352091 32.39869760454883 9.816161485134225 0 0 0
1030 79 2 0 6.131907186352094 32.39869760454883 11.290620821291864 0 0 0
1031 79 2 0 6.988749124676968 33.255539542873706 12.001750051359574 0 0 0
1032 79 3 0 7.661464187911508 33.92825460610825 11.483817571074871 0 0 0
1043 1 1 0 5.3477075914837355 35.460921617932605 5.34770759148374 0 0 0
1044 82 2 0 6.131907186352095 36.08295190333092 6.1319071863520955 0 0 0
1045 82 2 0 6.1319071863521 37.55741123948856 6.1319071863521 0 0 0
1046 82 2 0 5.275065248027225 38.26854046955627 5.275065248027225 0 0 0
1047 82 3 0 4.602350184792684 37.75060798927157 4.602350184792684 0 0 0
1130 1 1 0 5.347707591483729 31.61449800968048 9.194131199735901 0 0 0
1131 79 2 0 5.275065248027224 31.54185566622395 12.001750051359572 0 0 0
1132 79 3 0 4.602350184792684 30.869140602989408 11.48381757107487 0 0 0
1136 1 1 0 6.916106781220449 35.4609216179326 6.916106781220447 0 0 0
1137 82 2 0 6.988749124676977 38.26854046955627 6.988749124676976 0 0 0
1138 82 3 0 7.661464187911518 37.750607989271565 7.661464187911517 0 0 0
1160 1 1 0 9.1941311997359 33.18289719941717 6.916106781220455 0 0 0
1161 87 2 0 9.816161485134225 32.39869760454883 6.13190718635209 0 0 0
1162 87 2 0 11.290620821291864 32.39869760454883 6.131907186352094 0 0 0
1163 87 2 0 12.001750051359574 33.255539542873706 6.988749124676968 0 0 0
1164 87 3 0 11.483817571074871 33.92825460610825 7.661464187911507 0 0 0
1165 1 1 0 16.203078382066657 31.614498009680474 5.347707591483723 0 0 0
1166 87 2 0 15.581048096668335 32.398697604548815 6.131907186352095 0 0 0
1167 87 2 0 14.106588760510698 32.39869760454882 6.131907186352096 0 0 0
1168 87 2 0 13.395459530442988 31.54185566622395 5.275065248027222 0 0 0
1169 87 3 0 13.91339201072769 30.869140602989404 4.602350184792685 0 0 0
1191 1 1 0 16.20307838206666 33.182897199417155 6.91610678122046 0 0 0
1192 87 2 0 13.395459530442992 33.2555395428737 6.988749124676971 0 0 0
1193 87 3 0 13.913392010727696 33.92825460610824 7.661464187911513 0 0 0
1200 1 1 0 9.194131199735903 31.614498009680478 5.347707591483729 0 0 0
1201 87 2 0 12.001750051359574 31.541855666223952 5.275065248027221 0 0 0
1202 87 3 0 11.483817571074871 30.869140602989408 4.602350184792683 0 0 0
918 1 4 0 20.38853378460804 33.52192899370639 5.008675797194493 0 0 0
919 1 5 0 19.265302395450462 32.39869760454881 6.131907186352078 0 0 0
920 1 1 0 20.049501990318813 33.182897199417184 3.069683172968252 0 0 0
921 71 2 0 19.265302395450462 32.39869760454883 2.447652887569922 0 0 0
922 71 2 0 19.26530239545045 32.39869760454884 0.9731935514122804 0 0 0
923 71 2 0 20.12214433377531 33.255539542873734 0.2620643213445688 0 0 0
924 71 3 0 20.79485939700983 33.9282546061083 0.7799968016292774 0 0 0
931 1 4 0 18.142071006292884 31.27546621539124 5.008675797194484 0 0 0
932 1 1 0 18.48110280058211 29.336473591165017 5.347707591483726 0 0 0
933 35 2 0 19.265302395450455 28.714443305766693 6.131907186352093 0 0 0
934 35 2 0 19.265302395450448 27.239983969609057 6.131907186352105 0 0 0
935 35 2 0 18.40846045712558 26.528854739541348 5.275065248027223 0 0 0
936 35 3 0 17.735745393891047 27.046787219826047 4.602350184792673 0 0 0
961 1 4 0 20.38853378460804 31.275466215391237 7.25513857550967 0 0 0
962 1 1 0 22.327526408834263 31.614498009680464 6.9161067812204555 0 0 0
963 74 2 0 22.949556694232587 32.398697604548815 6.131907186352098 0 0 0
964 74 2 0 24.424016030390224 32.39869760454882 6.131907186352113 0 0 0
965 74 2 0 25.135145260457932 31.541855666223963 6.988749124677008 0 0 0
966 74 3 0 24.61721278017323 30.869140602989432 7.661464187911558 0 0 0
976 1 1 0 18.481102800582107 31.61449800968047 3.069683172968246 0 0 0
977 71 2 0 18.40846045712559 31.54185566622396 0.2620643213445672 0 0 0
978 71 3 0 17.735745393891055 30.86914060298941 0.7799968016292734 0 0 0
982 1 1 0 22.327526408834267 33.18289719941716 5.347707591483733 0 0 0
983 74 2 0 25.135145260457936 33.255539542873684 5.275065248027228 0 0 0
984 74 3 0 24.617212780173233 33.92825460610821 4.602350184792672 0 0 0
997 1 1 0 20.04950199031881 29.336473591165017 6.9161067812204475 0 0 0
998 35 2 0 20.122144333775307 26.52885473954135 6.988749124677 0 0 0
999 35 3 0 20.79485939700984 27.046787219826058 7.661464187911548 0 0 0
1058 1 1 0 20.049501990318817 31.614498009680453 9.194131199735898 0 0 0
1059 77 2 0 19.26530239545046 32.3986976045488 9.816161485134225 0 0 0
1060 77 2 0 19.265302395450462 32.3986976045488 11.290620821291862 0 0 0
1061 77 2 0 20.122144333775342 31.54185566622393 12.001750051359572 0 0 0
1062 77 3 0 20.79485939700989 30.869140602989393 11.483817571074871 0 0 0
1085 1 4 0 18.142071006292884 33.521928993706375 7.255138575509676 0 0 0
1086 1 1 0 18.48110280058211 35.460921617932605 6.916106781220458 0 0 0
1087 81 2 0 19.265302395450462 36.08295190333093 6.131907186352102 0 0 0
1088 81 2 0 19.26530239545046 37.557411239488566 6.131907186352104 0 0 0
1089 81 2 0 18.408460457125596 38.26854046955628 6.988749124676993 0 0 0
1090 81 3 0 17.73574539389106 37.75060798927157 7.661464187911539 0 0 0
1097 1 1 0 18.481102800582104 33.182897199417155 9.194131199735903 0 0 0
1098 77 2 0 18.408460457125578 33.25553954287366 12.001750051359572 0 0 0
1099 77 3 0 17.73574539389103 33.9282546061082 11.48381757107487 0 0 0
1109 1 1 0 20.04950199031881 35.46092161793261 5.347707591483736 0 0 0
1110 81 2 0 20.12214433377532 38.26854046955628 5.275065248027217 0 0 0
1111 81 3 0 20.79485939700986 37.75060798927157 4.602350184792673 0 0 0
907 1 4 0 5.008675797194495 33.52192899370638 20.388533784608043 0 0 0
908 1 5 0 6.131907186352079 32.39869760454881 19.265302395450465 0 0 0
925 1 4 0 7.255138575509672 31.275466215391237 20.388533784608043 0 0 0
926 1 1 0 6.916106781220448 29.33647359116502 20.049501990318813 0 0 0
927 34 2 0 6.13190718635209 28.714443305766697 19.265302395450462 0 0 0
928 34 2 0 6.131907186352104 27.239983969609064 19.26530239545045 0 0 0
929 34 2 0 6.988749124676997 26.528854739541355 20.12214433377531 0 0 0
930 34 3 0 7.661464187911545 27.046787219826058 20.794859397009844 0 0 0
949 1 4 0 5.008675797194485 31.27546621539124 18.142071006292884 0 0 0
950 1 1 0 3.069683172968247 31.614498009680474 18.481102800582104 0 0 0
951 72 2 0 2.4476528875699244 32.39869760454883 19.265302395450462 0 0 0
952 72 2 0 0.9731935514122831 32.39869760454885 19.265302395450448 0 0 0
953 72 2 0 0.2620643213445679 31.541855666223963 18.40846045712559 0 0 0
954 72 3 0 0.779996801629274 30.869140602989404 17.735745393891065 0 0 0
985 1 1 0 3.0696831729682543 33.18289719941718 20.04950199031882 0 0 0
986 72 2 0 0.26206432134457447 33.25553954287374 20.122144333775307 0 0 0
987 72 3 0 0.779996801629282 33.928254606108304 20.79485939700983 0 0 0
1000 1 1 0 5.347707591483723 29.33647359116502 18.481102800582118 0 0 0
1001 34 2 0 5.275065248027222 26.52885473954135 18.408460457125585 0 0 0
1002 34 3 0 4.602350184792676 27.04678721982605 17.735745393891047 0 0 0
1063 1 1 0 5.347707591483727 31.614498009680474 16.203078382066657 0 0 0
1064 79 2 0 6.131907186352098 32.398697604548815 15.581048096668336 0 0 0
1065 79 2 0 6.131907186352099 32.39869760454882 14.106588760510698 0 0 0
1066 79 2 0 5.275065248027224 31.54185566622395 13.395459530442988 0 0 0
1067 79 3 0 4.6023501847926855 30.869140602989404 13.91339201072769 0 0 0
1091 1 4 0 7.255138575509674 33.52192899370638 18.142071006292888 0 0 0
1092 1 1 0 6.916106781220456 35.460921617932605 18.48110280058211 0 0 0
1093 80 2 0 6.1319071863521 36.08295190333093 19.265302395450462 0 0 0
1094 80 2 0 6.131907186352102 37.557411239488566 19.26530239545046 0 0 0
1095 80 2 0 6.988749124676991 38.26854046955628 18.408460457125596 0 0 0
1096 80 3 0 7.661464187911541 37.75060798927157 17.735745393891065 0 0 0
1103 1 1 0 6.916106781220456 33.18289719941716 16.203078382066664 0 0 0
1104 79 2 0 6.988749124676973 33.2555395428737 13.39545953044299 0 0 0
1105 79 3 0 7.661464187911514 33.92825460610824 13.913392010727694 0 0 0
1112 1 1 0 5.34770759148374 35.460921617932605 20.049501990318813 0 0 0
1113 80 2 0 5.275065248027215 38.26854046955628 20.12214433377532 0 0 0
1114 80 3 0 4.602350184792669 37.75060798927157 20.794859397009855 0 0 0
1215 1 1 0 5.3477075914837355 33.18289719941716 22.327526408834267 0 0 0
1218 1 1 0 6.916106781220455 31.614498009680464 22.327526408834263 0 0 0
1233 90 2 0 6.1319071863521 32.398697604548815 22.949556694232587 0 0 0
1234 90 2 0 6.131907186352114 32.39869760454882 24.42401603039022 0 0 0
1235 90 2 0 5.2750652480272295 33.255539542873684 25.135145260457932 0 0 0
1236 90 3 0 4.60235018479268 33.92825460610822 24.617212780173233 0 0 0
1243 90 2 0 6.988749124677007 31.541855666223963 25.13514526045793 0 0 0
1244 90 3 0 7.661464187911556 30.86914060298943 24.617212780173226 0 0 0
1145 1 1 0 16.203078382066657 33.182897199417155 18.481102800582097 0 0 0
1146 84 2 0 15.581048096668333 32.3986976045488 19.265302395450455 0 0 0
1147 84 2 0 14.106588760510698 32.3986976045488 19.265302395450455 0 0 0
1148 84 2 0 13.395459530442986 33.255539542873656 18.408460457125564 0 0 0
1149 84 3 0 13.913392010727689 33.92825460610819 17.735745393891015 0 0 0
1175 1 1 0 9.194131199735901 31.61449800968045 20.049501990318817 0 0 0
1176 84 2 0 9.816161485134227 32.3986976045488 19.265302395450462 0 0 0
1177 84 2 0 11.290620821291864 32.39869760454879 19.26530239545046 0 0 0
1178 84 2 0 12.001750051359576 31.541855666223928 20.12214433377534 0 0 0
1179 84 3 0 11.483817571074873 30.869140602989393 20.794859397009887 0 0 0
1188 1 1 0 9.194131199735903 33.182897199417155 18.481102800582107 0 0 0
1189 84 2 0 12.001750051359572 33.255539542873656 18.408460457125567 0 0 0
1190 84 3 0 11.483817571074868 33.92825460610819 17.73574539389102 0 0 0
1206 1 1 0 16.203078382066657 31.614498009680453 20.049501990318813 0 0 0
1207 84 2 0 13.395459530442992 31.54185566622393 20.12214433377534 0 0 0
1208 84 3 0 13.913392010727696 30.869140602989397 20.794859397009883 0 0 0
874 1 1 0 20.04950199031882 29.336473591165014 18.48110280058211 0 0 0
875 12 2 0 19.265302395450465 28.714443305766693 19.265302395450465 0 0 0
876 12 2 0 19.265302395450462 27.23998396960906 19.265302395450462 0 0 0
877 12 2 0 20.12214433377533 26.52885473954135 18.408460457125585 0 0 0
878 12 3 0 20.794859397009873 27.046787219826054 17.73574539389104 0 0 0
882 1 1 0 18.481102800582114 29.336473591165017 20.04950199031882 0 0 0
883 12 2 0 18.408460457125585 26.52885473954135 20.122144333775335 0 0 0
884 12 3 0 17.73574539389104 27.046787219826054 20.794859397009876 0 0 0
886 1 4 0 18.142071006292884 31.275466215391237 20.38853378460804 0 0 0
887 1 4 0 20.388533784608047 31.275466215391237 18.14207100629288 0 0 0
901 1 5 0 19.265302395450465 32.398697604548815 19.26530239545046 0 0 0
905 1 4 0 20.388533784608043 33.52192899370639 20.38853378460804 0 0 0
1015 1 4 0 18.14207100629288 33.52192899370638 18.142071006292877 0 0 0
1016 1 1 0 18.481102800582107 33.182897199417155 16.203078382066654 0 0 0
1017 77 2 0 19.265302395450462 32.3986976045488 15.581048096668331 0 0 0
1018 77 2 0 19.265302395450462 32.3986976045488 14.106588760510697 0 0 0
1019 77 2 0 18.408460457125578 33.25553954287366 13.395459530442986 0 0 0
1020 77 3 0 17.735745393891026 33.9282546061082 13.913392010727689 0 0 0
1048 1 1 0 20.049501990318813 35.46092161793261 20.049501990318813 0 0 0
1049 83 2 0 19.26530239545046 36.08295190333094 19.26530239545046 0 0 0
1050 83 2 0 19.26530239545046 37.55741123948857 19.26530239545046 0 0 0
1051 83 2 0 20.122144333775335 38.26854046955628 20.122144333775335 0 0 0
1052 83 3 0 20.794859397009873 37.75060798927157 20.794859397009873 0 0 0
1121 1 1 0 20.04950199031882 31.614498009680453 16.203078382066657 0 0 0
1122 77 2 0 20.122144333775342 31.54185566622393 13.395459530442988 0 0 0
1123 77 3 0 20.794859397009887 30.869140602989393 13.913392010727692 0 0 0
1133 1 1 0 18.481102800582104 35.46092161793261 18.481102800582104 0 0 0
1134 83 2 0 18.408460457125585 38.26854046955628 18.408460457125585 0 0 0
1135 83 3 0 17.735745393891044 37.75060798927158 17.73574539389104 0 0 0
1209 1 1 0 18.4811028005821 31.61449800968047 22.327526408834263 0 0 0
1212 1 1 0 22.327526408834267 33.18289719941718 20.049501990318817 0 0 0
1219 1 1 0 20.049501990318817 33.18289719941717 22.327526408834263 0 0 0
1224 1 1 0 22.327526408834267 31.61449800968047 18.481102800582104 0 0 0
1225 88 2 0 19.26530239545046 32.39869760454882 22.949556694232587 0 0 0
1226 88 2 0 19.26530239545045 32.39869760454883 24.42401603039022 0 0 0
1227 88 2 0 18.408460457125578 31.54185566622395 25.135145260457925 0 0 0
1228 88 3 0 17.735745393891037 30.86914060298941 24.617212780173222 0 0 0
1245 88 2 0 20.12214433377532 33.255539542873706 25.135145260457932 0 0 0
1246 88 3 0 20.79485939700986 33.928254606108254 24.617212780173233 0 0 0
1265 93 2 0 22.94955669423259 32.39869760454883 19.265302395450455 0 0 0
1266 93 2 0 24.424016030390227 32.398697604548836 19.26530239545045 0 0 0
1267 93 2 0 25.135145260457936 33.25553954287372 20.122144333775314 0 0 0
1268 93 3 0 24.617212780173233 33.92825460610826 20.794859397009855 0 0 0
1271 93 2 0 25.135145260457932 31.54185566622396 18.408460457125575 0 0 0
1272 93 3 0 24.61721278017323 30.869140602989415 17.73574539389104 0 0 0
1273 1 1 0 3.0696831729682548 33.18289719941716 31.61449800968046 0 0 0
1274 94 2 0 2.4476528875699275 32.398697604548815 32.39869760454882 0 0 0
1275 94 2 0 0.9731935514122861 32.39869760454882 32.39869760454882 0 0 0
1276 94 2 0 0.26206432134457447 33.2555395428737 31.541855666223952 0 0 0
1277 94 3 0 0.7799968016292836 33.92825460610824 30.869140602989415 0 0 0
1286 1 1 0 3.0696831729682543 31.614498009680457 33.18289719941717 0 0 0
1287 94 2 0 0.26206432134457486 31.541855666223952 33.255539542873706 0 0 0
1288 94 3 0 0.7799968016292842 30.869140602989415 33.92825460610825 0 0 0
1289 1 4 0 5.0086757971944955 33.521928993706375 31.275466215391234 0 0 0
1291 1 4 0 5.008675797194494 31.27546621539123 33.52192899370638 0 0 0
1293 1 1 0 5.347707591483738 29.33647359116501 33.18289719941716 0 0 0
1294 45 2 0 6.131907186352109 28.714443305766686 32.39869760454882 0 0 0
1295 45 2 0 6.131907186352115 27.239983969609053 32.39869760454882 0 0 0
1296 45 2 0 5.275065248027229 26.528854739541348 33.255539542873684 0 0 0
1297 45 3 0 4.602350184792687 27.04678721982605 33.928254606108226 0 0 0
1303 1 1 0 6.916106781220467 29.33647359116501 31.61449800968047 0 0 0
1304 45 2 0 6.988749124677007 26.528854739541345 31.541855666223963 0 0 0
1305 45 3 0 7.66146418791156 27.046787219826047 30.869140602989432 0 0 0
1309 1 4 0 7.255138575509682 31.27546621539123 31.275466215391237 0 0 0
1312 1 5 0 6.131907186352084 32.3986976045488 32.39869760454881 0 0 0
1313 1 1 0 6.916106781220463 31.614498009680457 29.336473591165014 0 0 0
1314 90 2 0 6.131907186352104 32.39869760454881 28.71444330576669 0 0 0
1315 90 2 0 6.131907186352119 32.39869760454882 27.239983969609053 0 0 0
1316 90 2 0 6.9887491246770095 31.541855666223963 26.528854739541345 0 0 0
1317 90 3 0 7.66146418791156 30.86914060298943 27.046787219826044 0 0 0
1430 1 1 0 5.347707591483741 33.182897199417155 29.336473591165014 0 0 0
1431 90 2 0 5.275065248027232 33.255539542873684 26.528854739541348 0 0 0
1432 90 3 0 4.602350184792684 33.92825460610822 27.046787219826047 0 0 0
1451 1 4 0 7.255138575509674 33.521928993706375 33.52192899370638 0 0 0
1452 1 1 0 6.9161067812204555 33.18289719941716 35.460921617932605 0 0 0
1453 103 2 0 6.1319071863520955 32.398697604548815 36.08295190333093 0 0 0
1454 103 2 0 6.131907186352096 32.39869760454882 37.557411239488566 0 0 0
1455 103 2 0 6.988749124676969 33.255539542873706 38.26854046955627 0 0 0
1456 103 3 0 7.661464187911513 33.92825460610824 37.750607989271565 0 0 0
1467 1 1 0 5.347707591483735 35.4609216179326 31.614498009680467 0 0 0
1468 106 2 0 6.131907186352091 36.08295190333092 32.39869760454882 0 0 0
1469 106 2 0 6.131907186352093 37.55741123948856 32.39869760454883 0 0 0
1470 106 2 0 5.2750652480272135 38.26854046955627 31.541855666223963 0 0 0
1471 106 3 0 4.602350184792672 37.75060798927157 30.86914060298942 0 0 0
1554 1 1 0 5.347707591483732 31.614498009680467 35.460921617932605 0 0 0
1555 103 2 0 5.275065248027215 31.541855666223956 38.26854046955628 0 0 0
1556 103 3 0 4.602350184792676 30.86914060298941 37.75060798927157 0 0 0
1560 1 1 0 6.91610678122045 35.4609216179326 33.18289719941717 0 0 0
1561 106 2 0 6.988749124676969 38.26854046955627 33.255539542873706 0 0 0
1562 106 3 0 7.661464187911508 37.750607989271565 33.92825460610825 0 0 0
1584 1 1 0 9.194131199735903 33.18289719941717 33.18289719941717 0 0 0
1585 111 2 0 9.81616148513423 32.398697604548815 32.398697604548815 0 0 0
1586 111 2 0 11.290620821291867 32.39869760454882 32.398697604548815 0 0 0
1587 111 2 0 12.001750051359576 33.2555395428737 33.25553954287369 0 0 0
1588 111 3 0 11.483817571074871 33.92825460610824 33.92825460610823 0 0 0
1589 1 1 0 16.203078382066657 31.614498009680467 31.614498009680467 0 0 0
1590 111 2 0 15.581048096668336 32.39869760454882 32.39869760454882 0 0 0
1591 111 2 0 14.106588760510702 32.39869760454882 32.39869760454882 0 0 0
1592 111 2 0 13.395459530442993 31.54185566622395 31.54185566622395 0 0 0
1593 111 3 0 13.9133920107277 30.86914060298941 30.86914060298941 0 0 0
1615 1 1 0 16.203078382066664 33.18289719941718 33.18289719941718 0 0 0
1616 111 2 0 13.395459530442992 33.25553954287369 33.2555395428737 0 0 0
1617 111 3 0 13.913392010727694 33.92825460610823 33.92825460610824 0 0 0
1624 1 1 0 9.194131199735908 31.61449800968046 31.61449800968046 0 0 0
1625 111 2 0 12.00175005135958 31.54185566622395 31.541855666223945 0 0 0
1626 111 3 0 11.483817571074876 30.869140602989408 30.869140602989408 0 0 0
1342 1 4 0 20.388533784608047 33.52192899370638 31.27546621539123 0 0 0
1343 1 5 0 19.265302395450465 32.39869760454881 32.39869760454881 0 0 0
1344 1 1 0 20.04950199031882 33.182897199417155 29.33647359116501 0 0 0
1345 88 2 0 19.26530239545046 32.39869760454881 28.714443305766686 0 0 0
1346 88 2 0 19.265302395450455 32.398697604548815 27.23998396960905 0 0 0
1347 88 2 0 20.122144333775324 33.2555395428737 26.528854739541345 0 0 0
1348 88 3 0 20.79485939700986 33.92825460610825 27.046787219826047 0 0 0
1355 1 4 0 18.142071006292877 31.275466215391237 31.275466215391234 0 0 0
1356 1 1 0 18.4811028005821 29.336473591165014 31.614498009680464 0 0 0
1357 63 2 0 19.26530239545046 28.71444330576669 32.398697604548815 0 0 0
1358 63 2 0 19.265302395450455 27.239983969609057 32.39869760454882 0 0 0
1359 63 2 0 18.40846045712558 26.528854739541345 31.54185566622395 0 0 0
1360 63 3 0 17.73574539389104 27.046787219826047 30.869140602989404 0 0 0
1385 1 4 0 20.388533784608047 31.27546621539123 33.52192899370638 0 0 0
1386 1 1 0 22.32752640883427 31.614498009680457 33.18289719941716 0 0 0
1387 98 2 0 22.94955669423259 32.398697604548815 32.39869760454881 0 0 0
1388 98 2 0 24.424016030390227 32.39869760454882 32.398697604548815 0 0 0
1389 98 2 0 25.135145260457936 31.54185566622395 33.25553954287369 0 0 0
1390 98 3 0 24.617212780173233 30.869140602989408 33.92825460610823 0 0 0
1400 1 1 0 18.481102800582093 31.61449800968046 29.33647359116501 0 0 0
1401 88 2 0 18.408460457125578 31.54185566622394 26.52885473954134 0 0 0
1402 88 3 0 17.73574539389104 30.869140602989397 27.04678721982604 0 0 0
1406 1 1 0 22.327526408834267 33.18289719941717 31.614498009680457 0 0 0
1407 98 2 0 25.135145260457936 33.25553954287369 31.541855666223938 0 0 0
1408 98 3 0 24.617212780173233 33.92825460610823 30.8691406029894 0 0 0
1421 1 1 0 20.04950199031882 29.336473591165014 33.18289719941716 0 0 0
1422 63 2 0 20.12214433377532 26.52885473954135 33.255539542873706 0 0 0
1423 63 3 0 20.794859397009855 27.046787219826054 33.928254606108254 0 0 0
1482 1 1 0 20.049501990318817 31.614498009680446 35.460921617932605 0 0 0
1483 101 2 0 19.265302395450462 32.3986976045488 36.08295190333093 0 0 0
1484 101 2 0 19.26530239545046 32.39869760454879 37.557411239488566 0 0 0
1485 101 2 0 20.122144333775328 31.541855666223917 38.26854046955628 0 0 0
1486 101 3 0 20.794859397009873 30.86914060298938 37.75060798927157 0 0 0
1509 1 4 0 18.14207100629289 33.52192899370639 33.52192899370639 0 0 0
1510 1 1 0 18.481102800582118 35.46092161793261 33.18289719941716 0 0 0
1511 105 2 0 19.26530239545046 36.08295190333093 32.39869760454879 0 0 0
1512 105 2 0 19.265302395450455 37.557411239488566 32.398697604548786 0 0 0
1513 105 2 0 18.40846045712557 38.26854046955628 33.255539542873656 0 0 0
1514 105 3 0 17.735745393891026 37.75060798927157 33.92825460610819 0 0 0
1521 1 1 0 18.481102800582114 33.18289719941716 35.46092161793261 0 0 0
1522 101 2 0 18.40846045712557 33.255539542873656 38.26854046955628 0 0 0
1523 101 3 0 17.735745393891026 33.92825460610819 37.75060798927157 0 0 0
1533 1 1 0 20.049501990318813 35.460921617932605 31.61449800968044 0 0 0
1534 105 2 0 20.122144333775335 38.26854046955628 31.541855666223917 0 0 0
1535 105 3 0 20.79485939700988 37.75060798927158 30.86914060298938 0 0 0
1331 1 4 0 5.008675797194496 33.52192899370639 46.65532420280477 0 0 0
1332 1 5 0 6.131907186352081 32.398697604548815 45.53209281364718 0 0 0
1349 1 4 0 7.255138575509668 31.27546621539124 46.65532420280477 0 0 0
1350 1 1 0 6.916106781220447 29.336473591165017 46.316292408515515 0 0 0
1351 62 2 0 6.131907186352103 28.714443305766697 45.53209281364715 0 0 0
1352 62 2 0 6.131907186352117 27.239983969609057 45.53209281364713 0 0 0
1353 62 2 0 6.988749124676977 26.528854739541348 46.38893475197202 0 0 0
1354 62 3 0 7.661464187911508 27.04678721982605 47.06164981520657 0 0 0
1373 1 4 0 5.008675797194494 31.275466215391248 44.40886142448959 0 0 0
1374 1 1 0 3.069683172968256 31.614498009680478 44.74789321877881 0 0 0
1375 96 2 0 2.447652887569929 32.39869760454883 45.53209281364717 0 0 0
1376 96 2 0 0.973193551412287 32.39869760454884 45.532092813647154 0 0 0
1377 96 2 0 0.2620643213445734 31.54185566622399 44.67525087532226 0 0 0
1378 96 3 0 0.7799968016292793 30.869140602989464 44.00253581208771 0 0 0
1409 1 1 0 3.0696831729682557 33.18289719941717 46.31629240851554 0 0 0
1410 96 2 0 0.2620643213445765 33.25553954287371 46.38893475197204 0 0 0
1411 96 3 0 0.7799968016292865 33.92825460610825 47.061649815206586 0 0 0
1424 1 1 0 5.347707591483741 29.33647359116502 44.7478932187788 0 0 0
1425 62 2 0 5.275065248027259 26.528854739541348 44.67525087532224 0 0 0
1426 62 3 0 4.602350184792737 27.04678721982605 44.00253581208768 0 0 0
1487 1 1 0 5.347707591483723 31.614498009680492 42.46986880026336 0 0 0
1488 103 2 0 6.131907186352089 32.398697604548836 41.84783851486504 0 0 0
1489 103 2 0 6.131907186352092 32.398697604548836 40.373379178707395 0 0 0
1490 103 2 0 5.2750652480272135 31.541855666223963 39.66224994863969 0 0 0
1491 103 3 0 4.602350184792674 30.86914060298942 40.1801824289244 0 0 0
1515 1 4 0 7.255138575509675 33.52192899370638 44.408861424489594 0 0 0
1516 1 1 0 6.9161067812204475 35.460921617932605 44.74789321877882 0 0 0
1517 104 2 0 6.131907186352088 36.08295190333093 45.53209281364717 0 0 0
1518 104 2 0 6.1319071863520875 37.557411239488566 45.53209281364716 0 0 0
1519 104 2 0 6.9887491246769455 38.26854046955628 44.67525087532227 0 0 0
1520 104 3 0 7.661464187911463 37.75060798927157 44.00253581208771 0 0 0
1527 1 1 0 6.916106781220462 33.18289719941717 42.46986880026336 0 0 0
1528 103 2 0 6.988749124676967 33.25553954287371 39.66224994863968 0 0 0
1529 103 3 0 7.661464187911507 33.928254606108254 40.18018242892439 0 0 0
1536 1 1 0 5.347707591483729 35.46092161793261 46.31629240851552 0 0 0
1537 104 2 0 5.275065248027229 38.26854046955628 46.38893475197205 0 0 0
1538 104 3 0 4.602350184792703 37.75060798927157 47.06164981520661 0 0 0
1639 1 1 0 5.347707591483736 33.18289719941718 48.594316827031015 0 0 0
1642 1 1 0 6.916106781220448 31.61449800968047 48.59431682703101 0 0 0
1657 68 2 0 6.1319071863521 32.39869760454883 49.21634711242934 0 0 0
1658 68 2 0 6.131907186352115 32.39869760454884 50.69080644858698 0 0 0
1659 68 2 0 5.275065248027244 33.25553954287372 51.401935678654695 0 0 0
1660 68 3 0 4.602350184792702 33.92825460610826 50.884003198369996 0 0 0
1667 68 2 0 6.988749124676998 31.541855666223977 51.401935678654695 0 0 0
1668 68 3 0 7.661464187911541 30.86914060298944 50.88400319836999 0 0 0
1569 1 1 0 16.20307838206666 33.18289719941717 44.74789321877882 0 0 0
1570 108 2 0 15.581048096668338 32.39869760454882 45.53209281364718 0 0 0
1571 108 2 0 14.1065887605107 32.39869760454883 45.53209281364719 0 0 0
1572 108 2 0 13.39545953044299 33.255539542873684 44.67525087532229 0 0 0
1573 108 3 0 13.913392010727694 33.928254606108204 44.002535812087736 0 0 0
1599 1 1 0 9.194131199735901 31.61449800968047 46.316292408515544 0 0 0
1600 108 2 0 9.816161485134227 32.39869760454882 45.53209281364719 0 0 0
1601 108 2 0 11.290620821291865 32.39869760454882 45.53209281364719 0 0 0
1602 108 2 0 12.001750051359576 31.54185566622397 46.38893475197209 0 0 0
1603 108 3 0 11.483817571074873 30.869140602989447 47.06164981520664 0 0 0
1612 1 1 0 9.194131199735901 33.18289719941716 44.74789321877883 0 0 0
1613 108 2 0 12.001750051359574 33.25553954287368 44.6752508753223 0 0 0
1614 108 3 0 11.48381757107487 33.928254606108204 44.00253581208774 0 0 0
1630 1 1 0 16.203078382066664 31.614498009680478 46.316292408515544 0 0 0
1631 108 2 0 13.395459530442992 31.54185566622397 46.38893475197208 0 0 0
1632 108 3 0 13.913392010727696 30.869140602989447 47.061649815206636 0 0 0
1298 1 1 0 20.049501990318802 29.336473591165014 44.747893218778835 0 0 0
1299 44 2 0 19.26530239545045 28.714443305766693 45.532092813647196 0 0 0
1300 44 2 0 19.26530239545044 27.239983969609057 45.53209281364719 0 0 0
1301 44 2 0 20.122144333775292 26.528854739541348 44.67525087532229 0 0 0
1302 44 3 0 20.794859397009816 27.046787219826047 44.00253581208773 0 0 0
1306 1 1 0 18.481102800582104 29.336473591165017 46.31629240851556 0 0 0
1307 44 2 0 18.408460457125578 26.528854739541348 46.38893475197207 0 0 0
1308 44 3 0 17.73574539389105 27.046787219826047 47.06164981520663 0 0 0
1310 1 4 0 18.142071006292884 31.275466215391248 46.65532420280478 0 0 0
1311 1 4 0 20.388533784608043 31.275466215391234 44.4088614244896 0 0 0
1325 1 5 0 19.265302395450465 32.398697604548815 45.53209281364718 0 0 0
1329 1 4 0 20.388533784608043 33.52192899370639 46.65532420280477 0 0 0
1439 1 4 0 18.142071006292888 33.52192899370639 44.408861424489594 0 0 0
1440 1 1 0 18.481102800582107 33.182897199417155 42.46986880026336 0 0 0
1441 101 2 0 19.265302395450462 32.3986976045488 41.84783851486504 0 0 0
1442 101 2 0 19.26530239545046 32.39869760454879 40.3733791787074 0 0 0
1443 101 2 0 18.40846045712557 33.255539542873656 39.66224994863969 0 0 0
1444 101 3 0 17.735745393891026 33.9282546061082 40.18018242892439 0 0 0
1472 1 1 0 20.049501990318806 35.46092161793261 46.31629240851554 0 0 0
1473 107 2 0 19.265302395450473 36.08295190333094 45.53209281364716 0 0 0
1474 107 2 0 19.265302395450476 37.55741123948857 45.532092813647154 0 0 0
1475 107 2 0 20.122144333775328 38.26854046955628 46.38893475197205 0 0 0
1476 107 3 0 20.794859397009844 37.75060798927157 47.061649815206614 0 0 0
1545 1 1 0 20.049501990318817 31.61449800968045 42.46986880026336 0 0 0
1546 101 2 0 20.12214433377533 31.541855666223917 39.66224994863969 0 0 0
1547 101 3 0 20.794859397009876 30.86914060298938 40.1801824289244 0 0 0
1557 1 1 0 18.481102800582125 35.46092161793261 44.7478932187788 0 0 0
1558 107 2 0 18.40846045712564 38.268540469556285 44.67525087532225 0 0 0
1559 107 3 0 17.73574539389113 37.750607989271586 44.00253581208767 0 0 0
1633 1 1 0 18.48110280058211 31.614498009680485 48.594316827031015 0 0 0
1636 1 1 0 22.327526408834267 33.18289719941718 46.31629240851552 0 0 0
1643 1 1 0 20.04950199031883 33.182897199417184 48.594316827031015 0 0 0
1648 1 1 0 22.327526408834267 31.614498009680467 44.74789321877881 0 0 0
1649 71 2 0 19.26530239545047 32.398697604548836 49.21634711242934 0 0 0
1650 71 2 0 19.26530239545046 32.39869760454884 50.69080644858698 0 0 0
1651 71 2 0 18.408460457125592 31.54185566622396 51.401935678654695 0 0 0
1652 71 3 0 17.735745393891065 30.86914060298941 50.88400319836999 0 0 0
1669 71 2 0 20.122144333775314 33.255539542873734 51.401935678654695 0 0 0
1670 71 3 0 20.794859397009834 33.9282546061083 50.884003198369996 0 0 0
1689 113 2 0 22.94955669423259 32.39869760454883 45.53209281364716 0 0 0
1690 113 2 0 24.424016030390227 32.39869760454884 45.53209281364715 0 0 0
1691 113 2 0 25.135145260457936 33.25553954287371 46.38893475197202 0 0 0
1692 113 3 0 24.617212780173237 33.928254606108254 47.06164981520657 0 0 0
1695 113 2 0 25.135145260457932 31.541855666223988 44.67525087532225 0 0 0
1696 113 3 0 24.61721278017323 30.869140602989457 44.0025358120877 0 0 0
911 1 4 0 5.008675797194497 44.40886142448959 5.008675797194499 0 0 0
912 1 5 0 6.1319071863520795 45.53209281364718 6.131907186352081 0 0 0
913 1 1 0 5.347707591483741 44.747893218778806 3.069683172968254 0 0 0
914 70 2 0 6.131907186352103 45.532092813647154 2.4476528875699257 0 0 0
915 70 2 0 6.1319071863521115 45.53209281364715 0.9731935514122803 0 0 0
916 70 2 0 5.275065248027269 44.67525087532224 0.26206432134456337 0 0 0
917 70 3 0 4.60235018479275 44.00253581208768 0.7799968016292704 0 0 0
943 1 4 0 7.2551385755096645 46.65532420280476 5.0086757971944955 0 0 0
944 1 1 0 6.916106781220446 48.59431682703101 5.347707591483737 0 0 0
945 4 2 0 6.1319071863521 49.21634711242934 6.131907186352101 0 0 0
946 4 2 0 6.131907186352111 50.69080644858698 6.1319071863521115 0 0 0
947 4 2 0 6.988749124676988 51.401935678654695 5.27506524802724 0 0 0
948 4 3 0 7.6614641879115295 50.88400319836999 4.602350184792701 0 0 0
955 1 4 0 5.008675797194496 46.65532420280477 7.255138575509668 0 0 0
956 1 1 0 3.0696831729682543 46.31629240851554 6.916106781220441 0 0 0
957 73 2 0 2.4476528875699275 45.53209281364717 6.1319071863521 0 0 0
958 73 2 0 0.9731935514122831 45.532092813647154 6.131907186352114 0 0 0
959 73 2 0 0.2620643213445691 46.38893475197204 6.9887491246769775 0 0 0
960 73 3 0 0.7799968016292768 47.06164981520659 7.661464187911504 0 0 0
973 1 1 0 6.916106781220444 46.31629240851552 3.0696831729682534 0 0 0
974 70 2 0 6.988749124676977 46.38893475197203 0.2620643213445687 0 0 0
975 70 3 0 7.661464187911509 47.06164981520658 0.779996801629278 0 0 0
988 1 1 0 3.0696831729682548 44.74789321877881 5.3477075914837435 0 0 0
989 73 2 0 0.26206432134456936 44.675250875322256 5.275065248027264 0 0 0
990 73 3 0 0.7799968016292779 44.0025358120877 4.60235018479274 0 0 0
994 1 1 0 5.347707591483739 48.594316827031015 6.916106781220453 0 0 0
995 4 2 0 5.27506524802724 51.401935678654695 6.98874912467699 0 0 0
996 4 3 0 4.602350184792701 50.88400319836999 7.661464187911531 0 0 0
1053 1 1 0 5.347707591483729 46.31629240851552 9.194131199735901 0 0 0
1054 76 2 0 6.131907186352087 45.53209281364717 9.816161485134224 0 0 0
1055 76 2 0 6.131907186352085 45.53209281364716 11.290620821291862 0 0 0
1056 76 2 0 5.275065248027235 46.38893475197206 12.001750051359574 0 0 0
1057 76 3 0 4.602350184792717 47.06164981520662 11.483817571074871 0 0 0
1073 1 4 0 7.255138575509667 44.408861424489594 7.255138575509667 0 0 0
1074 1 1 0 6.91610678122045 42.469868800263356 6.916106781220452 0 0 0
1075 82 2 0 6.131907186352096 41.84783851486503 6.131907186352098 0 0 0
1076 82 2 0 6.1319071863521 40.373379178707395 6.131907186352101 0 0 0
1077 82 2 0 6.988749124676976 39.66224994863968 6.988749124676976 0 0 0
1078 82 3 0 7.661464187911517 40.18018242892439 7.661464187911516 0 0 0
1100 1 1 0 6.916106781220447 44.74789321877882 9.194131199735898 0 0 0
1101 76 2 0 6.9887491246769295 44.675250875322256 12.001750051359572 0 0 0
1102 76 3 0 7.66146418791145 44.00253581208769 11.48381757107487 0 0 0
1118 1 1 0 5.34770759148374 42.469868800263356 5.347707591483743 0 0 0
1119 82 2 0 5.275065248027226 39.66224994863969 5.275065248027226 0 0 0
1120 82 3 0 4.602350184792685 40.18018242892439 4.602350184792684 0 0 0
1150 1 1 0 16.203078382066664 44.74789321877882 6.916106781220444 0 0 0
1151 85 2 0 15.581048096668338 45.53209281364717 6.131907186352085 0 0 0
1152 85 2 0 14.1065887605107 45.53209281364716 6.131907186352081 0 0 0
1153 85 2 0 13.39545953044299 44.675250875322256 6.988749124676928 0 0 0
1154 85 3 0 13.913392010727694 44.00253581208769 7.661464187911448 0 0 0
1180 1 1 0 9.194131199735898 46.31629240851552 5.347707591483732 0 0 0
1181 85 2 0 9.816161485134224 45.53209281364717 6.131907186352087 0 0 0
1182 85 2 0 11.290620821291864 45.53209281364716 6.131907186352082 0 0 0
1183 85 2 0 12.001750051359574 46.38893475197206 5.275065248027231 0 0 0
1184 85 3 0 11.48381757107487 47.06164981520662 4.602350184792712 0 0 0
1185 1 1 0 9.194131199735898 44.74789321877881 6.91610678122044 0 0 0
1186 85 2 0 12.001750051359574 44.675250875322256 6.988749124676928 0 0 0
1187 85 3 0 11.483817571074871 44.00253581208769 7.661464187911449 0 0 0
1203 1 1 0 16.20307838206666 46.31629240851553 5.347707591483734 0 0 0
1204 85 2 0 13.39545953044299 46.38893475197206 5.27506524802723 0 0 0
1205 85 3 0 13.913392010727692 47.06164981520662 4.60235018479271 0 0 0
894 1 4 0 18.142071006292888 46.65532420280478 5.0086757971945 0 0 0
895 1 5 0 19.265302395450465 45.53209281364719 6.131907186352081 0 0 0
896 1 1 0 18.481102800582118 46.316292408515565 3.0696831729682557 0 0 0
897 69 2 0 19.26530239545046 45.532092813647196 2.447652887569927 0 0 0
898 69 2 0 19.265302395450444 45.53209281364718 0.9731935514122831 0 0 0
899 69 2 0 18.40846045712558 46.388934751972066 0.26206432134456903 0 0 0
900 69 3 0 17.73574539389105 47.06164981520662 0.7799968016292749 0 0 0
904 1 4 0 20.388533784608033 44.408861424489594 5.008675797194492 0 0 0
906 1 4 0 20.388533784608047 46.65532420280477 7.25513857550967 0 0 0
1003 1 1 0 20.049501990318802 44.74789321877883 3.069683172968252 0 0 0
1004 69 2 0 20.1221443337753 44.67525087532229 0.26206432134456936 0 0 0
1005 69 3 0 20.794859397009823 44.002535812087736 0.7799968016292785 0 0 0
1021 1 4 0 18.142071006292888 44.4088614244896 7.255138575509672 0 0 0
1022 1 1 0 18.48110280058212 44.74789321877882 9.194131199735901 0 0 0
1023 78 2 0 19.265302395450476 45.532092813647175 9.816161485134227 0 0 0
1024 78 2 0 19.265302395450483 45.53209281364716 11.290620821291865 0 0 0
1025 78 2 0 18.408460457125646 44.67525087532225 12.001750051359574 0 0 0
1026 78 3 0 17.735745393891133 44.00253581208768 11.48381757107487 0 0 0
1038 1 1 0 20.0495019903188 42.46986880026336 5.3477075914837275 0 0 0
1039 81 2 0 19.265302395450455 41.84783851486504 6.1319071863520955 0 0 0
1040 81 2 0 19.265302395450455 40.3733791787074 6.131907186352101 0 0 0
1041 81 2 0 20.12214433377532 39.66224994863969 5.275065248027216 0 0 0
1042 81 3 0 20.79485939700985 40.1801824289244 4.602350184792666 0 0 0
1127 1 1 0 20.04950199031883 46.31629240851553 9.194131199735903 0 0 0
1128 78 2 0 20.122144333775324 46.388934751972066 12.001750051359576 0 0 0
1129 78 3 0 20.79485939700984 47.061649815206636 11.483817571074873 0 0 0
1142 1 1 0 18.48110280058211 42.46986880026337 6.916106781220456 0 0 0
1143 81 2 0 18.408460457125592 39.66224994863969 6.988749124676991 0 0 0
1144 81 3 0 17.735745393891058 40.1801824289244 7.66146418791154 0 0 0
1211 1 1 0 22.327526408834263 44.747893218778806 5.347707591483737 0 0 0
1214 1 1 0 20.04950199031882 48.594316827031015 6.916106781220459 0 0 0
1221 1 1 0 18.481102800582107 48.594316827031015 5.347707591483752 0 0 0
1223 1 1 0 22.32752640883427 46.31629240851552 6.91610678122044 0 0 0
1253 11 2 0 19.26530239545046 49.21634711242934 6.1319071863521115 0 0 0
1254 11 2 0 19.26530239545045 50.69080644858698 6.13190718635212 0 0 0
1255 11 2 0 20.122144333775317 51.4019356786547 6.988749124677002 0 0 0
1256 11 3 0 20.79485939700985 50.884003198369996 7.661464187911551 0 0 0
1257 11 2 0 18.408460457125585 51.401935678654695 5.275065248027237 0 0 0
1258 11 3 0 17.735745393891047 50.88400319836999 4.602350184792693 0 0 0
1261 92 2 0 22.94955669423259 45.532092813647154 6.131907186352097 0 0 0
1262 92 2 0 24.424016030390227 45.53209281364714 6.1319071863521115 0 0 0
1263 92 2 0 25.135145260457936 44.67525087532224 5.27506524802726 0 0 0
1264 92 3 0 24.617212780173233 44.00253581208768 4.602350184792739 0 0 0
1269 92 2 0 25.135145260457936 46.38893475197202 6.988749124676978 0 0 0
1270 92 3 0 24.617212780173237 47.061649815206586 7.661464187911499 0 0 0
854 1 1 0 3.0696831729682557 44.74789321877883 20.0495019903188 0 0 0
855 67 2 0 2.4476528875699293 45.532092813647196 19.26530239545046 0 0 0
856 67 2 0 0.9731935514122877 45.53209281364718 19.265302395450448 0 0 0
857 67 2 0 0.2620643213445752 44.675250875322284 20.122144333775296 0 0 0
858 67 3 0 0.7799968016292825 44.00253581208772 20.794859397009816 0 0 0
859 1 1 0 3.069683172968256 46.316292408515565 18.481102800582118 0 0 0
860 67 2 0 0.26206432134457514 46.388934751972066 18.408460457125585 0 0 0
861 67 3 0 0.7799968016292828 47.06164981520663 17.735745393891065 0 0 0
866 1 4 0 5.008675797194493 44.4088614244896 20.388533784608033 0 0 0
868 1 4 0 5.008675797194498 46.655324202804785 18.142071006292884 0 0 0
902 1 4 0 7.255138575509668 46.65532420280478 20.388533784608043 0 0 0
903 1 5 0 6.13190718635208 45.532092813647196 19.265302395450462 0 0 0
1009 1 4 0 7.2551385755096724 44.40886142448961 18.14207100629289 0 0 0
1010 1 1 0 6.916106781220444 44.74789321877882 16.203078382066664 0 0 0
1011 76 2 0 6.131907186352084 45.53209281364717 15.581048096668336 0 0 0
1012 76 2 0 6.131907186352079 45.532092813647154 14.1065887605107 0 0 0
1013 76 2 0 6.988749124676924 44.67525087532225 13.39545953044299 0 0 0
1014 76 3 0 7.661464187911444 44.002535812087686 13.913392010727694 0 0 0
1033 1 1 0 5.347707591483727 42.46986880026337 20.0495019903188 0 0 0
1034 80 2 0 6.131907186352096 41.847838514865046 19.26530239545046 0 0 0
1035 80 2 0 6.131907186352102 40.3733791787074 19.26530239545046 0 0 0
1036 80 2 0 5.275065248027218 39.66224994863969 20.122144333775324 0 0 0
1037 80 3 0 4.602350184792665 40.1801824289244 20.79485939700985 0 0 0
1124 1 1 0 5.347707591483731 46.31629240851553 16.203078382066657 0 0 0
1125 76 2 0 5.275065248027234 46.38893475197206 13.39545953044299 0 0 0
1126 76 3 0 4.602350184792714 47.06164981520662 13.913392010727692 0 0 0
1139 1 1 0 6.916106781220462 42.46986880026337 18.481102800582118 0 0 0
1140 80 2 0 6.988749124676992 39.66224994863969 18.408460457125596 0 0 0
1141 80 3 0 7.661464187911541 40.1801824289244 17.73574539389106 0 0 0
1210 1 1 0 6.916106781220445 46.31629240851553 22.327526408834267 0 0 0
1213 1 1 0 5.347707591483749 48.59431682703102 18.481102800582104 0 0 0
1220 1 1 0 5.347707591483733 44.74789321877882 22.32752640883426 0 0 0
1222 1 1 0 6.916106781220455 48.59431682703102 20.049501990318817 0 0 0
1229 89 2 0 6.131907186352094 45.53209281364717 22.949556694232587 0 0 0
1230 89 2 0 6.1319071863521115 45.53209281364715 24.424016030390224 0 0 0
1231 89 2 0 6.9887491246769775 46.38893475197203 25.135145260457936 0 0 0
1232 89 3 0 7.661464187911501 47.06164981520659 24.617212780173237 0 0 0
1247 89 2 0 5.27506524802726 44.67525087532225 25.135145260457932 0 0 0
1248 89 3 0 4.602350184792734 44.00253581208769 24.61721278017323 0 0 0
1249 10 2 0 6.131907186352108 49.21634711242935 19.265302395450455 0 0 0
1250 10 2 0 6.131907186352118 50.69080644858699 19.265302395450448 0 0 0
1251 10 2 0 5.275065248027236 51.4019356786547 18.40846045712558 0 0 0
1252 10 3 0 4.602350184792691 50.88400319837 17.735745393891044 0 0 0
1259 10 2 0 6.988749124677005 51.4019356786547 20.12214433377531 0 0 0
1260 10 3 0 7.6614641879115535 50.884003198369996 20.794859397009844 0 0 0
1155 1 1 0 9.1941311997359 44.74789321877883 18.481102800582118 0 0 0
1156 86 2 0 9.816161485134225 45.532092813647175 19.265302395450476 0 0 0
1157 86 2 0 11.290620821291864 45.53209281364717 19.26530239545048 0 0 0
1158 86 2 0 12.001750051359574 44.675250875322256 18.408460457125642 0 0 0
1159 86 3 0 11.483817571074868 44.002535812087686 17.735745393891133 0 0 0
1170 1 1 0 16.20307838206666 46.316292408515544 20.049501990318813 0 0 0
1171 86 2 0 15.581048096668336 45.532092813647175 19.265302395450473 0 0 0
1172 86 2 0 14.1065887605107 45.53209281364717 19.26530239545048 0 0 0
1173 86 2 0 13.39545953044299 46.388934751972066 20.122144333775328 0 0 0
1174 86 3 0 13.913392010727694 47.06164981520663 20.794859397009848 0 0 0
1194 1 1 0 16.20307838206666 44.74789321877881 18.481102800582125 0 0 0
1195 86 2 0 13.39545953044299 44.675250875322256 18.408460457125642 0 0 0
1196 86 3 0 13.91339201072769 44.002535812087686 17.735745393891126 0 0 0
1197 1 1 0 9.194131199735901 46.31629240851554 20.049501990318824 0 0 0
1198 86 2 0 12.001750051359574 46.388934751972066 20.122144333775328 0 0 0
1199 86 3 0 11.483817571074873 47.061649815206636 20.79485939700984 0 0 0
909 1 4 0 20.38853378460804 44.4088614244896 20.388533784608043 0 0 0
910 1 5 0 19.265302395450462 45.53209281364719 19.265302395450465 0 0 0
937 1 4 0 18.142071006292884 46.655324202804785 20.38853378460804 0 0 0
938 1 1 0 18.48110280058211 48.59431682703102 20.049501990318817 0 0 0
939 5 2 0 19.265302395450465 49.216347112429354 19.265302395450462 0 0 0
940 5 2 0 19.265302395450462 50.690806448587 19.265302395450462 0 0 0
941 5 2 0 18.408460457125585 51.40193567865471 20.122144333775335 0 0 0
942 5 3 0 17.73574539389104 50.88400319837 20.794859397009873 0 0 0
967 1 4 0 20.388533784608036 46.655324202804785 18.142071006292888 0 0 0
968 1 1 0 22.327526408834263 46.31629240851555 18.481102800582114 0 0 0
969 75 2 0 22.949556694232587 45.53209281364719 19.265302395450462 0 0 0
970 75 2 0 24.424016030390224 45.53209281364718 19.26530239545045 0 0 0
971 75 2 0 25.135145260457932 46.38893475197207 18.40846045712559 0 0 0
972 75 3 0 24.61721278017323 47.06164981520663 17.735745393891065 0 0 0
979 1 1 0 22.327526408834263 44.74789321877883 20.04950199031881 0 0 0
980 75 2 0 25.135145260457936 44.675250875322284 20.1221443337753 0 0 0
981 75 3 0 24.617212780173237 44.002535812087714 20.794859397009812 0 0 0
991 1 1 0 20.049501990318817 48.59431682703102 18.481102800582107 0 0 0
992 5 2 0 20.122144333775335 51.4019356786547 18.40846045712559 0 0 0
993 5 3 0 20.794859397009876 50.884003198369996 17.735745393891047 0 0 0
1068 1 1 0 20.04950199031881 46.316292408515544 16.20307838206666 0 0 0
1069 78 2 0 19.265302395450465 45.532092813647175 15.581048096668338 0 0 0
1070 78 2 0 19.26530239545048 45.53209281364716 14.1065887605107 0 0 0
1071 78 2 0 20.122144333775328 46.388934751972066 13.395459530442992 0 0 0
1072 78 3 0 20.794859397009844 47.06164981520663 13.913392010727694 0 0 0
1079 1 4 0 18.142071006292884 44.408861424489594 18.142071006292888 0 0 0
1080 1 1 0 18.481102800582107 42.46986880026336 18.481102800582107 0 0 0
1081 83 2 0 19.265302395450462 41.84783851486504 19.265302395450462 0 0 0
1082 83 2 0 19.26530239545046 40.3733791787074 19.265302395450462 0 0 0
1083 83 2 0 18.40846045712558 39.66224994863969 18.408460457125585 0 0 0
1084 83 3 0 17.735745393891044 40.1801824289244 17.735745393891044 0 0 0
1106 1 1 0 18.481102800582114 44.74789321877882 16.203078382066664 0 0 0
1107 78 2 0 18.408460457125642 44.67525087532225 13.39545953044299 0 0 0
1108 78 3 0 17.73574539389113 44.002535812087686 13.913392010727696 0 0 0
1115 1 1 0 20.049501990318817 42.46986880026336 20.04950199031882 0 0 0
1116 83 2 0 20.122144333775335 39.6622499486397 20.12214433377534 0 0 0
1117 83 3 0 20.794859397009876 40.1801824289244 20.79485939700988 0 0 0
1216 1 1 0 20.049501990318802 44.74789321877883 22.32752640883427 0 0 0
1217 1 1 0 18.481102800582107 46.31629240851555 22.327526408834263 0 0 0
1237 91 2 0 19.265302395450455 45.53209281364719 22.94955669423259 0 0 0
1238 91 2 0 19.265302395450444 45.53209281364718 24.424016030390227 0 0 0
1239 91 2 0 20.122144333775292 44.675250875322284 25.135145260457936 0 0 0
1240 91 3 0 20.794859397009812 44.00253581208772 24.617212780173233 0 0 0
1241 91 2 0 18.40846045712559 46.38893475197207 25.135145260457936 0 0 0
1242 91 3 0 17.73574539389106 47.06164981520663 24.617212780173233 0 0 0
1335 1 4 0 5.008675797194494 44.40886142448959 31.275466215391244 0 0 0
1336 1 5 0 6.131907186352081 45.53209281364718 32.398697604548815 0 0 0
1337 1 1 0 5.347707591483742 44.747893218778806 29.336473591165017 0 0 0
1338 89 2 0 6.131907186352104 45.532092813647154 28.714443305766693 0 0 0
1339 89 2 0 6.131907186352119 45.53209281364714 27.23998396960906 0 0 0
1340 89 2 0 5.2750652480272615 44.67525087532225 26.528854739541348 0 0 0
1341 89 3 0 4.602350184792741 44.002535812087686 27.04678721982605 0 0 0
1367 1 4 0 7.255138575509669 46.65532420280477 31.27546621539124 0 0 0
1368 1 1 0 6.916106781220449 48.59431682703101 31.614498009680467 0 0 0
1369 40 2 0 6.131907186352096 49.21634711242934 32.39869760454882 0 0 0
1370 40 2 0 6.131907186352112 50.69080644858698 32.398697604548836 0 0 0
1371 40 2 0 6.988749124676996 51.401935678654695 31.54185566622397 0 0 0
1372 40 3 0 7.661464187911541 50.88400319836999 30.869140602989436 0 0 0
1379 1 4 0 5.0086757971944955 46.65532420280477 33.52192899370638 0 0 0
1380 1 1 0 3.069683172968254 46.31629240851554 33.18289719941717 0 0 0
1381 97 2 0 2.4476528875699266 45.53209281364717 32.39869760454883 0 0 0
1382 97 2 0 0.9731935514122841 45.532092813647154 32.39869760454884 0 0 0
1383 97 2 0 0.2620643213445752 46.388934751972045 33.255539542873706 0 0 0
1384 97 3 0 0.7799968016292846 47.06164981520659 33.92825460610824 0 0 0
1397 1 1 0 6.9161067812204475 46.31629240851552 29.336473591165017 0 0 0
1398 89 2 0 6.988749124676983 46.38893475197202 26.52885473954135 0 0 0
1399 89 3 0 7.661464187911509 47.06164981520658 27.046787219826054 0 0 0
1412 1 1 0 3.069683172968253 44.747893218778806 31.61449800968048 0 0 0
1413 97 2 0 0.2620643213445682 44.67525087532226 31.54185566622399 0 0 0
1414 97 3 0 0.7799968016292738 44.00253581208771 30.869140602989464 0 0 0
1418 1 1 0 5.347707591483732 48.594316827031015 33.18289719941717 0 0 0
1419 40 2 0 5.275065248027242 51.401935678654695 33.25553954287371 0 0 0
1420 40 3 0 4.602350184792701 50.884003198369996 33.928254606108254 0 0 0
1477 1 1 0 5.34770759148374 46.31629240851553 35.460921617932605 0 0 0
1478 100 2 0 6.131907186352089 45.53209281364717 36.08295190333093 0 0 0
1479 100 2 0 6.131907186352091 45.53209281364717 37.557411239488566 0 0 0
1480 100 2 0 5.275065248027233 46.38893475197206 38.26854046955628 0 0 0
1481 100 3 0 4.602350184792709 47.061649815206614 37.75060798927157 0 0 0
1497 1 4 0 7.255138575509673 44.408861424489594 33.52192899370638 0 0 0
1498 1 1 0 6.91610678122046 42.46986880026336 33.18289719941717 0 0 0
1499 106 2 0 6.1319071863520955 41.84783851486503 32.39869760454883 0 0 0
1500 106 2 0 6.131907186352093 40.373379178707395 32.398697604548836 0 0 0
1501 106 2 0 6.988749124676972 39.66224994863968 33.255539542873706 0 0 0
1502 106 3 0 7.661464187911508 40.18018242892438 33.928254606108254 0 0 0
1524 1 1 0 6.916106781220443 44.74789321877881 35.460921617932605 0 0 0
1525 100 2 0 6.988749124676943 44.67525087532227 38.26854046955628 0 0 0
1526 100 3 0 7.661464187911465 44.00253581208771 37.75060798927158 0 0 0
1542 1 1 0 5.347707591483728 42.469868800263356 31.614498009680485 0 0 0
1543 106 2 0 5.275065248027215 39.66224994863968 31.541855666223963 0 0 0
1544 106 3 0 4.602350184792676 40.18018242892439 30.86914060298942 0 0 0
1574 1 1 0 16.203078382066664 44.74789321877882 33.18289719941716 0 0 0
1575 109 2 0 15.581048096668338 45.53209281364718 32.398697604548815 0 0 0
1576 109 2 0 14.106588760510702 45.53209281364718 32.39869760454882 0 0 0
1577 109 2 0 13.395459530442992 44.6752508753223 33.255539542873684 0 0 0
1578 109 3 0 13.913392010727692 44.00253581208774 33.92825460610822 0 0 0
1604 1 1 0 9.194131199735903 46.316292408515544 31.61449800968047 0 0 0
1605 109 2 0 9.816161485134227 45.53209281364719 32.39869760454883 0 0 0
1606 109 2 0 11.290620821291865 45.53209281364719 32.39869760454883 0 0 0
1607 109 2 0 12.001750051359577 46.38893475197207 31.541855666223967 0 0 0
1608 109 3 0 11.483817571074875 47.06164981520662 30.869140602989432 0 0 0
1609 1 1 0 9.194131199735901 44.74789321877883 33.18289719941717 0 0 0
1610 109 2 0 12.001750051359576 44.675250875322305 33.25553954287369 0 0 0
1611 109 3 0 11.483817571074875 44.00253581208775 33.928254606108226 0 0 0
1627 1 1 0 16.20307838206666 46.316292408515544 31.61449800968047 0 0 0
1628 109 2 0 13.395459530442993 46.388934751972066 31.54185566622396 0 0 0
1629 109 3 0 13.913392010727698 47.061649815206614 30.86914060298943 0 0 0
1318 1 4 0 18.142071006292888 46.65532420280478 31.275466215391244 0 0 0
1319 1 5 0 19.26530239545047 45.53209281364719 32.398697604548815 0 0 0
1320 1 1 0 18.481102800582114 46.31629240851556 29.336473591165017 0 0 0
1321 91 2 0 19.265302395450462 45.532092813647196 28.714443305766693 0 0 0
1322 91 2 0 19.265302395450448 45.53209281364718 27.23998396960906 0 0 0
1323 91 2 0 18.40846045712559 46.38893475197207 26.528854739541348 0 0 0
1324 91 3 0 17.735745393891072 47.06164981520664 27.046787219826047 0 0 0
1328 1 4 0 20.388533784608047 44.4088614244896 31.275466215391237 0 0 0
1330 1 4 0 20.388533784608047 46.65532420280478 33.52192899370639 0 0 0
1427 1 1 0 20.04950199031881 44.747893218778835 29.336473591165017 0 0 0
1428 91 2 0 20.122144333775296 44.675250875322284 26.528854739541348 0 0 0
1429 91 3 0 20.794859397009816 44.00253581208772 27.04678721982605 0 0 0
1445 1 4 0 18.14207100629289 44.408861424489594 33.52192899370638 0 0 0
1446 1 1 0 18.481102800582125 44.747893218778806 35.460921617932605 0 0 0
1447 102 2 0 19.265302395450473 45.53209281364717 36.08295190333094 0 0 0
1448 102 2 0 19.265302395450476 45.53209281364716 37.55741123948857 0 0 0
1449 102 2 0 18.408460457125642 44.67525087532225 38.268540469556285 0 0 0
1450 102 3 0 17.735745393891126 44.00253581208768 37.750607989271586 0 0 0
1462 1 1 0 20.049501990318824 42.46986880026336 31.614498009680453 0 0 0
1463 105 2 0 19.265302395450465 41.84783851486504 32.3986976045488 0 0 0
1464 105 2 0 19.26530239545046 40.3733791787074 32.39869760454879 0 0 0
1465 105 2 0 20.122144333775335 39.66224994863969 31.54185566622392 0 0 0
1466 105 3 0 20.79485939700988 40.1801824289244 30.869140602989386 0 0 0
1551 1 1 0 20.049501990318817 46.31629240851554 35.46092161793261 0 0 0
1552 102 2 0 20.122144333775328 46.38893475197206 38.26854046955628 0 0 0
1553 102 3 0 20.794859397009837 47.06164981520663 37.75060798927157 0 0 0
1566 1 1 0 18.48110280058211 42.46986880026336 33.182897199417155 0 0 0
1567 105 2 0 18.40846045712557 39.66224994863969 33.255539542873656 0 0 0
1568 105 3 0 17.735745393891023 40.1801824289244 33.92825460610819 0 0 0
1635 1 1 0 22.32752640883427 44.74789321877882 31.614498009680474 0 0 0
1638 1 1 0 20.049501990318827 48.594316827031015 33.182897199417184 0 0 0
1645 1 1 0 18.48110280058211 48.594316827031015 31.61449800968048 0 0 0
1647 1 1 0 22.32752640883427 46.31629240851554 33.18289719941718 0 0 0
1677 43 2 0 19.265302395450465 49.21634711242934 32.398697604548836 0 0 0
1678 43 2 0 19.26530239545045 50.69080644858698 32.39869760454885 0 0 0
1679 43 2 0 20.122144333775307 51.4019356786547 33.25553954287374 0 0 0
1680 43 3 0 20.794859397009837 50.88400319837 33.9282546061083 0 0 0
1681 43 2 0 18.40846045712559 51.401935678654695 31.541855666223963 0 0 0
1682 43 3 0 17.73574539389106 50.88400319836999 30.86914060298941 0 0 0
1685 112 2 0 22.949556694232594 45.53209281364717 32.39869760454883 0 0 0
1686 112 2 0 24.424016030390227 45.532092813647154 32.39869760454885 0 0 0
1687 112 2 0 25.135145260457936 44.675250875322256 31.54185566622399 0 0 0
1688 112 3 0 24.617212780173233 44.0025358120877 30.86914060298946 0 0 0
1693 112 2 0 25.135145260457936 46.38893475197203 33.25553954287372 0 0 0
1694 112 3 0 24.617212780173233 47.06164981520658 33.92825460610825 0 0 0
1278 1 1 0 3.0696831729682517 44.74789321877882 46.31629240851552 0 0 0
1279 95 2 0 2.4476528875699253 45.53209281364717 45.53209281364716 0 0 0
1280 95 2 0 0.9731935514122816 45.532092813647154 45.53209281364715 0 0 0
1281 95 2 0 0.2620643213445682 44.67525087532228 46.388934751972016 0 0 0
1282 95 3 0 0.7799968016292785 44.00253581208773 47.06164981520654 0 0 0
1283 1 1 0 3.069683172968255 46.31629240851553 44.74789321877882 0 0 0
1284 95 2 0 0.26206432134456936 46.38893475197202 44.67525087532226 0 0 0
1285 95 3 0 0.7799968016292806 47.06164981520655 44.002535812087714 0 0 0
1290 1 4 0 5.0086757971944955 44.408861424489594 46.65532420280476 0 0 0
1292 1 4 0 5.008675797194497 46.65532420280476 44.4088614244896 0 0 0
1326 1 4 0 7.25513857550967 46.65532420280476 46.65532420280476 0 0 0
1327 1 5 0 6.131907186352081 45.53209281364718 45.53209281364718 0 0 0
1433 1 4 0 7.255138575509665 44.408861424489594 44.408861424489594 0 0 0
1434 1 1 0 6.916106781220437 44.74789321877881 42.46986880026336 0 0 0
1435 100 2 0 6.131907186352083 45.53209281364717 41.84783851486504 0 0 0
1436 100 2 0 6.131907186352081 45.53209281364716 40.3733791787074 0 0 0
1437 100 2 0 6.988749124676941 44.67525087532227 39.66224994863969 0 0 0
1438 100 3 0 7.661464187911462 44.00253581208771 40.1801824289244 0 0 0
1457 1 1 0 5.347707591483729 42.46986880026336 46.316292408515515 0 0 0
1458 104 2 0 6.131907186352086 41.84783851486504 45.53209281364716 0 0 0
1459 104 2 0 6.1319071863520875 40.3733791787074 45.53209281364716 0 0 0
1460 104 2 0 5.2750652480272295 39.66224994863969 46.38893475197205 0 0 0
1461 104 3 0 4.602350184792704 40.1801824289244 47.06164981520661 0 0 0
1548 1 1 0 5.347707591483734 46.31629240851553 42.46986880026336 0 0 0
1549 100 2 0 5.27506524802723 46.38893475197206 39.66224994863969 0 0 0
1550 100 3 0 4.602350184792703 47.061649815206614 40.18018242892439 0 0 0
1563 1 1 0 6.916106781220447 42.46986880026336 44.74789321877881 0 0 0
1564 104 2 0 6.988749124676946 39.66224994863969 44.67525087532227 0 0 0
1565 104 3 0 7.6614641879114656 40.1801824289244 44.00253581208771 0 0 0
1634 1 1 0 6.916106781220447 46.31629240851553 48.59431682703101 0 0 0
1637 1 1 0 5.3477075914837435 48.59431682703101 44.74789321877881 0 0 0
1644 1 1 0 5.347707591483736 44.74789321877882 48.59431682703101 0 0 0
1646 1 1 0 6.916106781220453 48.594316827031 46.31629240851552 0 0 0
1653 70 2 0 6.131907186352098 45.53209281364717 49.21634711242933 0 0 0
1654 70 2 0 6.1319071863521115 45.532092813647154 50.690806448586976 0 0 0
1655 70 2 0 6.988749124676973 46.38893475197204 51.401935678654695 0 0 0
1656 70 3 0 7.6614641879115 47.06164981520659 50.884003198369996 0 0 0
1671 70 2 0 5.275065248027267 44.67525087532225 51.40193567865469 0 0 0
1672 70 3 0 4.602350184792748 44.002535812087686 50.88400319836999 0 0 0
1673 42 2 0 6.131907186352107 49.21634711242933 45.53209281364716 0 0 0
1674 42 2 0 6.131907186352121 50.690806448586976 45.53209281364715 0 0 0
1675 42 2 0 5.275065248027264 51.40193567865469 44.675250875322256 0 0 0
1676 42 3 0 4.602350184792743 50.88400319836999 44.00253581208769 0 0 0
1683 42 2 0 6.988749124676985 51.40193567865469 46.38893475197203 0 0 0
1684 42 3 0 7.661464187911517 50.88400319836999 47.06164981520658 0 0 0
1579 1 1 0 9.194131199735896 44.74789321877882 44.74789321877881 0 0 0
1580 110 2 0 9.816161485134225 45.53209281364717 45.53209281364717 0 0 0
1581 110 2 0 11.290620821291865 45.53209281364716 45.53209281364716 0 0 0
1582 110 2 0 12.001750051359577 44.67525087532229 44.675250875322284 0 0 0
1583 110 3 0 11.483817571074876 44.00253581208775 44.00253581208774 0 0 0
1594 1 1 0 16.20307838206666 46.31629240851552 46.31629240851553 0 0 0
1595 110 2 0 15.581048096668342 45.53209281364717 45.53209281364717 0 0 0
1596 110 2 0 14.106588760510704 45.53209281364716 45.53209281364717 0 0 0
1597 110 2 0 13.395459530442992 46.38893475197204 46.38893475197204 0 0 0
1598 110 3 0 13.913392010727692 47.06164981520658 47.06164981520658 0 0 0
1618 1 1 0 16.20307838206667 44.74789321877881 44.74789321877882 0 0 0
1619 110 2 0 13.395459530442995 44.67525087532229 44.67525087532229 0 0 0
1620 110 3 0 13.9133920107277 44.00253581208775 44.00253581208775 0 0 0
1621 1 1 0 9.194131199735905 46.316292408515515 46.31629240851553 0 0 0
1622 110 2 0 12.001750051359576 46.38893475197204 46.38893475197204 0 0 0
1623 110 3 0 11.483817571074871 47.06164981520658 47.06164981520657 0 0 0
1333 1 4 0 20.388533784608043 44.4088614244896 46.65532420280478 0 0 0
1334 1 5 0 19.26530239545047 45.53209281364719 45.53209281364719 0 0 0
1361 1 4 0 18.142071006292888 46.65532420280477 46.65532420280477 0 0 0
1362 1 1 0 18.481102800582107 48.594316827031015 46.31629240851555 0 0 0
1363 41 2 0 19.26530239545045 49.21634711242935 45.53209281364719 0 0 0
1364 41 2 0 19.26530239545044 50.69080644858699 45.53209281364718 0 0 0
1365 41 2 0 18.40846045712557 51.4019356786547 46.38893475197206 0 0 0
1366 41 3 0 17.735745393891037 50.88400319837 47.06164981520661 0 0 0
1391 1 4 0 20.38853378460804 46.655324202804785 44.4088614244896 0 0 0
1392 1 1 0 22.32752640883427 46.316292408515544 44.74789321877882 0 0 0
1393 99 2 0 22.94955669423259 45.532092813647175 45.53209281364717 0 0 0
1394 99 2 0 24.424016030390227 45.532092813647154 45.53209281364714 0 0 0
1395 99 2 0 25.13514526045794 46.38893475197201 44.675250875322256 0 0 0
1396 99 3 0 24.617212780173237 47.06164981520654 44.00253581208771 0 0 0
1403 1 1 0 22.327526408834267 44.74789321877883 46.31629240851553 0 0 0
1404 99 2 0 25.13514526045794 44.67525087532227 46.38893475197201 0 0 0
1405 99 3 0 24.617212780173237 44.00253581208773 47.06164981520655 0 0 0
1415 1 1 0 20.0495019903188 48.59431682703102 44.74789321877883 0 0 0
1416 41 2 0 20.122144333775296 51.4019356786547 44.67525087532229 0 0 0
1417 41 3 0 20.79485939700982 50.884003198369996 44.002535812087736 0 0 0
1492 1 1 0 20.049501990318817 46.316292408515544 42.46986880026337 0 0 0
1493 102 2 0 19.265302395450476 45.532092813647175 41.847838514865046 0 0 0
1494 102 2 0 19.265302395450483 45.53209281364716 40.3733791787074 0 0 0
1495 102 2 0 20.122144333775328 46.38893475197206 39.66224994863969 0 0 0
1496 102 3 0 20.79485939700984 47.06164981520663 40.1801824289244 0 0 0
1503 1 4 0 18.1420710062929 44.4088614244896 44.4088614244896 0 0 0
1504 1 1 0 18.481102800582125 42.46986880026337 44.74789321877881 0 0 0
1505 107 2 0 19.26530239545048 41.847838514865046 45.53209281364717 0 0 0
1506 107 2 0 19.26530239545048 40.37337917870741 45.53209281364716 0 0 0
1507 107 2 0 18.40846045712564 39.6622499486397 44.67525087532225 0 0 0
1508 107 3 0 17.73574539389113 40.180182428924404 44.00253581208768 0 0 0
1530 1 1 0 18.48110280058213 44.74789321877881 42.46986880026337 0 0 0
1531 102 2 0 18.408460457125646 44.67525087532225 39.6622499486397 0 0 0
1532 102 3 0 17.73574539389113 44.002535812087686 40.1801824289244 0 0 0
1539 1 1 0 20.049501990318824 42.46986880026336 46.31629240851554 0 0 0
1540 107 2 0 20.122144333775328 39.66224994863969 46.38893475197206 0 0 0
1541 107 3 0 20.794859397009848 40.18018242892439 47.06164981520662 0 0 0
1640 1 1 0 20.04950199031881 44.74789321877883 48.594316827031015 0 0 0
1641 1 1 0 18.481102800582104 46.316292408515544 48.59431682703101 0 0 0
1661 69 2 0 19.26530239545045 45.53209281364718 49.21634711242934 0 0 0
1662 69 2 0 19.26530239545044 45.532092813647175 50.69080644858698 0 0 0
1663 69 2 0 20.122144333775296 44.675250875322284 51.401935678654695 0 0 0
1664 69 3 0 20.794859397009823 44.002535812087736 50.884003198369996 0 0 0
1665 69 2 0 18.40846045712558 46.388934751972066 51.401935678654695 0 0 0
1666 69 3 0 17.735745393891047 47.061649815206614 50.88400319836999 0 0 0
1697 1 1 0 29.33647359116502 6.916106781220447 5.347707591483735 0 0 0
1698 16 2 0 28.714443305766697 6.131907186352095 6.131907186352095 0 0 0
1699 16 2 0 27.23998396960906 6.1319071863521035 6.131907186352104 0 0 0
1700 16 2 0 26.52885473954135 6.988749124676982 5.275065248027232 0 0 0
1701 16 3 0 27.04678721982605 7.661464187911523 4.60235018479269 0 0 0
1710 1 1 0 29.33647359116502 5.347707591483733 6.916106781220445 0 0 0
1711 16 2 0 26.52885473954135 5.275065248027232 6.988749124676983 0 0 0
1712 16 3 0 27.04678721982605 4.60235018479269 7.661464187911524 0 0 0
1713 1 4 0 31.275466215391244 7.255138575509672 5.008675797194491 0 0 0
1715 1 4 0 31.275466215391244 5.00867579719449 7.255138575509672 0 0 0
1717 1 1 0 31.614498009680474 3.0696831729682494 6.916106781220458 0 0 0
1718 114 2 0 32.39869760454882 2.4476528875699213 6.131907186352098 0 0 0
1719 114 2 0 32.398697604548836 0.9731935514122779 6.131907186352113 0 0 0
1720 114 2 0 31.541855666223974 0.2620643213445627 6.988749124676999 0 0 0
1721 114 3 0 30.869140602989432 0.7799968016292694 7.661464187911541 0 0 0
1727 1 1 0 33.18289719941716 3.0696831729682486 5.347707591483729 0 0 0
1728 114 2 0 33.25553954287371 0.26206432134456736 5.275065248027241 0 0 0
1729 114 3 0 33.928254606108254 0.7799968016292762 4.6023501847927015 0 0 0
1733 1 4 0 33.52192899370638 5.008675797194491 5.008675797194495 0 0 0
1736 1 5 0 32.39869760454881 6.131907186352079 6.13190718635208 0 0 0
1737 1 1 0 33.18289719941718 5.347707591483733 3.069683172968252 0 0 0
1738 116 2 0 32.398697604548836 6.131907186352102 2.447652887569925 0 0 0
1739 116 2 0 32.39869760454885 6.131907186352118 0.9731935514122817 0 0 0
1740 116 2 0 33.25553954287373 5.275065248027246 0.26206432134456853 0 0 0
1741 116 3 0 33.92825460610827 4.602350184792706 0.7799968016292763 0 0 0
1854 1 1 0 31.61449800968048 6.916106781220456 3.0696831729682517 0 0 0
1855 116 2 0 31.54185566622398 6.988749124676997 0.26206432134456886 0 0 0
1856 116 3 0 30.86914060298944 7.6614641879115375 0.7799968016292771 0 0 0
1875 1 4 0 33.52192899370638 7.255138575509668 7.255138575509671 0 0 0
1876 1 1 0 33.18289719941717 6.916106781220453 9.1941311997359 0 0 0
1877 127 2 0 32.39869760454882 6.131907186352094 9.816161485134225 0 0 0
1878 127 2 0 32.39869760454883 6.131907186352095 11.290620821291864 0 0 0
1879 127 2 0 33.255539542873706 6.9887491246769695 12.001750051359574 0 0 0
1880 127 3 0 33.928254606108254 7.6614641879115055 11.483817571074871 0 0 0
1891 1 1 0 31.61449800968048 9.194131199735901 5.3477075914837275 0 0 0
1892 130 2 0 32.39869760454883 9.816161485134224 6.131907186352091 0 0 0
1893 130 2 0 32.39869760454883 11.290620821291862 6.1319071863520955 0 0 0
1894 130 2 0 31.541855666223952 12.00175005135957 5.275065248027222 0 0 0
1895 130 3 0 30.86914060298941 11.483817571074868 4.602350184792681 0 0 0
1978 1 1 0 31.614498009680478 5.347707591483728 9.194131199735901 0 0 0
1979 127 2 0 31.541855666223952 5.275065248027222 12.001750051359574 0 0 0
1980 127 3 0 30.86914060298941 4.602350184792682 11.483817571074871 0 0 0
1984 1 1 0 33.18289719941717 9.194131199735898 6.9161067812204555 0 0 0
1985 130 2 0 33.255539542873706 12.001750051359572 6.9887491246769695 0 0 0
1986 130 3 0 33.928254606108254 11.48381757107487 7.661464187911506 0 0 0
2008 1 1 0 35.460921617932605 6.9161067812204475 6.9161067812204475 0 0 0
2009 135 2 0 36.08295190333093 6.131907186352091 6.1319071863520955 0 0 0
2010 135 2 0 37.557411239488566 6.131907186352097 6.131907186352099 0 0 0
2011 135 2 0 38.26854046955627 6.988749124676976 6.988749124676976 0 0 0
2012 135 3 0 37.750607989271565 7.661464187911517 7.661464187911517 0 0 0
2013 1 1 0 42.46986880026336 5.347707591483742 5.347707591483744 0 0 0
2014 135 2 0 41.84783851486504 6.131907186352099 6.1319071863521 0 0 0
2015 135 2 0 40.3733791787074 6.131907186352103 6.131907186352103 0 0 0
2016 135 2 0 39.66224994863969 5.275065248027227 5.275065248027227 0 0 0
2017 135 3 0 40.1801824289244 4.6023501847926855 4.6023501847926855 0 0 0
2039 1 1 0 42.46986880026337 6.916106781220453 6.916106781220452 0 0 0
2040 135 2 0 39.66224994863969 6.988749124676978 6.988749124676978 0 0 0
2041 135 3 0 40.18018242892439 7.661464187911521 7.661464187911521 0 0 0
2048 1 1 0 35.460921617932605 5.347707591483733 5.347707591483743 0 0 0
2049 135 2 0 38.26854046955628 5.275065248027225 5.275065248027226 0 0 0
2050 135 3 0 37.75060798927158 4.602350184792684 4.602350184792685 0 0 0
1766 1 4 0 46.65532420280476 7.255138575509666 5.008675797194494 0 0 0
1767 1 5 0 45.53209281364718 6.13190718635208 6.131907186352081 0 0 0
1768 1 1 0 46.316292408515515 6.916106781220448 3.069683172968253 0 0 0
1769 119 2 0 45.532092813647154 6.1319071863521 2.447652887569926 0 0 0
1770 119 2 0 45.53209281364714 6.131907186352117 0.9731935514122826 0 0 0
1771 119 2 0 46.38893475197202 6.988749124676982 0.26206432134456914 0 0 0
1772 119 3 0 47.061649815206586 7.661464187911502 0.7799968016292766 0 0 0
1779 1 4 0 44.408861424489594 5.008675797194497 5.008675797194498 0 0 0
1780 1 1 0 44.747893218778806 3.0696831729682548 5.3477075914837435 0 0 0
1781 121 2 0 45.53209281364716 2.447652887569929 6.131907186352101 0 0 0
1782 121 2 0 45.53209281364715 0.9731935514122853 6.131907186352117 0 0 0
1783 121 2 0 44.675250875322256 0.2620643213445694 5.275065248027262 0 0 0
1784 121 3 0 44.00253581208769 0.7799968016292756 4.6023501847927415 0 0 0
1809 1 4 0 46.65532420280476 5.008675797194497 7.255138575509666 0 0 0
1810 1 1 0 48.59431682703101 5.347707591483743 6.9161067812204475 0 0 0
1811 2 2 0 49.21634711242934 6.131907186352101 6.1319071863520955 0 0 0
1812 2 2 0 50.69080644858698 6.131907186352112 6.131907186352108 0 0 0
1813 2 2 0 51.401935678654695 5.275065248027241 6.988749124676988 0 0 0
1814 2 3 0 50.88400319836999 4.6023501847927015 7.661464187911531 0 0 0
1824 1 1 0 44.747893218778806 5.347707591483737 3.0696831729682534 0 0 0
1825 119 2 0 44.67525087532224 5.275065248027266 0.262064321344569 0 0 0
1826 119 3 0 44.002535812087686 4.6023501847927415 0.7799968016292774 0 0 0
1830 1 1 0 48.59431682703101 6.9161067812204475 5.347707591483732 0 0 0
1831 2 2 0 51.4019356786547 6.988749124676988 5.2750652480272375 0 0 0
1832 2 3 0 50.88400319837 7.66146418791153 4.602350184792696 0 0 0
1845 1 1 0 46.31629240851553 3.0696831729682565 6.916106781220442 0 0 0
1846 121 2 0 46.38893475197203 0.2620643213445749 6.988749124676982 0 0 0
1847 121 3 0 47.061649815206586 0.7799968016292834 7.661464187911509 0 0 0
1906 1 1 0 46.316292408515515 5.347707591483731 9.1941311997359 0 0 0
1907 125 2 0 45.53209281364716 6.131907186352087 9.816161485134225 0 0 0
1908 125 2 0 45.532092813647154 6.131907186352082 11.290620821291864 0 0 0
1909 125 2 0 46.38893475197205 5.275065248027231 12.001750051359574 0 0 0
1910 125 3 0 47.06164981520662 4.602350184792718 11.483817571074871 0 0 0
1933 1 4 0 44.4088614244896 7.25513857550967 7.255138575509669 0 0 0
1934 1 1 0 44.74789321877882 9.1941311997359 6.916106781220445 0 0 0
1935 129 2 0 45.53209281364717 9.816161485134225 6.131907186352085 0 0 0
1936 129 2 0 45.53209281364716 11.290620821291864 6.131907186352081 0 0 0
1937 129 2 0 44.67525087532226 12.001750051359576 6.988749124676931 0 0 0
1938 129 3 0 44.00253581208769 11.483817571074873 7.661464187911446 0 0 0
1945 1 1 0 44.74789321877881 6.916106781220447 9.1941311997359 0 0 0
1946 125 2 0 44.67525087532225 6.988749124676927 12.001750051359574 0 0 0
1947 125 3 0 44.002535812087686 7.661464187911446 11.483817571074871 0 0 0
1957 1 1 0 46.31629240851552 9.1941311997359 5.347707591483729 0 0 0
1958 129 2 0 46.38893475197206 12.001750051359574 5.275065248027231 0 0 0
1959 129 3 0 47.06164981520663 11.483817571074873 4.6023501847927175 0 0 0
1755 1 4 0 31.275466215391237 7.25513857550967 20.388533784608043 0 0 0
1756 1 5 0 32.398697604548815 6.1319071863520795 19.265302395450465 0 0 0
1773 1 4 0 33.52192899370638 5.008675797194492 20.388533784608043 0 0 0
1774 1 1 0 33.18289719941718 3.069683172968253 20.04950199031882 0 0 0
1775 120 2 0 32.39869760454883 2.447652887569924 19.265302395450462 0 0 0
1776 120 2 0 32.39869760454884 0.973193551412283 19.26530239545045 0 0 0
1777 120 2 0 33.255539542873734 0.2620643213445745 20.122144333775314 0 0 0
1778 120 3 0 33.92825460610829 0.779996801629283 20.79485939700984 0 0 0
1797 1 4 0 31.275466215391244 5.0086757971944875 18.142071006292884 0 0 0
1798 1 1 0 29.336473591165017 5.3477075914837275 18.481102800582107 0 0 0
1799 37 2 0 28.714443305766697 6.131907186352092 19.265302395450455 0 0 0
1800 37 2 0 27.23998396960906 6.131907186352104 19.265302395450448 0 0 0
1801 37 2 0 26.528854739541348 5.275065248027223 18.40846045712558 0 0 0
1802 37 3 0 27.046787219826047 4.602350184792673 17.735745393891047 0 0 0
1833 1 1 0 29.33647359116502 6.916106781220445 20.04950199031881 0 0 0
1834 37 2 0 26.528854739541355 6.988749124676995 20.12214433377531 0 0 0
1835 37 3 0 27.046787219826058 7.661464187911547 20.79485939700984 0 0 0
1848 1 1 0 31.614498009680474 3.0696831729682477 18.481102800582104 0 0 0
1849 120 2 0 31.54185566622396 0.26206432134456764 18.408460457125592 0 0 0
1850 120 3 0 30.869140602989408 0.7799968016292719 17.735745393891058 0 0 0
1911 1 1 0 31.614498009680478 5.3477075914837275 16.203078382066657 0 0 0
1912 127 2 0 32.39869760454882 6.1319071863520955 15.581048096668336 0 0 0
1913 127 2 0 32.39869760454883 6.1319071863520955 14.1065887605107 0 0 0
1914 127 2 0 31.541855666223952 5.275065248027223 13.39545953044299 0 0 0
1915 127 3 0 30.869140602989404 4.602350184792689 13.913392010727692 0 0 0
1939 1 4 0 33.52192899370638 7.255138575509675 18.142071006292888 0 0 0
1940 1 1 0 33.18289719941715 9.194131199735901 18.481102800582104 0 0 0
1941 128 2 0 32.39869760454879 9.816161485134225 19.26530239545046 0 0 0
1942 128 2 0 32.398697604548786 11.290620821291864 19.265302395450455 0 0 0
1943 128 2 0 33.255539542873656 12.001750051359572 18.40846045712557 0 0 0
1944 128 3 0 33.92825460610819 11.483817571074868 17.735745393891023 0 0 0
1951 1 1 0 33.18289719941717 6.916106781220454 16.203078382066664 0 0 0
1952 127 2 0 33.255539542873706 6.9887491246769695 13.39545953044299 0 0 0
1953 127 3 0 33.92825460610825 7.66146418791151 13.913392010727694 0 0 0
1960 1 1 0 31.61449800968045 9.1941311997359 20.04950199031882 0 0 0
1961 128 2 0 31.54185566622392 12.001750051359576 20.12214433377534 0 0 0
1962 128 3 0 30.869140602989386 11.483817571074875 20.794859397009887 0 0 0
2063 1 1 0 31.614498009680464 6.9161067812204555 22.327526408834263 0 0 0
2066 1 1 0 33.18289719941716 5.347707591483734 22.327526408834267 0 0 0
2081 138 2 0 32.398697604548815 6.131907186352099 22.949556694232587 0 0 0
2082 138 2 0 32.39869760454882 6.131907186352112 24.424016030390224 0 0 0
2083 138 2 0 31.541855666223963 6.988749124677006 25.135145260457932 0 0 0
2084 138 3 0 30.86914060298943 7.661464187911556 24.61721278017323 0 0 0
2091 138 2 0 33.25553954287369 5.275065248027232 25.135145260457936 0 0 0
2092 138 3 0 33.92825460610822 4.602350184792676 24.617212780173237 0 0 0
1993 1 1 0 42.469868800263356 6.916106781220463 18.48110280058211 0 0 0
1994 132 2 0 41.84783851486503 6.131907186352098 19.265302395450455 0 0 0
1995 132 2 0 40.373379178707395 6.1319071863521035 19.26530239545046 0 0 0
1996 132 2 0 39.66224994863968 6.988749124676991 18.408460457125596 0 0 0
1997 132 3 0 40.18018242892439 7.66146418791154 17.73574539389106 0 0 0
2023 1 1 0 35.460921617932605 5.347707591483735 20.049501990318817 0 0 0
2024 132 2 0 36.08295190333093 6.131907186352099 19.26530239545047 0 0 0
2025 132 2 0 37.557411239488566 6.1319071863521035 19.265302395450465 0 0 0
2026 132 2 0 38.26854046955627 5.275065248027215 20.122144333775324 0 0 0
2027 132 3 0 37.75060798927157 4.602350184792663 20.794859397009855 0 0 0
2036 1 1 0 35.460921617932605 6.91610678122046 18.48110280058212 0 0 0
2037 132 2 0 38.26854046955627 6.9887491246769935 18.408460457125603 0 0 0
2038 132 3 0 37.750607989271565 7.661464187911542 17.73574539389107 0 0 0
2054 1 1 0 42.469868800263356 5.347707591483728 20.049501990318795 0 0 0
2055 132 2 0 39.66224994863969 5.275065248027218 20.122144333775324 0 0 0
2056 132 3 0 40.18018242892439 4.6023501847926696 20.79485939700986 0 0 0
1722 1 1 0 46.31629240851556 3.0696831729682597 18.481102800582114 0 0 0
1723 115 2 0 45.53209281364719 2.4476528875699306 19.265302395450455 0 0 0
1724 115 2 0 45.53209281364718 0.9731935514122884 19.265302395450444 0 0 0
1725 115 2 0 46.38893475197207 0.26206432134457575 18.40846045712559 0 0 0
1726 115 3 0 47.06164981520663 0.7799968016292835 17.73574539389106 0 0 0
1730 1 1 0 44.74789321877882 3.0696831729682543 20.0495019903188 0 0 0
1731 115 2 0 44.675250875322284 0.26206432134457514 20.122144333775292 0 0 0
1732 115 3 0 44.00253581208772 0.7799968016292825 20.794859397009812 0 0 0
1734 1 4 0 44.408861424489594 5.008675797194493 20.38853378460803 0 0 0
1735 1 4 0 46.65532420280478 5.008675797194503 18.142071006292888 0 0 0
1749 1 5 0 45.53209281364718 6.131907186352083 19.265302395450462 0 0 0
1753 1 4 0 46.65532420280477 7.255138575509668 20.38853378460804 0 0 0
1863 1 4 0 44.408861424489594 7.2551385755096724 18.142071006292888 0 0 0
1864 1 1 0 44.74789321877881 6.9161067812204395 16.203078382066664 0 0 0
1865 125 2 0 45.53209281364717 6.131907186352087 15.581048096668338 0 0 0
1866 125 2 0 45.532092813647154 6.1319071863520795 14.1065887605107 0 0 0
1867 125 2 0 44.67525087532225 6.988749124676926 13.395459530442992 0 0 0
1868 125 3 0 44.002535812087686 7.661464187911446 13.913392010727696 0 0 0
1896 1 1 0 46.31629240851554 9.1941311997359 20.049501990318817 0 0 0
1897 131 2 0 45.532092813647175 9.816161485134225 19.26530239545047 0 0 0
1898 131 2 0 45.53209281364717 11.290620821291864 19.265302395450476 0 0 0
1899 131 2 0 46.388934751972066 12.001750051359574 20.122144333775328 0 0 0
1900 131 3 0 47.06164981520663 11.48381757107487 20.794859397009848 0 0 0
1969 1 1 0 46.31629240851553 5.347707591483736 16.20307838206666 0 0 0
1970 125 2 0 46.38893475197205 5.27506524802723 13.39545953044299 0 0 0
1971 125 3 0 47.06164981520662 4.602350184792717 13.913392010727692 0 0 0
1981 1 1 0 44.74789321877882 9.194131199735901 18.481102800582114 0 0 0
1982 131 2 0 44.67525087532226 12.001750051359574 18.408460457125635 0 0 0
1983 131 3 0 44.002535812087686 11.483817571074873 17.73574539389113 0 0 0
2057 1 1 0 44.747893218778806 5.347707591483737 22.32752640883426 0 0 0
2060 1 1 0 48.59431682703101 6.916106781220454 20.049501990318824 0 0 0
2067 1 1 0 46.31629240851552 6.916106781220441 22.327526408834263 0 0 0
2072 1 1 0 48.594316827031015 5.347707591483752 18.481102800582107 0 0 0
2073 136 2 0 45.532092813647154 6.131907186352098 22.949556694232584 0 0 0
2074 136 2 0 45.53209281364714 6.131907186352112 24.42401603039022 0 0 0
2075 136 2 0 44.67525087532225 5.275065248027256 25.135145260457932 0 0 0
2076 136 3 0 44.002535812087686 4.602350184792734 24.617212780173233 0 0 0
2093 136 2 0 46.38893475197202 6.988749124676978 25.135145260457932 0 0 0
2094 136 3 0 47.06164981520658 7.661464187911505 24.61721278017323 0 0 0
2113 14 2 0 49.21634711242934 6.131907186352109 19.265302395450462 0 0 0
2114 14 2 0 50.69080644858698 6.131907186352117 19.265302395450455 0 0 0
2115 14 2 0 51.401935678654695 6.9887491246770015 20.122144333775317 0 0 0
2116 14 3 0 50.884003198369996 7.661464187911553 20.79485939700985 0 0 0
2119 14 2 0 51.401935678654695 5.275065248027234 18.40846045712559 0 0 0
2120 14 3 0 50.88400319836999 4.602350184792691 17.73574539389105 0 0 0
2121 1 1 0 29.336473591165014 6.916106781220471 31.614498009680467 0 0 0
2122 48 2 0 28.71444330576669 6.131907186352109 32.398697604548815 0 0 0
2123 48 2 0 27.239983969609057 6.131907186352119 32.39869760454882 0 0 0
2124 48 2 0 26.528854739541348 6.9887491246770095 31.541855666223963 0 0 0
2125 48 3 0 27.046787219826047 7.661464187911562 30.869140602989432 0 0 0
2134 1 1 0 29.336473591165014 5.347707591483738 33.182897199417155 0 0 0
2135 48 2 0 26.528854739541348 5.27506524802723 33.255539542873684 0 0 0
2136 48 3 0 27.04678721982605 4.602350184792682 33.92825460610822 0 0 0
2137 1 4 0 31.275466215391237 7.255138575509684 31.275466215391237 0 0 0
2139 1 4 0 31.275466215391234 5.0086757971944955 33.52192899370638 0 0 0
2141 1 1 0 31.614498009680457 3.069683172968256 33.18289719941717 0 0 0
2142 142 2 0 32.398697604548815 2.447652887569928 32.39869760454882 0 0 0
2143 142 2 0 32.39869760454882 0.9731935514122866 32.39869760454883 0 0 0
2144 142 2 0 31.54185566622395 0.26206432134457447 33.255539542873706 0 0 0
2145 142 3 0 30.869140602989415 0.7799968016292842 33.92825460610825 0 0 0
2151 1 1 0 33.18289719941716 3.069683172968254 31.61449800968046 0 0 0
2152 142 2 0 33.2555395428737 0.2620643213445752 31.541855666223956 0 0 0
2153 142 3 0 33.92825460610825 0.7799968016292834 30.86914060298942 0 0 0
2157 1 4 0 33.52192899370638 5.008675797194494 31.275466215391234 0 0 0
2160 1 5 0 32.39869760454881 6.131907186352085 32.39869760454881 0 0 0
2161 1 1 0 33.182897199417155 5.347707591483737 29.336473591165014 0 0 0
2162 138 2 0 32.398697604548815 6.131907186352108 28.71444330576669 0 0 0
2163 138 2 0 32.39869760454882 6.131907186352118 27.239983969609057 0 0 0
2164 138 2 0 33.255539542873684 5.27506524802723 26.528854739541348 0 0 0
2165 138 3 0 33.92825460610822 4.602350184792682 27.046787219826054 0 0 0
2278 1 1 0 31.614498009680467 6.916106781220469 29.336473591165014 0 0 0
2279 138 2 0 31.541855666223963 6.988749124677009 26.528854739541348 0 0 0
2280 138 3 0 30.869140602989432 7.6614641879115615 27.046787219826047 0 0 0
2299 1 4 0 33.52192899370638 7.255138575509677 33.52192899370638 0 0 0
2300 1 1 0 33.18289719941717 6.916106781220452 35.4609216179326 0 0 0
2301 151 2 0 32.39869760454882 6.131907186352094 36.08295190333092 0 0 0
2302 151 2 0 32.39869760454883 6.131907186352091 37.55741123948856 0 0 0
2303 151 2 0 33.255539542873706 6.988749124676965 38.26854046955627 0 0 0
2304 151 3 0 33.92825460610825 7.661464187911505 37.750607989271565 0 0 0
2315 1 1 0 31.614498009680467 9.194131199735908 31.614498009680467 0 0 0
2316 154 2 0 32.39869760454882 9.816161485134232 32.39869760454882 0 0 0
2317 154 2 0 32.39869760454882 11.290620821291867 32.39869760454882 0 0 0
2318 154 2 0 31.54185566622395 12.001750051359577 31.54185566622395 0 0 0
2319 154 3 0 30.869140602989408 11.483817571074876 30.869140602989408 0 0 0
2402 1 1 0 31.61449800968047 5.347707591483733 35.460921617932605 0 0 0
2403 151 2 0 31.541855666223956 5.275065248027216 38.26854046955627 0 0 0
2404 151 3 0 30.869140602989415 4.602350184792677 37.750607989271565 0 0 0
2408 1 1 0 33.18289719941718 9.194131199735908 33.18289719941718 0 0 0
2409 154 2 0 33.25553954287369 12.001750051359577 33.2555395428737 0 0 0
2410 154 3 0 33.92825460610823 11.483817571074875 33.92825460610824 0 0 0
2432 1 1 0 35.460921617932605 6.916106781220454 33.18289719941716 0 0 0
2433 159 2 0 36.08295190333093 6.131907186352094 32.398697604548815 0 0 0
2434 159 2 0 37.55741123948856 6.131907186352091 32.39869760454883 0 0 0
2435 159 2 0 38.26854046955627 6.988749124676968 33.255539542873706 0 0 0
2436 159 3 0 37.750607989271565 7.661464187911509 33.92825460610825 0 0 0
2437 1 1 0 42.469868800263356 5.347707591483726 31.61449800968049 0 0 0
2438 159 2 0 41.84783851486503 6.131907186352089 32.398697604548836 0 0 0
2439 159 2 0 40.373379178707395 6.131907186352092 32.398697604548836 0 0 0
2440 159 2 0 39.66224994863968 5.275065248027214 31.541855666223963 0 0 0
2441 159 3 0 40.18018242892439 4.602350184792671 30.869140602989425 0 0 0
2463 1 1 0 42.46986880026336 6.916106781220455 33.18289719941718 0 0 0
2464 159 2 0 39.66224994863968 6.98874912467697 33.255539542873706 0 0 0
2465 159 3 0 40.18018242892438 7.661464187911507 33.928254606108254 0 0 0
2472 1 1 0 35.460921617932605 5.347707591483734 31.614498009680464 0 0 0
2473 159 2 0 38.26854046955627 5.275065248027214 31.54185566622396 0 0 0
2474 159 3 0 37.75060798927157 4.602350184792673 30.869140602989418 0 0 0
2190 1 4 0 46.65532420280477 7.255138575509671 31.275466215391244 0 0 0
2191 1 5 0 45.53209281364718 6.131907186352081 32.398697604548815 0 0 0
2192 1 1 0 46.31629240851552 6.9161067812204475 29.336473591165017 0 0 0
2193 136 2 0 45.53209281364716 6.131907186352097 28.714443305766697 0 0 0
2194 136 2 0 45.53209281364715 6.131907186352111 27.23998396960906 0 0 0
2195 136 2 0 46.38893475197202 6.988749124676981 26.528854739541348 0 0 0
2196 136 3 0 47.06164981520658 7.661464187911509 27.046787219826047 0 0 0
2203 1 4 0 44.40886142448959 5.008675797194494 31.27546621539125 0 0 0
2204 1 1 0 44.747893218778806 3.0696831729682543 31.614498009680485 0 0 0
2205 145 2 0 45.53209281364717 2.4476528875699306 32.398697604548836 0 0 0
2206 145 2 0 45.53209281364716 0.9731935514122886 32.39869760454885 0 0 0
2207 145 2 0 44.67525087532227 0.2620643213445749 31.541855666223995 0 0 0
2208 145 3 0 44.002535812087714 0.7799968016292801 30.869140602989464 0 0 0
2233 1 4 0 46.65532420280477 5.008675797194498 33.52192899370639 0 0 0
2234 1 1 0 48.59431682703101 5.347707591483737 33.18289719941717 0 0 0
2235 38 2 0 49.21634711242933 6.131907186352099 32.39869760454882 0 0 0
2236 38 2 0 50.690806448586976 6.131907186352113 32.398697604548836 0 0 0
2237 38 2 0 51.401935678654695 5.275065248027243 33.25553954287371 0 0 0
2238 38 3 0 50.88400319836999 4.602350184792704 33.928254606108254 0 0 0
2248 1 1 0 44.747893218778806 5.347707591483741 29.33647359116502 0 0 0
2249 136 2 0 44.67525087532225 5.275065248027257 26.528854739541348 0 0 0
2250 136 3 0 44.00253581208769 4.602350184792732 27.04678721982605 0 0 0
2254 1 1 0 48.59431682703101 6.916106781220453 31.614498009680467 0 0 0
2255 38 2 0 51.40193567865469 6.988749124676996 31.54185566622397 0 0 0
2256 38 3 0 50.88400319836999 7.66146418791154 30.869140602989432 0 0 0
2269 1 1 0 46.31629240851554 3.069683172968259 33.18289719941718 0 0 0
2270 145 2 0 46.388934751972045 0.26206432134457597 33.25553954287371 0 0 0
2271 145 3 0 47.0616498152066 0.7799968016292834 33.92825460610824 0 0 0
2330 1 1 0 46.31629240851552 5.347707591483737 35.46092161793261 0 0 0
2331 149 2 0 45.53209281364716 6.131907186352089 36.08295190333093 0 0 0
2332 149 2 0 45.532092813647154 6.131907186352088 37.557411239488566 0 0 0
2333 149 2 0 46.388934751972045 5.275065248027229 38.26854046955627 0 0 0
2334 149 3 0 47.06164981520659 4.602350184792699 37.750607989271565 0 0 0
2357 1 4 0 44.408861424489594 7.255138575509673 33.52192899370638 0 0 0
2358 1 1 0 44.74789321877882 9.194131199735901 33.18289719941716 0 0 0
2359 153 2 0 45.53209281364718 9.816161485134227 32.39869760454882 0 0 0
2360 153 2 0 45.532092813647175 11.290620821291865 32.39869760454883 0 0 0
2361 153 2 0 44.67525087532229 12.001750051359574 33.2555395428737 0 0 0
2362 153 3 0 44.00253581208774 11.483817571074871 33.92825460610823 0 0 0
2369 1 1 0 44.74789321877881 6.9161067812204475 35.460921617932605 0 0 0
2370 149 2 0 44.67525087532226 6.9887491246769455 38.26854046955628 0 0 0
2371 149 3 0 44.00253581208771 7.66146418791147 37.75060798927157 0 0 0
2381 1 1 0 46.316292408515544 9.194131199735903 31.614498009680478 0 0 0
2382 153 2 0 46.388934751972066 12.001750051359577 31.541855666223967 0 0 0
2383 153 3 0 47.061649815206614 11.483817571074875 30.869140602989432 0 0 0
2179 1 4 0 31.27546621539124 7.255138575509668 46.65532420280477 0 0 0
2180 1 5 0 32.398697604548815 6.131907186352081 45.53209281364718 0 0 0
2197 1 4 0 33.52192899370639 5.008675797194496 46.65532420280477 0 0 0
2198 1 1 0 33.18289719941717 3.0696831729682588 46.31629240851554 0 0 0
2199 144 2 0 32.39869760454883 2.447652887569929 45.532092813647175 0 0 0
2200 144 2 0 32.39869760454884 0.9731935514122877 45.53209281364716 0 0 0
2201 144 2 0 33.25553954287371 0.26206432134457525 46.38893475197204 0 0 0
2202 144 3 0 33.928254606108254 0.779996801629283 47.06164981520658 0 0 0
2221 1 4 0 31.275466215391248 5.008675797194494 44.40886142448959 0 0 0
2222 1 1 0 29.33647359116502 5.347707591483747 44.7478932187788 0 0 0
2223 65 2 0 28.714443305766697 6.131907186352102 45.532092813647154 0 0 0
2224 65 2 0 27.23998396960906 6.131907186352117 45.53209281364713 0 0 0
2225 65 2 0 26.528854739541348 5.275065248027264 44.675250875322234 0 0 0
2226 65 3 0 27.04678721982605 4.602350184792737 44.00253581208768 0 0 0
2257 1 1 0 29.336473591165017 6.916106781220445 46.31629240851552 0 0 0
2258 65 2 0 26.528854739541348 6.988749124676982 46.388934751972016 0 0 0
2259 65 3 0 27.04678721982605 7.66146418791151 47.06164981520657 0 0 0
2272 1 1 0 31.61449800968047 3.069683172968253 44.74789321877882 0 0 0
2273 144 2 0 31.541855666223988 0.26206432134457497 44.67525087532227 0 0 0
2274 144 3 0 30.869140602989454 0.7799968016292819 44.00253581208772 0 0 0
2335 1 1 0 31.61449800968049 5.347707591483722 42.469868800263356 0 0 0
2336 151 2 0 32.39869760454883 6.131907186352092 41.84783851486503 0 0 0
2337 151 2 0 32.398697604548836 6.131907186352088 40.373379178707395 0 0 0
2338 151 2 0 31.54185566622396 5.275065248027214 39.66224994863968 0 0 0
2339 151 3 0 30.869140602989418 4.602350184792677 40.18018242892439 0 0 0
2363 1 4 0 33.52192899370638 7.2551385755096724 44.408861424489594 0 0 0
2364 1 1 0 33.18289719941717 9.1941311997359 44.74789321877882 0 0 0
2365 152 2 0 32.39869760454883 9.816161485134225 45.53209281364718 0 0 0
2366 152 2 0 32.39869760454883 11.290620821291864 45.53209281364718 0 0 0
2367 152 2 0 33.25553954287369 12.001750051359574 44.6752508753223 0 0 0
2368 152 3 0 33.92825460610822 11.483817571074871 44.00253581208774 0 0 0
2375 1 1 0 33.18289719941717 6.91610678122046 42.469868800263356 0 0 0
2376 151 2 0 33.25553954287371 6.988749124676962 39.66224994863968 0 0 0
2377 151 3 0 33.928254606108254 7.661464187911505 40.18018242892438 0 0 0
2384 1 1 0 31.614498009680474 9.194131199735901 46.316292408515544 0 0 0
2385 152 2 0 31.541855666223967 12.001750051359574 46.38893475197207 0 0 0
2386 152 3 0 30.869140602989436 11.48381757107487 47.06164981520662 0 0 0
2487 1 1 0 31.61449800968047 6.916106781220448 48.59431682703101 0 0 0
2490 1 1 0 33.18289719941718 5.3477075914837355 48.59431682703101 0 0 0
2505 116 2 0 32.39869760454883 6.131907186352097 49.21634711242934 0 0 0
2506 116 2 0 32.39869760454884 6.131907186352112 50.69080644858698 0 0 0
2507 116 2 0 31.541855666223977 6.988749124676994 51.401935678654695 0 0 0
2508 116 3 0 30.869140602989436 7.661464187911536 50.884003198369996 0 0 0
2515 116 2 0 33.25553954287373 5.275065248027246 51.401935678654695 0 0 0
2516 116 3 0 33.92825460610827 4.602350184792704 50.884003198369996 0 0 0
2417 1 1 0 42.46986880026336 6.916106781220445 44.74789321877883 0 0 0
2418 156 2 0 41.84783851486504 6.131907186352086 45.532092813647175 0 0 0
2419 156 2 0 40.3733791787074 6.131907186352086 45.53209281364717 0 0 0
2420 156 2 0 39.6622499486397 6.988749124676941 44.67525087532227 0 0 0
2421 156 3 0 40.1801824289244 7.661464187911461 44.00253581208771 0 0 0
2447 1 1 0 35.460921617932605 5.347707591483734 46.31629240851552 0 0 0
2448 156 2 0 36.08295190333093 6.131907186352089 45.53209281364717 0 0 0
2449 156 2 0 37.557411239488566 6.131907186352085 45.53209281364716 0 0 0
2450 156 2 0 38.26854046955628 5.275065248027233 46.38893475197206 0 0 0
2451 156 3 0 37.75060798927157 4.6023501847927095 47.061649815206614 0 0 0
2460 1 1 0 35.460921617932605 6.916106781220445 44.74789321877881 0 0 0
2461 156 2 0 38.26854046955628 6.988749124676943 44.67525087532227 0 0 0
2462 156 3 0 37.75060798927158 7.661464187911464 44.00253581208771 0 0 0
2478 1 1 0 42.46986880026336 5.347707591483729 46.31629240851553 0 0 0
2479 156 2 0 39.66224994863969 5.2750652480272295 46.38893475197206 0 0 0
2480 156 3 0 40.18018242892439 4.602350184792708 47.06164981520662 0 0 0
2146 1 1 0 46.31629240851553 3.069683172968254 44.74789321877881 0 0 0
2147 143 2 0 45.53209281364717 2.4476528875699275 45.53209281364716 0 0 0
2148 143 2 0 45.532092813647154 0.9731935514122848 45.53209281364715 0 0 0
2149 143 2 0 46.388934751972016 0.26206432134456853 44.67525087532227 0 0 0
2150 143 3 0 47.06164981520655 0.7799968016292745 44.00253581208772 0 0 0
2154 1 1 0 44.74789321877883 3.0696831729682565 46.31629240851552 0 0 0
2155 143 2 0 44.67525087532228 0.2620643213445752 46.388934751972016 0 0 0
2156 143 3 0 44.00253581208773 0.7799968016292851 47.06164981520655 0 0 0
2158 1 4 0 44.4088614244896 5.008675797194495 46.65532420280476 0 0 0
2159 1 4 0 46.65532420280477 5.008675797194498 44.4088614244896 0 0 0
2173 1 5 0 45.53209281364718 6.131907186352082 45.53209281364718 0 0 0
2177 1 4 0 46.65532420280476 7.2551385755096724 46.65532420280476 0 0 0
2287 1 4 0 44.408861424489594 7.255138575509666 44.408861424489594 0 0 0
2288 1 1 0 44.74789321877881 6.916106781220441 42.46986880026336 0 0 0
2289 149 2 0 45.53209281364717 6.131907186352088 41.84783851486504 0 0 0
2290 149 2 0 45.53209281364716 6.1319071863520875 40.3733791787074 0 0 0
2291 149 2 0 44.67525087532226 6.988749124676943 39.66224994863969 0 0 0
2292 149 3 0 44.00253581208771 7.661464187911466 40.1801824289244 0 0 0
2320 1 1 0 46.31629240851552 9.194131199735903 46.316292408515515 0 0 0
2321 155 2 0 45.53209281364716 9.816161485134225 45.53209281364716 0 0 0
2322 155 2 0 45.53209281364716 11.290620821291865 45.53209281364716 0 0 0
2323 155 2 0 46.38893475197204 12.001750051359576 46.38893475197204 0 0 0
2324 155 3 0 47.06164981520657 11.483817571074866 47.06164981520657 0 0 0
2393 1 1 0 46.31629240851553 5.347707591483738 42.46986880026336 0 0 0
2394 149 2 0 46.388934751972045 5.275065248027226 39.66224994863969 0 0 0
2395 149 3 0 47.0616498152066 4.602350184792699 40.18018242892439 0 0 0
2405 1 1 0 44.747893218778806 9.1941311997359 44.747893218778806 0 0 0
2406 155 2 0 44.67525087532229 12.00175005135958 44.675250875322284 0 0 0
2407 155 3 0 44.00253581208774 11.483817571074878 44.00253581208775 0 0 0
2481 1 1 0 44.74789321877882 5.347707591483733 48.594316827031 0 0 0
2484 1 1 0 48.59431682703101 6.916106781220451 46.31629240851553 0 0 0
2491 1 1 0 46.316292408515515 6.916106781220459 48.59431682703101 0 0 0
2496 1 1 0 48.594316827031015 5.347707591483741 44.74789321877882 0 0 0
2497 119 2 0 45.53209281364716 6.131907186352101 49.21634711242933 0 0 0
2498 119 2 0 45.53209281364714 6.131907186352118 50.69080644858698 0 0 0
2499 119 2 0 44.67525087532224 5.275065248027267 51.401935678654695 0 0 0
2500 119 3 0 44.002535812087686 4.602350184792742 50.88400319836999 0 0 0
2517 119 2 0 46.38893475197202 6.988749124676982 51.401935678654695 0 0 0
2518 119 3 0 47.061649815206586 7.661464187911502 50.88400319836999 0 0 0
2537 46 2 0 49.21634711242934 6.131907186352105 45.53209281364717 0 0 0
2538 46 2 0 50.69080644858698 6.13190718635212 45.532092813647154 0 0 0
2539 46 2 0 51.401935678654695 6.988749124676984 46.38893475197204 0 0 0
2540 46 3 0 50.884003198369996 7.661464187911511 47.06164981520659 0 0 0
2543 46 2 0 51.401935678654695 5.275065248027262 44.67525087532226 0 0 0
2544 46 3 0 50.884003198369996 4.602350184792736 44.00253581208771 0 0 0
1759 1 4 0 31.27546621539124 18.14207100629288 5.008675797194486 0 0 0
1760 1 5 0 32.39869760454881 19.265302395450462 6.131907186352079 0 0 0
1761 1 1 0 31.614498009680478 18.4811028005821 3.069683172968246 0 0 0
1762 118 2 0 32.398697604548836 19.265302395450455 2.447652887569922 0 0 0
1763 118 2 0 32.39869760454885 19.265302395450448 0.9731935514122806 0 0 0
1764 118 2 0 31.541855666223963 18.40846045712559 0.2620643213445672 0 0 0
1765 118 3 0 30.869140602989408 17.73574539389106 0.7799968016292734 0 0 0
1791 1 4 0 33.52192899370638 20.38853378460804 5.008675797194492 0 0 0
1792 1 1 0 33.182897199417155 22.327526408834263 5.347707591483729 0 0 0
1793 123 2 0 32.398697604548815 22.949556694232587 6.131907186352098 0 0 0
1794 123 2 0 32.39869760454882 24.424016030390224 6.13190718635211 0 0 0
1795 123 2 0 33.25553954287369 25.135145260457932 5.27506524802723 0 0 0
1796 123 3 0 33.928254606108226 24.617212780173233 4.602350184792681 0 0 0
1803 1 4 0 31.275466215391234 20.38853378460804 7.25513857550967 0 0 0
1804 1 1 0 29.336473591165017 20.04950199031881 6.916106781220445 0 0 0
1805 36 2 0 28.714443305766693 19.265302395450455 6.13190718635209 0 0 0
1806 36 2 0 27.23998396960906 19.265302395450448 6.131907186352103 0 0 0
1807 36 2 0 26.528854739541355 20.122144333775307 6.988749124676997 0 0 0
1808 36 3 0 27.046787219826058 20.79485939700984 7.661464187911545 0 0 0
1821 1 1 0 33.182897199417184 20.049501990318813 3.069683172968252 0 0 0
1822 118 2 0 33.25553954287374 20.122144333775307 0.262064321344569 0 0 0
1823 118 3 0 33.9282546061083 20.79485939700983 0.7799968016292783 0 0 0
1836 1 1 0 29.336473591165017 18.481102800582107 5.347707591483727 0 0 0
1837 36 2 0 26.528854739541348 18.40846045712558 5.2750652480272215 0 0 0
1838 36 3 0 27.04678721982605 17.73574539389105 4.602350184792671 0 0 0
1842 1 1 0 31.614498009680464 22.327526408834263 6.9161067812204555 0 0 0
1843 123 2 0 31.541855666223967 25.135145260457932 6.988749124677006 0 0 0
1844 123 3 0 30.869140602989436 24.61721278017323 7.661464187911558 0 0 0
1901 1 1 0 31.614498009680446 20.049501990318813 9.1941311997359 0 0 0
1902 124 2 0 32.3986976045488 19.265302395450465 9.816161485134225 0 0 0
1903 124 2 0 32.39869760454879 19.265302395450462 11.290620821291862 0 0 0
1904 124 2 0 31.541855666223928 20.122144333775342 12.001750051359572 0 0 0
1905 124 3 0 30.86914060298939 20.79485939700989 11.483817571074871 0 0 0
1921 1 4 0 33.521928993706375 18.142071006292884 7.255138575509675 0 0 0
1922 1 1 0 33.18289719941716 16.20307838206666 6.916106781220457 0 0 0
1923 130 2 0 32.398697604548815 15.581048096668335 6.131907186352097 0 0 0
1924 130 2 0 32.39869760454882 14.106588760510698 6.131907186352096 0 0 0
1925 130 2 0 33.2555395428737 13.39545953044299 6.988749124676972 0 0 0
1926 130 3 0 33.92825460610824 13.913392010727696 7.661464187911511 0 0 0
1948 1 1 0 33.182897199417155 18.48110280058211 9.194131199735901 0 0 0
1949 124 2 0 33.25553954287366 18.40846045712558 12.00175005135957 0 0 0
1950 124 3 0 33.9282546061082 17.73574539389103 11.483817571074868 0 0 0
1966 1 1 0 31.614498009680474 16.203078382066657 5.3477075914837275 0 0 0
1967 130 2 0 31.54185566622395 13.395459530442986 5.275065248027223 0 0 0
1968 130 3 0 30.869140602989404 13.913392010727689 4.6023501847926855 0 0 0
1998 1 1 0 42.46986880026336 18.481102800582118 6.91610678122046 0 0 0
1999 133 2 0 41.84783851486504 19.265302395450462 6.131907186352096 0 0 0
2000 133 2 0 40.373379178707395 19.26530239545046 6.131907186352102 0 0 0
2001 133 2 0 39.66224994863969 18.408460457125596 6.988749124676993 0 0 0
2002 133 3 0 40.18018242892439 17.735745393891065 7.661464187911543 0 0 0
2028 1 1 0 35.460921617932605 20.04950199031881 5.347707591483739 0 0 0
2029 133 2 0 36.08295190333093 19.26530239545046 6.131907186352101 0 0 0
2030 133 2 0 37.557411239488566 19.26530239545046 6.131907186352105 0 0 0
2031 133 2 0 38.26854046955627 20.12214433377532 5.275065248027217 0 0 0
2032 133 3 0 37.750607989271565 20.79485939700985 4.602350184792666 0 0 0
2033 1 1 0 35.4609216179326 18.481102800582107 6.916106781220456 0 0 0
2034 133 2 0 38.26854046955627 18.408460457125596 6.988749124676995 0 0 0
2035 133 3 0 37.750607989271565 17.73574539389106 7.661464187911545 0 0 0
2051 1 1 0 42.46986880026336 20.049501990318802 5.347707591483727 0 0 0
2052 133 2 0 39.66224994863968 20.12214433377532 5.275065248027216 0 0 0
2053 133 3 0 40.18018242892439 20.79485939700985 4.602350184792666 0 0 0
1742 1 4 0 44.4088614244896 20.388533784608033 5.008675797194493 0 0 0
1743 1 5 0 45.53209281364719 19.265302395450462 6.131907186352083 0 0 0
1744 1 1 0 44.74789321877882 20.0495019903188 3.0696831729682534 0 0 0
1745 117 2 0 45.53209281364719 19.265302395450455 2.44765288756993 0 0 0
1746 117 2 0 45.53209281364718 19.26530239545044 0.9731935514122879 0 0 0
1747 117 2 0 44.67525087532229 20.122144333775296 0.26206432134457475 0 0 0
1748 117 3 0 44.002535812087736 20.794859397009823 0.7799968016292819 0 0 0
1752 1 4 0 46.65532420280478 18.142071006292888 5.008675797194501 0 0 0
1754 1 4 0 46.65532420280477 20.38853378460804 7.25513857550967 0 0 0
1851 1 1 0 46.31629240851555 18.48110280058211 3.06968317296826 0 0 0
1852 117 2 0 46.38893475197207 18.40846045712558 0.2620643213445758 0 0 0
1853 117 3 0 47.06164981520663 17.735745393891058 0.7799968016292846 0 0 0
1869 1 4 0 44.4088614244896 18.14207100629289 7.255138575509674 0 0 0
1870 1 1 0 44.74789321877882 18.481102800582118 9.194131199735903 0 0 0
1871 126 2 0 45.532092813647175 19.265302395450473 9.816161485134227 0 0 0
1872 126 2 0 45.53209281364717 19.265302395450476 11.290620821291865 0 0 0
1873 126 2 0 44.675250875322256 18.40846045712564 12.001750051359574 0 0 0
1874 126 3 0 44.002535812087686 17.735745393891126 11.48381757107487 0 0 0
1886 1 1 0 46.31629240851553 16.20307838206666 5.347707591483734 0 0 0
1887 129 2 0 45.53209281364717 15.581048096668338 6.131907186352085 0 0 0
1888 129 2 0 45.53209281364716 14.106588760510702 6.131907186352081 0 0 0
1889 129 2 0 46.38893475197206 13.395459530442992 5.27506524802723 0 0 0
1890 129 3 0 47.06164981520662 13.913392010727694 4.602350184792711 0 0 0
1975 1 1 0 46.31629240851554 20.04950199031882 9.194131199735901 0 0 0
1976 126 2 0 46.388934751972066 20.122144333775328 12.001750051359577 0 0 0
1977 126 3 0 47.06164981520663 20.794859397009844 11.483817571074873 0 0 0
1990 1 1 0 44.74789321877882 16.203078382066664 6.916106781220445 0 0 0
1991 129 2 0 44.67525087532226 13.395459530442992 6.988749124676931 0 0 0
1992 129 3 0 44.00253581208769 13.913392010727696 7.661464187911444 0 0 0
2059 1 1 0 48.594316827031015 18.481102800582107 5.34770759148375 0 0 0
2062 1 1 0 46.31629240851553 22.327526408834263 6.91610678122044 0 0 0
2069 1 1 0 44.74789321877881 22.32752640883426 5.347707591483736 0 0 0
2071 1 1 0 48.594316827031015 20.049501990318817 6.916106781220459 0 0 0
2101 141 2 0 45.53209281364716 22.949556694232587 6.131907186352097 0 0 0
2102 141 2 0 45.53209281364715 24.424016030390224 6.131907186352111 0 0 0
2103 141 2 0 46.38893475197203 25.135145260457932 6.9887491246769775 0 0 0
2104 141 3 0 47.061649815206586 24.61721278017323 7.661464187911503 0 0 0
2105 141 2 0 44.67525087532225 25.135145260457932 5.275065248027259 0 0 0
2106 141 3 0 44.002535812087686 24.617212780173233 4.602350184792738 0 0 0
2109 15 2 0 49.21634711242934 19.26530239545046 6.131907186352109 0 0 0
2110 15 2 0 50.69080644858698 19.26530239545045 6.131907186352118 0 0 0
2111 15 2 0 51.401935678654695 18.408460457125585 5.275065248027235 0 0 0
2112 15 3 0 50.884003198369996 17.735745393891047 4.60235018479269 0 0 0
2117 15 2 0 51.4019356786547 20.122144333775314 6.988749124677003 0 0 0
2118 15 3 0 50.884003198369996 20.794859397009844 7.6614641879115535 0 0 0
1702 1 1 0 29.336473591165014 18.48110280058211 20.049501990318817 0 0 0
1703 17 2 0 28.71444330576669 19.265302395450465 19.265302395450462 0 0 0
1704 17 2 0 27.239983969609057 19.265302395450462 19.26530239545046 0 0 0
1705 17 2 0 26.528854739541348 18.40846045712558 20.122144333775328 0 0 0
1706 17 3 0 27.04678721982605 17.735745393891037 20.79485939700987 0 0 0
1707 1 1 0 29.336473591165014 20.049501990318824 18.48110280058211 0 0 0
1708 17 2 0 26.528854739541348 20.122144333775335 18.40846045712558 0 0 0
1709 17 3 0 27.04678721982605 20.794859397009876 17.73574539389104 0 0 0
1714 1 4 0 31.275466215391234 18.14207100629288 20.388533784608043 0 0 0
1716 1 4 0 31.275466215391237 20.388533784608047 18.14207100629288 0 0 0
1750 1 4 0 33.52192899370638 20.388533784608043 20.388533784608043 0 0 0
1751 1 5 0 32.39869760454881 19.265302395450462 19.265302395450462 0 0 0
1857 1 4 0 33.52192899370638 18.14207100629288 18.142071006292877 0 0 0
1858 1 1 0 33.18289719941716 18.481102800582107 16.203078382066654 0 0 0
1859 124 2 0 32.39869760454881 19.265302395450462 15.581048096668331 0 0 0
1860 124 2 0 32.39869760454879 19.26530239545046 14.106588760510695 0 0 0
1861 124 2 0 33.25553954287366 18.408460457125578 13.395459530442984 0 0 0
1862 124 3 0 33.9282546061082 17.73574539389103 13.913392010727687 0 0 0
1881 1 1 0 31.614498009680457 16.20307838206666 20.049501990318813 0 0 0
1882 128 2 0 32.39869760454881 15.581048096668333 19.265302395450455 0 0 0
1883 128 2 0 32.39869760454879 14.106588760510697 19.26530239545045 0 0 0
1884 128 2 0 31.541855666223924 13.395459530442992 20.122144333775335 0 0 0
1885 128 3 0 30.869140602989393 13.913392010727698 20.794859397009883 0 0 0
1972 1 1 0 31.614498009680457 20.04950199031882 16.203078382066657 0 0 0
1973 124 2 0 31.541855666223928 20.122144333775342 13.395459530442988 0 0 0
1974 124 3 0 30.869140602989393 20.79485939700989 13.913392010727692 0 0 0
1987 1 1 0 33.18289719941716 16.203078382066654 18.4811028005821 0 0 0
1988 128 2 0 33.255539542873656 13.395459530442986 18.408460457125567 0 0 0
1989 128 3 0 33.92825460610819 13.913392010727689 17.73574539389102 0 0 0
2058 1 1 0 33.18289719941716 20.049501990318827 22.327526408834263 0 0 0
2061 1 1 0 31.61449800968047 22.32752640883427 18.4811028005821 0 0 0
2068 1 1 0 31.614498009680464 18.481102800582107 22.327526408834263 0 0 0
2070 1 1 0 33.18289719941717 22.327526408834263 20.04950199031882 0 0 0
2077 137 2 0 32.398697604548815 19.265302395450465 22.949556694232587 0 0 0
2078 137 2 0 32.39869760454883 19.26530239545045 24.42401603039022 0 0 0
2079 137 2 0 33.25553954287371 20.122144333775317 25.135145260457932 0 0 0
2080 137 3 0 33.92825460610826 20.79485939700985 24.61721278017323 0 0 0
2095 137 2 0 31.541855666223952 18.40846045712558 25.13514526045793 0 0 0
2096 137 3 0 30.869140602989408 17.735745393891044 24.617212780173226 0 0 0
2097 140 2 0 32.39869760454883 22.94955669423259 19.265302395450455 0 0 0
2098 140 2 0 32.398697604548836 24.424016030390227 19.26530239545045 0 0 0
2099 140 2 0 31.541855666223956 25.135145260457936 18.40846045712558 0 0 0
2100 140 3 0 30.86914060298941 24.617212780173233 17.73574539389104 0 0 0
2107 140 2 0 33.25553954287371 25.135145260457936 20.12214433377532 0 0 0
2108 140 3 0 33.92825460610827 24.617212780173233 20.794859397009848 0 0 0
2003 1 1 0 35.460921617932605 18.48110280058211 18.481102800582104 0 0 0
2004 134 2 0 36.08295190333093 19.265302395450462 19.265302395450462 0 0 0
2005 134 2 0 37.557411239488566 19.265302395450462 19.26530239545046 0 0 0
2006 134 2 0 38.26854046955627 18.408460457125585 18.40846045712558 0 0 0
2007 134 3 0 37.750607989271565 17.735745393891047 17.735745393891044 0 0 0
2018 1 1 0 42.46986880026336 20.049501990318817 20.049501990318817 0 0 0
2019 134 2 0 41.84783851486504 19.265302395450462 19.265302395450462 0 0 0
2020 134 2 0 40.373379178707395 19.265302395450462 19.26530239545046 0 0 0
2021 134 2 0 39.66224994863969 20.12214433377534 20.122144333775335 0 0 0
2022 134 3 0 40.18018242892439 20.79485939700988 20.794859397009876 0 0 0
2042 1 1 0 42.46986880026336 18.481102800582107 18.481102800582107 0 0 0
2043 134 2 0 39.66224994863968 18.408460457125585 18.40846045712558 0 0 0
2044 134 3 0 40.18018242892439 17.735745393891044 17.73574539389104 0 0 0
2045 1 1 0 35.460921617932605 20.049501990318813 20.049501990318817 0 0 0
2046 134 2 0 38.26854046955628 20.12214433377534 20.122144333775335 0 0 0
2047 134 3 0 37.75060798927157 20.79485939700988 20.794859397009876 0 0 0
1757 1 4 0 46.65532420280478 18.142071006292884 20.38853378460804 0 0 0
1758 1 5 0 45.53209281364719 19.265302395450462 19.265302395450465 0 0 0
1785 1 4 0 44.4088614244896 20.38853378460804 20.388533784608043 0 0 0
1786 1 1 0 44.74789321877882 22.327526408834263 20.04950199031881 0 0 0
1787 122 2 0 45.53209281364718 22.949556694232584 19.26530239545046 0 0 0
1788 122 2 0 45.532092813647175 24.424016030390224 19.265302395450448 0 0 0
1789 122 2 0 44.675250875322284 25.135145260457936 20.1221443337753 0 0 0
1790 122 3 0 44.00253581208772 24.617212780173237 20.79485939700982 0 0 0
1815 1 4 0 46.65532420280478 20.388533784608036 18.142071006292884 0 0 0
1816 1 1 0 48.59431682703102 20.049501990318813 18.481102800582104 0 0 0
1817 3 2 0 49.21634711242935 19.26530239545046 19.26530239545046 0 0 0
1818 3 2 0 50.69080644858699 19.26530239545046 19.265302395450462 0 0 0
1819 3 2 0 51.4019356786547 20.122144333775335 18.40846045712559 0 0 0
1820 3 3 0 50.884003198369996 20.794859397009873 17.735745393891047 0 0 0
1827 1 1 0 48.594316827031015 18.481102800582104 20.049501990318813 0 0 0
1828 3 2 0 51.4019356786547 18.408460457125585 20.122144333775335 0 0 0
1829 3 3 0 50.88400319837 17.73574539389104 20.794859397009876 0 0 0
1839 1 1 0 46.316292408515544 22.32752640883426 18.48110280058211 0 0 0
1840 122 2 0 46.388934751972066 25.13514526045793 18.408460457125585 0 0 0
1841 122 3 0 47.06164981520662 24.617212780173222 17.73574539389106 0 0 0
1916 1 1 0 46.31629240851554 20.049501990318813 16.20307838206666 0 0 0
1917 126 2 0 45.53209281364717 19.26530239545047 15.581048096668336 0 0 0
1918 126 2 0 45.53209281364716 19.265302395450476 14.1065887605107 0 0 0
1919 126 2 0 46.38893475197206 20.122144333775328 13.395459530442993 0 0 0
1920 126 3 0 47.06164981520662 20.794859397009848 13.913392010727698 0 0 0
1927 1 4 0 44.4088614244896 18.142071006292884 18.142071006292888 0 0 0
1928 1 1 0 44.74789321877882 16.20307838206666 18.48110280058212 0 0 0
1929 131 2 0 45.53209281364718 15.581048096668336 19.26530239545047 0 0 0
1930 131 2 0 45.53209281364717 14.1065887605107 19.26530239545048 0 0 0
1931 131 2 0 44.67525087532226 13.39545953044299 18.408460457125635 0 0 0
1932 131 3 0 44.00253581208769 13.913392010727694 17.735745393891122 0 0 0
1954 1 1 0 44.74789321877882 18.48110280058211 16.20307838206666 0 0 0
1955 126 2 0 44.67525087532225 18.408460457125642 13.39545953044299 0 0 0
1956 126 3 0 44.00253581208768 17.735745393891126 13.913392010727692 0 0 0
1963 1 1 0 46.316292408515544 16.20307838206666 20.049501990318817 0 0 0
1964 131 2 0 46.388934751972066 13.39545953044299 20.12214433377533 0 0 0
1965 131 3 0 47.06164981520663 13.913392010727692 20.79485939700985 0 0 0
2064 1 1 0 46.316292408515544 18.48110280058211 22.327526408834263 0 0 0
2065 1 1 0 44.74789321877882 20.049501990318806 22.327526408834267 0 0 0
2085 139 2 0 45.53209281364718 19.26530239545046 22.94955669423259 0 0 0
2086 139 2 0 45.532092813647175 19.265302395450448 24.424016030390227 0 0 0
2087 139 2 0 46.388934751972066 18.40846045712559 25.135145260457932 0 0 0
2088 139 3 0 47.06164981520662 17.73574539389106 24.61721278017323 0 0 0
2089 139 2 0 44.675250875322284 20.122144333775303 25.13514526045794 0 0 0
2090 139 3 0 44.00253581208773 20.79485939700983 24.617212780173237 0 0 0
2183 1 4 0 31.27546621539124 18.14207100629288 31.275466215391234 0 0 0
2184 1 5 0 32.398697604548815 19.26530239545047 32.39869760454881 0 0 0
2185 1 1 0 31.614498009680467 18.481102800582097 29.33647359116501 0 0 0
2186 137 2 0 32.398697604548815 19.26530239545046 28.714443305766686 0 0 0
2187 137 2 0 32.39869760454883 19.265302395450448 27.239983969609053 0 0 0
2188 137 2 0 31.541855666223952 18.408460457125578 26.52885473954134 0 0 0
2189 137 3 0 30.869140602989408 17.735745393891037 27.04678721982604 0 0 0
2215 1 4 0 33.52192899370638 20.38853378460805 31.275466215391226 0 0 0
2216 1 1 0 33.18289719941717 22.327526408834274 31.61449800968046 0 0 0
2217 147 2 0 32.398697604548815 22.949556694232598 32.398697604548815 0 0 0
2218 147 2 0 32.39869760454882 24.42401603039023 32.39869760454882 0 0 0
2219 147 2 0 33.255539542873706 25.13514526045794 31.541855666223956 0 0 0
2220 147 3 0 33.92825460610824 24.617212780173237 30.86914060298941 0 0 0
2227 1 4 0 31.275466215391237 20.388533784608047 33.52192899370639 0 0 0
2228 1 1 0 29.336473591165017 20.04950199031882 33.18289719941717 0 0 0
2229 64 2 0 28.714443305766693 19.265302395450465 32.398697604548815 0 0 0
2230 64 2 0 27.23998396960906 19.26530239545046 32.39869760454882 0 0 0
2231 64 2 0 26.52885473954135 20.12214433377532 33.255539542873706 0 0 0
2232 64 3 0 27.046787219826058 20.794859397009848 33.92825460610826 0 0 0
2245 1 1 0 33.182897199417155 20.049501990318824 29.33647359116501 0 0 0
2246 137 2 0 33.25553954287371 20.122144333775314 26.528854739541345 0 0 0
2247 137 3 0 33.92825460610826 20.794859397009848 27.046787219826047 0 0 0
2260 1 1 0 29.336473591165017 18.48110280058211 31.61449800968046 0 0 0
2261 64 2 0 26.52885473954135 18.408460457125585 31.54185566622395 0 0 0
2262 64 3 0 27.046787219826047 17.735745393891044 30.869140602989404 0 0 0
2266 1 1 0 31.61449800968046 22.327526408834274 33.18289719941717 0 0 0
2267 147 2 0 31.541855666223952 25.13514526045794 33.255539542873706 0 0 0
2268 147 3 0 30.869140602989415 24.617212780173237 33.92825460610825 0 0 0
2325 1 1 0 31.614498009680453 20.049501990318817 35.46092161793261 0 0 0
2326 148 2 0 32.39869760454881 19.265302395450465 36.08295190333094 0 0 0
2327 148 2 0 32.39869760454879 19.26530239545046 37.55741123948857 0 0 0
2328 148 2 0 31.541855666223917 20.122144333775335 38.26854046955628 0 0 0
2329 148 3 0 30.86914060298938 20.794859397009876 37.75060798927158 0 0 0
2345 1 4 0 33.521928993706396 18.14207100629289 33.52192899370639 0 0 0
2346 1 1 0 33.18289719941718 16.203078382066664 33.18289719941717 0 0 0
2347 154 2 0 32.398697604548815 15.581048096668338 32.39869760454882 0 0 0
2348 154 2 0 32.398697604548815 14.106588760510704 32.39869760454883 0 0 0
2349 154 2 0 33.25553954287369 13.395459530442993 33.2555395428737 0 0 0
2350 154 3 0 33.92825460610823 13.913392010727696 33.92825460610824 0 0 0
2372 1 1 0 33.18289719941717 18.481102800582114 35.46092161793261 0 0 0
2373 148 2 0 33.255539542873656 18.40846045712557 38.26854046955628 0 0 0
2374 148 3 0 33.9282546061082 17.735745393891026 37.75060798927158 0 0 0
2390 1 1 0 31.61449800968046 16.20307838206666 31.61449800968047 0 0 0
2391 154 2 0 31.541855666223945 13.395459530442993 31.541855666223952 0 0 0
2392 154 3 0 30.869140602989408 13.913392010727698 30.869140602989408 0 0 0
2422 1 1 0 42.469868800263356 18.481102800582114 33.18289719941716 0 0 0
2423 157 2 0 41.84783851486503 19.265302395450462 32.3986976045488 0 0 0
2424 157 2 0 40.373379178707395 19.265302395450455 32.39869760454879 0 0 0
2425 157 2 0 39.66224994863968 18.40846045712557 33.255539542873656 0 0 0
2426 157 3 0 40.18018242892439 17.735745393891023 33.9282546061082 0 0 0
2452 1 1 0 35.460921617932605 20.04950199031882 31.614498009680442 0 0 0
2453 157 2 0 36.08295190333093 19.26530239545047 32.3986976045488 0 0 0
2454 157 2 0 37.557411239488566 19.265302395450462 32.39869760454879 0 0 0
2455 157 2 0 38.26854046955627 20.122144333775335 31.541855666223917 0 0 0
2456 157 3 0 37.75060798927157 20.794859397009876 30.869140602989376 0 0 0
2457 1 1 0 35.46092161793261 18.481102800582118 33.18289719941716 0 0 0
2458 157 2 0 38.26854046955627 18.408460457125575 33.255539542873656 0 0 0
2459 157 3 0 37.750607989271565 17.735745393891023 33.92825460610818 0 0 0
2475 1 1 0 42.469868800263356 20.04950199031882 31.61449800968045 0 0 0
2476 157 2 0 39.66224994863969 20.122144333775335 31.54185566622392 0 0 0
2477 157 3 0 40.1801824289244 20.794859397009876 30.869140602989383 0 0 0
2166 1 4 0 44.408861424489594 20.388533784608043 31.275466215391237 0 0 0
2167 1 5 0 45.53209281364718 19.26530239545047 32.398697604548815 0 0 0
2168 1 1 0 44.74789321877883 20.04950199031881 29.336473591165017 0 0 0
2169 139 2 0 45.53209281364719 19.26530239545046 28.714443305766697 0 0 0
2170 139 2 0 45.53209281364718 19.265302395450448 27.23998396960906 0 0 0
2171 139 2 0 44.675250875322284 20.1221443337753 26.528854739541355 0 0 0
2172 139 3 0 44.00253581208772 20.794859397009823 27.046787219826054 0 0 0
2176 1 4 0 46.65532420280478 18.142071006292888 31.27546621539125 0 0 0
2178 1 4 0 46.65532420280477 20.388533784608047 33.521928993706396 0 0 0
2275 1 1 0 46.31629240851555 18.48110280058211 29.336473591165024 0 0 0
2276 139 2 0 46.38893475197207 18.408460457125592 26.528854739541348 0 0 0
2277 139 3 0 47.06164981520663 17.735745393891065 27.04678721982605 0 0 0
2293 1 4 0 44.40886142448959 18.14207100629289 33.52192899370639 0 0 0
2294 1 1 0 44.747893218778806 18.481102800582125 35.46092161793261 0 0 0
2295 150 2 0 45.53209281364717 19.26530239545047 36.08295190333094 0 0 0
2296 150 2 0 45.53209281364716 19.265302395450476 37.55741123948857 0 0 0
2297 150 2 0 44.67525087532225 18.40846045712564 38.268540469556285 0 0 0
2298 150 3 0 44.00253581208768 17.735745393891126 37.75060798927158 0 0 0
2310 1 1 0 46.316292408515544 16.20307838206666 31.61449800968048 0 0 0
2311 153 2 0 45.532092813647175 15.581048096668338 32.39869760454882 0 0 0
2312 153 2 0 45.532092813647175 14.1065887605107 32.39869760454883 0 0 0
2313 153 2 0 46.38893475197206 13.395459530442993 31.541855666223963 0 0 0
2314 153 3 0 47.06164981520661 13.913392010727696 30.86914060298943 0 0 0
2399 1 1 0 46.31629240851554 20.049501990318813 35.46092161793261 0 0 0
2400 150 2 0 46.388934751972066 20.12214433377532 38.26854046955628 0 0 0
2401 150 3 0 47.06164981520663 20.794859397009834 37.75060798927157 0 0 0
2414 1 1 0 44.74789321877881 16.203078382066664 33.18289719941717 0 0 0
2415 153 2 0 44.67525087532229 13.39545953044299 33.25553954287369 0 0 0
2416 153 3 0 44.00253581208774 13.913392010727696 33.92825460610822 0 0 0
2483 1 1 0 48.594316827031015 18.48110280058211 31.614498009680492 0 0 0
2486 1 1 0 46.31629240851553 22.327526408834267 33.18289719941718 0 0 0
2493 1 1 0 44.74789321877881 22.32752640883427 31.61449800968047 0 0 0
2495 1 1 0 48.594316827031015 20.04950199031883 33.182897199417184 0 0 0
2525 161 2 0 45.53209281364717 22.94955669423259 32.39869760454883 0 0 0
2526 161 2 0 45.532092813647154 24.424016030390227 32.39869760454884 0 0 0
2527 161 2 0 46.38893475197203 25.135145260457936 33.25553954287372 0 0 0
2528 161 3 0 47.06164981520658 24.617212780173237 33.928254606108254 0 0 0
2529 161 2 0 44.67525087532226 25.13514526045794 31.541855666223984 0 0 0
2530 161 3 0 44.00253581208771 24.617212780173237 30.869140602989457 0 0 0
2533 47 2 0 49.21634711242934 19.265302395450465 32.39869760454884 0 0 0
2534 47 2 0 50.69080644858698 19.26530239545046 32.39869760454885 0 0 0
2535 47 2 0 51.40193567865469 18.408460457125592 31.541855666223963 0 0 0
2536 47 3 0 50.88400319836998 17.73574539389106 30.869140602989415 0 0 0
2541 47 2 0 51.4019356786547 20.122144333775314 33.255539542873734 0 0 0
2542 47 3 0 50.88400319837 20.794859397009844 33.92825460610829 0 0 0
2126 1 1 0 29.336473591165017 18.481102800582107 46.31629240851555 0 0 0
2127 49 2 0 28.714443305766693 19.265302395450455 45.53209281364719 0 0 0
2128 49 2 0 27.239983969609057 19.265302395450448 45.53209281364718 0 0 0
2129 49 2 0 26.528854739541348 18.408460457125585 46.388934751972066 0 0 0
2130 49 3 0 27.04678721982605 17.73574539389106 47.06164981520662 0 0 0
2131 1 1 0 29.336473591165017 20.04950199031881 44.747893218778835 0 0 0
2132 49 2 0 26.528854739541348 20.1221443337753 44.675250875322284 0 0 0
2133 49 3 0 27.04678721982605 20.79485939700982 44.00253581208772 0 0 0
2138 1 4 0 31.275466215391244 18.142071006292884 46.65532420280478 0 0 0
2140 1 4 0 31.275466215391237 20.38853378460804 44.408861424489594 0 0 0
2174 1 4 0 33.52192899370639 20.388533784608043 46.65532420280477 0 0 0
2175 1 5 0 32.398697604548815 19.265302395450462 45.53209281364718 0 0 0
2281 1 4 0 33.52192899370639 18.142071006292888 44.40886142448959 0 0 0
2282 1 1 0 33.182897199417155 18.481102800582104 42.46986880026336 0 0 0
2283 148 2 0 32.3986976045488 19.26530239545046 41.84783851486504 0 0 0
2284 148 2 0 32.39869760454879 19.265302395450455 40.3733791787074 0 0 0
2285 148 2 0 33.255539542873656 18.40846045712557 39.66224994863969 0 0 0
2286 148 3 0 33.9282546061082 17.73574539389103 40.1801824289244 0 0 0
2305 1 1 0 31.614498009680478 16.203078382066657 46.316292408515544 0 0 0
2306 152 2 0 32.39869760454882 15.581048096668335 45.53209281364718 0 0 0
2307 152 2 0 32.39869760454883 14.106588760510698 45.53209281364718 0 0 0
2308 152 2 0 31.54185566622397 13.39545953044299 46.38893475197207 0 0 0
2309 152 3 0 30.86914060298944 13.913392010727692 47.06164981520663 0 0 0
2396 1 1 0 31.61449800968045 20.049501990318813 42.46986880026336 0 0 0
2397 148 2 0 31.54185566622392 20.12214433377533 39.6622499486397 0 0 0
2398 148 3 0 30.869140602989383 20.794859397009876 40.1801824289244 0 0 0
2411 1 1 0 33.18289719941717 16.20307838206666 44.74789321877882 0 0 0
2412 152 2 0 33.255539542873684 13.39545953044299 44.67525087532229 0 0 0
2413 152 3 0 33.928254606108204 13.913392010727694 44.002535812087736 0 0 0
2482 1 1 0 33.182897199417184 20.04950199031882 48.59431682703101 0 0 0
2485 1 1 0 31.61449800968047 22.327526408834267 44.747893218778806 0 0 0
2492 1 1 0 31.61449800968048 18.481102800582107 48.594316827031015 0 0 0
2494 1 1 0 33.18289719941717 22.327526408834267 46.31629240851553 0 0 0
2501 118 2 0 32.398697604548836 19.265302395450462 49.21634711242934 0 0 0
2502 118 2 0 32.39869760454885 19.265302395450455 50.69080644858698 0 0 0
2503 118 2 0 33.25553954287374 20.122144333775307 51.401935678654695 0 0 0
2504 118 3 0 33.9282546061083 20.794859397009834 50.88400319836999 0 0 0
2519 118 2 0 31.541855666223967 18.40846045712559 51.401935678654695 0 0 0
2520 118 3 0 30.86914060298941 17.73574539389106 50.88400319836999 0 0 0
2521 160 2 0 32.39869760454882 22.94955669423259 45.53209281364716 0 0 0
2522 160 2 0 32.398697604548836 24.424016030390227 45.53209281364715 0 0 0
2523 160 2 0 31.54185566622398 25.135145260457936 44.675250875322256 0 0 0
2524 160 3 0 30.869140602989457 24.617212780173233 44.0025358120877 0 0 0
2531 160 2 0 33.255539542873706 25.135145260457936 46.38893475197202 0 0 0
2532 160 3 0 33.92825460610825 24.617212780173237 47.06164981520657 0 0 0
2427 1 1 0 35.46092161793261 18.481102800582125 44.7478932187788 0 0 0
2428 158 2 0 36.08295190333094 19.265302395450473 45.53209281364716 0 0 0
2429 158 2 0 37.55741123948857 19.26530239545048 45.532092813647154 0 0 0
2430 158 2 0 38.268540469556285 18.408460457125635 44.67525087532225 0 0 0
2431 158 3 0 37.75060798927158 17.735745393891122 44.00253581208768 0 0 0
2442 1 1 0 42.46986880026336 20.04950199031882 46.316292408515544 0 0 0
2443 158 2 0 41.847838514865046 19.265302395450476 45.532092813647175 0 0 0
2444 158 2 0 40.37337917870741 19.265302395450487 45.532092813647154 0 0 0
2445 158 2 0 39.6622499486397 20.12214433377533 46.38893475197206 0 0 0
2446 158 3 0 40.1801824289244 20.794859397009848 47.06164981520662 0 0 0
2466 1 1 0 42.46986880026337 18.481102800582132 44.74789321877881 0 0 0
2467 158 2 0 39.6622499486397 18.408460457125642 44.67525087532225 0 0 0
2468 158 3 0 40.180182428924404 17.73574539389113 44.00253581208768 0 0 0
2469 1 1 0 35.46092161793261 20.049501990318813 46.31629240851553 0 0 0
2470 158 2 0 38.26854046955628 20.122144333775328 46.38893475197206 0 0 0
2471 158 3 0 37.75060798927158 20.79485939700984 47.06164981520662 0 0 0
2181 1 4 0 46.65532420280477 18.14207100629288 46.65532420280477 0 0 0
2182 1 5 0 45.53209281364719 19.26530239545047 45.53209281364719 0 0 0
2209 1 4 0 44.4088614244896 20.38853378460804 46.65532420280478 0 0 0
2210 1 1 0 44.74789321877883 22.327526408834267 46.31629240851554 0 0 0
2211 146 2 0 45.532092813647175 22.94955669423259 45.53209281364717 0 0 0
2212 146 2 0 45.53209281364715 24.42401603039023 45.53209281364715 0 0 0
2213 146 2 0 44.67525087532226 25.13514526045794 46.388934751972016 0 0 0
2214 146 3 0 44.00253581208772 24.617212780173237 47.06164981520655 0 0 0
2239 1 4 0 46.65532420280478 20.38853378460804 44.40886142448961 0 0 0
2240 1 1 0 48.594316827031015 20.049501990318802 44.747893218778835 0 0 0
2241 39 2 0 49.21634711242934 19.26530239545045 45.532092813647196 0 0 0
2242 39 2 0 50.69080644858699 19.26530239545044 45.53209281364719 0 0 0
2243 39 2 0 51.4019356786547 20.12214433377529 44.67525087532229 0 0 0
2244 39 3 0 50.884003198369996 20.794859397009805 44.00253581208773 0 0 0
2251 1 1 0 48.59431682703101 18.4811028005821 46.31629240851555 0 0 0
2252 39 2 0 51.4019356786547 18.408460457125578 46.38893475197207 0 0 0
2253 39 3 0 50.884003198369996 17.735745393891044 47.06164981520662 0 0 0
2263 1 1 0 46.31629240851554 22.327526408834267 44.74789321877882 0 0 0
2264 146 2 0 46.38893475197201 25.13514526045794 44.67525087532226 0 0 0
2265 146 3 0 47.06164981520655 24.61721278017324 44.002535812087714 0 0 0
2340 1 1 0 46.316292408515544 20.049501990318813 42.46986880026337 0 0 0
2341 150 2 0 45.53209281364717 19.265302395450476 41.847838514865046 0 0 0
2342 150 2 0 45.532092813647154 19.265302395450483 40.37337917870741 0 0 0
2343 150 2 0 46.38893475197206 20.122144333775328 39.6622499486397 0 0 0
2344 150 3 0 47.06164981520663 20.79485939700984 40.1801824289244 0 0 0
2351 1 4 0 44.4088614244896 18.1420710062929 44.4088614244896 0 0 0
2352 1 1 0 44.74789321877881 16.20307838206667 44.74789321877882 0 0 0
2353 155 2 0 45.53209281364717 15.581048096668342 45.53209281364717 0 0 0
2354 155 2 0 45.53209281364717 14.106588760510704 45.53209281364716 0 0 0
2355 155 2 0 44.67525087532229 13.395459530442995 44.675250875322284 0 0 0
2356 155 3 0 44.00253581208775 13.913392010727703 44.00253581208775 0 0 0
2378 1 1 0 44.747893218778806 18.48110280058213 42.46986880026337 0 0 0
2379 150 2 0 44.67525087532224 18.408460457125646 39.6622499486397 0 0 0
2380 150 3 0 44.00253581208767 17.735745393891133 40.180182428924404 0 0 0
2387 1 1 0 46.31629240851553 16.20307838206666 46.31629240851552 0 0 0
2388 155 2 0 46.388934751972045 13.395459530442992 46.38893475197204 0 0 0
2389 155 3 0 47.061649815206586 13.913392010727692 47.06164981520658 0 0 0
2488 1 1 0 46.31629240851553 18.481102800582093 48.594316827031015 0 0 0
2489 1 1 0 44.74789321877883 20.04950199031881 48.59431682703102 0 0 0
2509 117 2 0 45.532092813647175 19.265302395450444 49.21634711242935 0 0 0
2510 117 2 0 45.532092813647175 19.265302395450437 50.69080644858699 0 0 0
2511 117 2 0 46.388934751972066 18.408460457125578 51.4019356786547 0 0 0
2512 117 3 0 47.06164981520662 17.73574539389105 50.884003198369996 0 0 0
2513 117 2 0 44.675250875322284 20.122144333775292 51.4019356786547 0 0 0
2514 117 3 0 44.00253581208773 20.79485939700982 50.884003198369996 0 0 0
2545 1 1 0 29.336473591165014 33.18289719941716 5.34770759148374 0 0 0
2546 74 2 0 28.714443305766693 32.39869760454882 6.131907186352111 0 0 0
2547 74 2 0 27.239983969609057 32.39869760454882 6.131907186352118 0 0 0
2548 74 2 0 26.528854739541348 33.255539542873684 5.27506524802723 0 0 0
2549 74 3 0 27.04678721982605 33.92825460610821 4.602350184792676 0 0 0
2558 1 1 0 29.336473591165017 31.61449800968047 6.916106781220467 0 0 0
2559 74 2 0 26.528854739541348 31.541855666223963 6.9887491246770095 0 0 0
2560 74 3 0 27.046787219826047 30.869140602989436 7.661464187911565 0 0 0
2561 1 4 0 31.275466215391237 33.52192899370638 5.008675797194494 0 0 0
2563 1 4 0 31.27546621539124 31.275466215391237 7.255138575509683 0 0 0
2565 1 1 0 31.614498009680467 29.336473591165014 6.916106781220468 0 0 0
2566 123 2 0 32.398697604548815 28.71444330576669 6.131907186352106 0 0 0
2567 123 2 0 32.39869760454882 27.239983969609057 6.131907186352116 0 0 0
2568 123 2 0 31.541855666223967 26.528854739541345 6.9887491246770095 0 0 0
2569 123 3 0 30.869140602989432 27.046787219826044 7.661464187911561 0 0 0
2575 1 1 0 33.182897199417155 29.336473591165014 5.347707591483736 0 0 0
2576 123 2 0 33.255539542873684 26.528854739541348 5.275065248027228 0 0 0
2577 123 3 0 33.92825460610821 27.04678721982605 4.602350184792675 0 0 0
2581 1 4 0 33.52192899370638 31.275466215391234 5.008675797194495 0 0 0
2584 1 5 0 32.39869760454881 32.39869760454881 6.131907186352084 0 0 0
2585 1 1 0 33.18289719941717 31.614498009680457 3.0696831729682534 0 0 0
2586 162 2 0 32.39869760454882 32.39869760454881 2.447652887569926 0 0 0
2587 162 2 0 32.39869760454883 32.39869760454882 0.9731935514122838 0 0 0
2588 162 2 0 33.255539542873706 31.541855666223952 0.262064321344569 0 0 0
2589 162 3 0 33.92825460610825 30.869140602989415 0.7799968016292771 0 0 0
2702 1 1 0 31.61449800968046 33.18289719941716 3.0696831729682534 0 0 0
2703 162 2 0 31.541855666223956 33.2555395428737 0.26206432134457414 0 0 0
2704 162 3 0 30.86914060298942 33.92825460610825 0.779996801629283 0 0 0
2723 1 4 0 33.52192899370638 33.52192899370638 7.255138575509675 0 0 0
2724 1 1 0 33.18289719941717 33.18289719941717 9.194131199735903 0 0 0
2725 169 2 0 32.39869760454882 32.398697604548815 9.816161485134232 0 0 0
2726 169 2 0 32.39869760454882 32.39869760454882 11.290620821291869 0 0 0
2727 169 2 0 33.2555395428737 33.2555395428737 12.001750051359576 0 0 0
2728 169 3 0 33.92825460610824 33.92825460610824 11.48381757107487 0 0 0
2739 1 1 0 31.614498009680478 35.460921617932605 5.347707591483728 0 0 0
2740 172 2 0 32.39869760454883 36.08295190333093 6.131907186352088 0 0 0
2741 172 2 0 32.398697604548836 37.557411239488566 6.1319071863520875 0 0 0
2742 172 2 0 31.54185566622396 38.26854046955627 5.275065248027214 0 0 0
2743 172 3 0 30.869140602989415 37.750607989271565 4.6023501847926775 0 0 0
2826 1 1 0 31.614498009680464 31.61449800968046 9.19413119973591 0 0 0
2827 169 2 0 31.54185566622395 31.54185566622395 12.001750051359581 0 0 0
2828 169 3 0 30.869140602989408 30.869140602989408 11.48381757107488 0 0 0
2832 1 1 0 33.18289719941717 35.460921617932605 6.916106781220454 0 0 0
2833 172 2 0 33.255539542873706 38.26854046955627 6.988749124676968 0 0 0
2834 172 3 0 33.92825460610825 37.750607989271565 7.661464187911506 0 0 0
2856 1 1 0 35.4609216179326 33.18289719941717 6.916106781220451 0 0 0
2857 177 2 0 36.08295190333092 32.398697604548815 6.131907186352097 0 0 0
2858 177 2 0 37.55741123948856 32.39869760454882 6.131907186352094 0 0 0
2859 177 2 0 38.268540469556264 33.2555395428737 6.9887491246769695 0 0 0
2860 177 3 0 37.750607989271565 33.92825460610824 7.66146418791151 0 0 0
2861 1 1 0 42.469868800263356 31.61449800968048 5.347707591483726 0 0 0
2862 177 2 0 41.84783851486503 32.39869760454883 6.131907186352089 0 0 0
2863 177 2 0 40.373379178707395 32.39869760454883 6.131907186352092 0 0 0
2864 177 2 0 39.66224994863968 31.541855666223956 5.275065248027215 0 0 0
2865 177 3 0 40.18018242892439 30.869140602989418 4.60235018479267 0 0 0
2887 1 1 0 42.46986880026336 33.18289719941717 6.916106781220455 0 0 0
2888 177 2 0 39.66224994863968 33.2555395428737 6.988749124676971 0 0 0
2889 177 3 0 40.18018242892438 33.92825460610825 7.661464187911506 0 0 0
2896 1 1 0 35.4609216179326 31.614498009680467 5.347707591483736 0 0 0
2897 177 2 0 38.26854046955627 31.541855666223952 5.275065248027216 0 0 0
2898 177 3 0 37.75060798927157 30.86914060298941 4.602350184792675 0 0 0
2614 1 4 0 46.65532420280477 33.52192899370638 5.008675797194494 0 0 0
2615 1 5 0 45.53209281364718 32.398697604548815 6.13190718635208 0 0 0
2616 1 1 0 46.31629240851554 33.18289719941717 3.069683172968253 0 0 0
2617 165 2 0 45.53209281364717 32.39869760454883 2.447652887569926 0 0 0
2618 165 2 0 45.53209281364716 32.398697604548836 0.9731935514122835 0 0 0
2619 165 2 0 46.388934751972045 33.255539542873706 0.26206432134457414 0 0 0
2620 165 3 0 47.061649815206586 33.92825460610825 0.7799968016292826 0 0 0
2627 1 4 0 44.40886142448959 31.275466215391244 5.008675797194494 0 0 0
2628 1 1 0 44.747893218778806 29.336473591165017 5.347707591483742 0 0 0
2629 141 2 0 45.53209281364716 28.714443305766693 6.1319071863521 0 0 0
2630 141 2 0 45.53209281364714 27.239983969609057 6.131907186352119 0 0 0
2631 141 2 0 44.67525087532225 26.528854739541348 5.27506524802726 0 0 0
2632 141 3 0 44.002535812087686 27.04678721982605 4.602350184792739 0 0 0
2657 1 4 0 46.65532420280477 31.275466215391244 7.255138575509669 0 0 0
2658 1 1 0 48.59431682703101 31.61449800968047 6.916106781220451 0 0 0
2659 66 2 0 49.21634711242934 32.39869760454883 6.131907186352102 0 0 0
2660 66 2 0 50.69080644858698 32.39869760454884 6.131907186352118 0 0 0
2661 66 2 0 51.401935678654695 31.541855666223974 6.988749124676998 0 0 0
2662 66 3 0 50.88400319836999 30.869140602989432 7.661464187911539 0 0 0
2672 1 1 0 44.74789321877881 31.614498009680478 3.069683172968254 0 0 0
2673 165 2 0 44.67525087532226 31.541855666223984 0.26206432134456903 0 0 0
2674 165 3 0 44.00253581208771 30.86914060298946 0.7799968016292775 0 0 0
2678 1 1 0 48.594316827031015 33.18289719941717 5.347707591483732 0 0 0
2679 66 2 0 51.401935678654695 33.25553954287372 5.275065248027245 0 0 0
2680 66 3 0 50.88400319836999 33.92825460610826 4.602350184792704 0 0 0
2693 1 1 0 46.31629240851552 29.336473591165017 6.916106781220448 0 0 0
2694 141 2 0 46.38893475197202 26.528854739541348 6.988749124676984 0 0 0
2695 141 3 0 47.06164981520658 27.04678721982605 7.661464187911511 0 0 0
2754 1 1 0 46.316292408515544 31.61449800968048 9.1941311997359 0 0 0
2755 167 2 0 45.53209281364718 32.39869760454883 9.816161485134225 0 0 0
2756 167 2 0 45.53209281364718 32.39869760454883 11.290620821291864 0 0 0
2757 167 2 0 46.388934751972066 31.541855666223967 12.001750051359576 0 0 0
2758 167 3 0 47.061649815206614 30.869140602989432 11.483817571074873 0 0 0
2781 1 4 0 44.408861424489594 33.52192899370638 7.2551385755096724 0 0 0
2782 1 1 0 44.74789321877881 35.460921617932605 6.91610678122045 0 0 0
2783 171 2 0 45.53209281364716 36.08295190333093 6.13190718635209 0 0 0
2784 171 2 0 45.532092813647154 37.557411239488566 6.1319071863520875 0 0 0
2785 171 2 0 44.67525087532226 38.26854046955628 6.9887491246769455 0 0 0
2786 171 3 0 44.00253581208771 37.75060798927157 7.661464187911471 0 0 0
2793 1 1 0 44.74789321877881 33.18289719941717 9.194131199735901 0 0 0
2794 167 2 0 44.6752508753223 33.25553954287369 12.001750051359574 0 0 0
2795 167 3 0 44.00253581208774 33.928254606108226 11.483817571074871 0 0 0
2805 1 1 0 46.316292408515515 35.460921617932605 5.347707591483734 0 0 0
2806 171 2 0 46.388934751972045 38.26854046955628 5.2750652480272295 0 0 0
2807 171 3 0 47.0616498152066 37.75060798927157 4.602350184792706 0 0 0
2603 1 4 0 31.275466215391234 33.52192899370638 20.38853378460805 0 0 0
2604 1 5 0 32.398697604548815 32.39869760454881 19.26530239545047 0 0 0
2621 1 4 0 33.52192899370639 31.27546621539123 20.38853378460805 0 0 0
2622 1 1 0 33.18289719941716 29.336473591165014 20.049501990318827 0 0 0
2623 140 2 0 32.398697604548815 28.714443305766693 19.265302395450465 0 0 0
2624 140 2 0 32.39869760454883 27.23998396960906 19.265302395450455 0 0 0
2625 140 2 0 33.25553954287371 26.52885473954135 20.12214433377532 0 0 0
2626 140 3 0 33.92825460610827 27.046787219826054 20.794859397009848 0 0 0
2645 1 4 0 31.27546621539124 31.27546621539124 18.14207100629288 0 0 0
2646 1 1 0 29.336473591165014 31.61449800968047 18.481102800582097 0 0 0
2647 93 2 0 28.71444330576669 32.39869760454882 19.265302395450455 0 0 0
2648 93 2 0 27.239983969609057 32.39869760454883 19.26530239545045 0 0 0
2649 93 2 0 26.528854739541345 31.541855666223956 18.408460457125578 0 0 0
2650 93 3 0 27.046787219826044 30.869140602989408 17.73574539389104 0 0 0
2681 1 1 0 29.336473591165014 33.18289719941716 20.049501990318824 0 0 0
2682 93 2 0 26.52885473954135 33.25553954287371 20.122144333775317 0 0 0
2683 93 3 0 27.046787219826054 33.92825460610827 20.794859397009848 0 0 0
2696 1 1 0 31.614498009680467 29.336473591165014 18.481102800582104 0 0 0
2697 140 2 0 31.541855666223952 26.528854739541348 18.40846045712558 0 0 0
2698 140 3 0 30.869140602989408 27.04678721982605 17.735745393891044 0 0 0
2759 1 1 0 31.614498009680474 31.61449800968047 16.20307838206666 0 0 0
2760 169 2 0 32.39869760454883 32.39869760454883 15.581048096668338 0 0 0
2761 169 2 0 32.39869760454883 32.39869760454883 14.106588760510704 0 0 0
2762 169 2 0 31.541855666223952 31.541855666223952 13.395459530442997 0 0 0
2763 169 3 0 30.869140602989408 30.869140602989408 13.9133920107277 0 0 0
2787 1 4 0 33.52192899370639 33.52192899370639 18.14207100629289 0 0 0
2788 1 1 0 33.18289719941716 35.46092161793261 18.48110280058212 0 0 0
2789 170 2 0 32.3986976045488 36.08295190333094 19.26530239545047 0 0 0
2790 170 2 0 32.39869760454879 37.55741123948857 19.26530239545046 0 0 0
2791 170 2 0 33.255539542873656 38.26854046955628 18.40846045712557 0 0 0
2792 170 3 0 33.92825460610818 37.75060798927157 17.73574539389102 0 0 0
2799 1 1 0 33.182897199417184 33.182897199417184 16.203078382066664 0 0 0
2800 169 2 0 33.255539542873706 33.255539542873706 13.395459530442992 0 0 0
2801 169 3 0 33.92825460610825 33.92825460610825 13.913392010727692 0 0 0
2808 1 1 0 31.614498009680446 35.460921617932605 20.049501990318824 0 0 0
2809 170 2 0 31.54185566622392 38.26854046955628 20.12214433377534 0 0 0
2810 170 3 0 30.869140602989386 37.75060798927157 20.79485939700988 0 0 0
2911 1 1 0 31.614498009680457 33.18289719941716 22.32752640883427 0 0 0
2914 1 1 0 33.18289719941718 31.61449800968046 22.327526408834274 0 0 0
2929 180 2 0 32.39869760454882 32.398697604548815 22.949556694232594 0 0 0
2930 180 2 0 32.39869760454883 32.39869760454883 24.42401603039023 0 0 0
2931 180 2 0 31.541855666223952 33.255539542873706 25.135145260457936 0 0 0
2932 180 3 0 30.86914060298941 33.92825460610825 24.617212780173233 0 0 0
2939 180 2 0 33.255539542873706 31.54185566622396 25.13514526045794 0 0 0
2940 180 3 0 33.92825460610825 30.869140602989418 24.61721278017324 0 0 0
2841 1 1 0 42.46986880026336 33.182897199417155 18.48110280058211 0 0 0
2842 174 2 0 41.847838514865046 32.39869760454879 19.265302395450462 0 0 0
2843 174 2 0 40.37337917870741 32.398697604548786 19.265302395450455 0 0 0
2844 174 2 0 39.6622499486397 33.255539542873656 18.408460457125575 0 0 0
2845 174 3 0 40.1801824289244 33.92825460610819 17.735745393891026 0 0 0
2871 1 1 0 35.46092161793261 31.614498009680446 20.049501990318817 0 0 0
2872 174 2 0 36.08295190333094 32.3986976045488 19.265302395450465 0 0 0
2873 174 2 0 37.55741123948857 32.398697604548786 19.265302395450455 0 0 0
2874 174 2 0 38.26854046955628 31.541855666223917 20.122144333775335 0 0 0
2875 174 3 0 37.75060798927157 30.869140602989383 20.79485939700988 0 0 0
2884 1 1 0 35.46092161793261 33.18289719941716 18.481102800582118 0 0 0
2885 174 2 0 38.26854046955628 33.25553954287365 18.40846045712557 0 0 0
2886 174 3 0 37.75060798927158 33.92825460610818 17.735745393891023 0 0 0
2902 1 1 0 42.46986880026337 31.614498009680446 20.049501990318817 0 0 0
2903 174 2 0 39.6622499486397 31.541855666223917 20.122144333775335 0 0 0
2904 174 3 0 40.180182428924404 30.869140602989383 20.79485939700988 0 0 0
2570 1 1 0 46.31629240851556 29.33647359116502 18.481102800582107 0 0 0
2571 122 2 0 45.532092813647196 28.714443305766697 19.265302395450455 0 0 0
2572 122 2 0 45.53209281364719 27.239983969609057 19.265302395450448 0 0 0
2573 122 2 0 46.38893475197207 26.528854739541345 18.408460457125585 0 0 0
2574 122 3 0 47.06164981520663 27.046787219826047 17.735745393891058 0 0 0
2578 1 1 0 44.74789321877884 29.336473591165017 20.049501990318813 0 0 0
2579 122 2 0 44.675250875322284 26.528854739541348 20.122144333775296 0 0 0
2580 122 3 0 44.00253581208772 27.046787219826054 20.794859397009812 0 0 0
2582 1 4 0 44.4088614244896 31.275466215391234 20.388533784608043 0 0 0
2583 1 4 0 46.65532420280478 31.275466215391248 18.142071006292884 0 0 0
2597 1 5 0 45.53209281364719 32.398697604548815 19.265302395450465 0 0 0
2601 1 4 0 46.65532420280477 33.521928993706396 20.388533784608043 0 0 0
2711 1 4 0 44.408861424489594 33.52192899370639 18.14207100629289 0 0 0
2712 1 1 0 44.74789321877881 33.18289719941718 16.20307838206666 0 0 0
2713 167 2 0 45.532092813647175 32.39869760454883 15.581048096668336 0 0 0
2714 167 2 0 45.532092813647175 32.39869760454883 14.1065887605107 0 0 0
2715 167 2 0 44.67525087532229 33.25553954287369 13.39545953044299 0 0 0
2716 167 3 0 44.002535812087736 33.92825460610822 13.913392010727692 0 0 0
2744 1 1 0 46.31629240851553 35.46092161793262 20.049501990318813 0 0 0
2745 173 2 0 45.53209281364716 36.08295190333094 19.26530239545047 0 0 0
2746 173 2 0 45.532092813647154 37.55741123948857 19.26530239545048 0 0 0
2747 173 2 0 46.38893475197206 38.268540469556285 20.122144333775328 0 0 0
2748 173 3 0 47.06164981520662 37.75060798927158 20.794859397009844 0 0 0
2817 1 1 0 46.31629240851554 31.614498009680478 16.20307838206666 0 0 0
2818 167 2 0 46.388934751972066 31.541855666223967 13.395459530442992 0 0 0
2819 167 3 0 47.06164981520661 30.86914060298943 13.913392010727696 0 0 0
2829 1 1 0 44.7478932187788 35.46092161793261 18.48110280058212 0 0 0
2830 173 2 0 44.67525087532224 38.268540469556285 18.408460457125642 0 0 0
2831 173 3 0 44.00253581208767 37.750607989271586 17.735745393891126 0 0 0
2905 1 1 0 44.74789321877881 31.614498009680474 22.327526408834267 0 0 0
2908 1 1 0 48.594316827031015 33.18289719941719 20.04950199031882 0 0 0
2915 1 1 0 46.31629240851553 33.18289719941718 22.32752640883427 0 0 0
2920 1 1 0 48.594316827031015 31.61449800968049 18.481102800582107 0 0 0
2921 178 2 0 45.53209281364716 32.39869760454883 22.94955669423259 0 0 0
2922 178 2 0 45.53209281364715 32.398697604548836 24.424016030390227 0 0 0
2923 178 2 0 44.675250875322256 31.54185566622398 25.135145260457936 0 0 0
2924 178 3 0 44.00253581208769 30.86914060298946 24.617212780173233 0 0 0
2941 178 2 0 46.38893475197203 33.255539542873706 25.13514526045794 0 0 0
2942 178 3 0 47.06164981520658 33.92825460610823 24.617212780173237 0 0 0
2961 72 2 0 49.21634711242934 32.39869760454884 19.265302395450462 0 0 0
2962 72 2 0 50.69080644858698 32.39869760454885 19.265302395450455 0 0 0
2963 72 2 0 51.4019356786547 33.25553954287374 20.12214433377531 0 0 0
2964 72 3 0 50.88400319837 33.928254606108304 20.794859397009834 0 0 0
2967 72 2 0 51.401935678654695 31.541855666223963 18.408460457125592 0 0 0
2968 72 3 0 50.88400319836999 30.86914060298941 17.73574539389106 0 0 0
2969 1 1 0 29.336473591165014 33.18289719941718 31.61449800968046 0 0 0
2970 98 2 0 28.71444330576669 32.39869760454882 32.398697604548815 0 0 0
2971 98 2 0 27.239983969609057 32.39869760454883 32.39869760454882 0 0 0
2972 98 2 0 26.528854739541348 33.2555395428737 31.541855666223945 0 0 0
2973 98 3 0 27.046787219826047 33.92825460610823 30.869140602989397 0 0 0
2982 1 1 0 29.336473591165014 31.614498009680464 33.18289719941716 0 0 0
2983 98 2 0 26.52885473954135 31.541855666223956 33.2555395428737 0 0 0
2984 98 3 0 27.046787219826058 30.869140602989418 33.92825460610824 0 0 0
2985 1 4 0 31.275466215391234 33.52192899370639 31.275466215391237 0 0 0
2987 1 4 0 31.275466215391234 31.275466215391237 33.52192899370639 0 0 0
2989 1 1 0 31.614498009680464 29.336473591165017 33.18289719941718 0 0 0
2990 147 2 0 32.39869760454882 28.714443305766693 32.39869760454882 0 0 0
2991 147 2 0 32.398697604548836 27.23998396960906 32.39869760454883 0 0 0
2992 147 2 0 31.54185566622395 26.52885473954135 33.2555395428737 0 0 0
2993 147 3 0 30.869140602989408 27.04678721982605 33.92825460610824 0 0 0
2999 1 1 0 33.18289719941717 29.336473591165014 31.614498009680464 0 0 0
3000 147 2 0 33.25553954287371 26.52885473954135 31.54185566622396 0 0 0
3001 147 3 0 33.92825460610826 27.046787219826054 30.869140602989425 0 0 0
3005 1 4 0 33.52192899370638 31.275466215391234 31.275466215391234 0 0 0
3008 1 5 0 32.39869760454881 32.39869760454881 32.39869760454881 0 0 0
3009 1 1 0 33.18289719941716 31.614498009680464 29.336473591165017 0 0 0
3010 180 2 0 32.398697604548815 32.39869760454882 28.714443305766693 0 0 0
3011 180 2 0 32.39869760454882 32.39869760454883 27.23998396960906 0 0 0
3012 180 2 0 33.2555395428737 31.541855666223956 26.528854739541355 0 0 0
3013 180 3 0 33.92825460610824 30.869140602989418 27.046787219826058 0 0 0
3126 1 1 0 31.61449800968046 33.18289719941718 29.336473591165017 0 0 0
3127 180 2 0 31.541855666223952 33.255539542873706 26.52885473954135 0 0 0
3128 180 3 0 30.869140602989404 33.92825460610824 27.04678721982605 0 0 0
3147 1 4 0 33.52192899370639 33.52192899370639 33.52192899370639 0 0 0
3148 1 1 0 33.18289719941718 33.18289719941717 35.460921617932605 0 0 0
3149 185 2 0 32.39869760454882 32.39869760454882 36.08295190333093 0 0 0
3150 185 2 0 32.39869760454882 32.39869760454882 37.557411239488566 0 0 0
3151 185 2 0 33.2555395428737 33.2555395428737 38.26854046955627 0 0 0
3152 185 3 0 33.92825460610824 33.92825460610824 37.750607989271565 0 0 0
3163 1 1 0 31.61449800968046 35.46092161793261 31.61449800968047 0 0 0
3164 188 2 0 32.39869760454882 36.08295190333093 32.39869760454882 0 0 0
3165 188 2 0 32.39869760454882 37.557411239488566 32.39869760454882 0 0 0
3166 188 2 0 31.541855666223945 38.26854046955627 31.541855666223945 0 0 0
3167 188 3 0 30.869140602989404 37.750607989271565 30.869140602989404 0 0 0
3250 1 1 0 31.61449800968046 31.614498009680467 35.460921617932605 0 0 0
3251 185 2 0 31.54185566622395 31.54185566622395 38.26854046955627 0 0 0
3252 185 3 0 30.86914060298941 30.86914060298941 37.750607989271565 0 0 0
3256 1 1 0 33.18289719941718 35.460921617932605 33.18289719941718 0 0 0
3257 188 2 0 33.2555395428737 38.26854046955628 33.2555395428737 0 0 0
3258 188 3 0 33.92825460610824 37.75060798927158 33.92825460610824 0 0 0
3280 1 1 0 35.460921617932605 33.18289719941718 33.18289719941718 0 0 0
3281 193 2 0 36.08295190333093 32.39869760454882 32.39869760454882 0 0 0
3282 193 2 0 37.557411239488566 32.39869760454882 32.39869760454882 0 0 0
3283 193 2 0 38.26854046955627 33.2555395428737 33.25553954287369 0 0 0
3284 193 3 0 37.750607989271565 33.92825460610824 33.92825460610823 0 0 0
3285 1 1 0 42.469868800263356 31.614498009680464 31.61449800968047 0 0 0
3286 193 2 0 41.84783851486503 32.39869760454882 32.39869760454883 0 0 0
3287 193 2 0 40.373379178707395 32.39869760454882 32.39869760454883 0 0 0
3288 193 2 0 39.66224994863968 31.54185566622395 31.54185566622395 0 0 0
3289 193 3 0 40.18018242892439 30.869140602989408 30.869140602989408 0 0 0
3311 1 1 0 42.469868800263356 33.18289719941718 33.18289719941718 0 0 0
3312 193 2 0 39.66224994863968 33.2555395428737 33.2555395428737 0 0 0
3313 193 3 0 40.18018242892439 33.92825460610824 33.92825460610824 0 0 0
3320 1 1 0 35.460921617932605 31.614498009680467 31.614498009680467 0 0 0
3321 193 2 0 38.26854046955627 31.54185566622395 31.541855666223945 0 0 0
3322 193 3 0 37.75060798927157 30.869140602989408 30.869140602989404 0 0 0
3038 1 4 0 46.65532420280478 33.52192899370639 31.27546621539124 0 0 0
3039 1 5 0 45.53209281364718 32.398697604548815 32.398697604548815 0 0 0
3040 1 1 0 46.31629240851553 33.18289719941717 29.33647359116502 0 0 0
3041 178 2 0 45.53209281364716 32.39869760454883 28.714443305766697 0 0 0
3042 178 2 0 45.53209281364715 32.398697604548836 27.23998396960906 0 0 0
3043 178 2 0 46.38893475197203 33.2555395428737 26.52885473954135 0 0 0
3044 178 3 0 47.06164981520658 33.92825460610823 27.046787219826054 0 0 0
3051 1 4 0 44.40886142448959 31.27546621539124 31.275466215391244 0 0 0
3052 1 1 0 44.747893218778806 29.336473591165017 31.614498009680474 0 0 0
3053 161 2 0 45.53209281364716 28.714443305766697 32.39869760454883 0 0 0
3054 161 2 0 45.532092813647154 27.23998396960906 32.39869760454884 0 0 0
3055 161 2 0 44.67525087532227 26.52885473954135 31.54185566622398 0 0 0
3056 161 3 0 44.002535812087714 27.046787219826054 30.869140602989454 0 0 0
3081 1 4 0 46.65532420280478 31.275466215391244 33.52192899370639 0 0 0
3082 1 1 0 48.59431682703102 31.61449800968046 33.18289719941717 0 0 0
3083 94 2 0 49.21634711242935 32.398697604548815 32.398697604548815 0 0 0
3084 94 2 0 50.69080644858699 32.39869760454882 32.39869760454882 0 0 0
3085 94 2 0 51.4019356786547 31.541855666223952 33.255539542873706 0 0 0
3086 94 3 0 50.884003198369996 30.869140602989415 33.92825460610825 0 0 0
3096 1 1 0 44.747893218778806 31.614498009680474 29.33647359116502 0 0 0
3097 178 2 0 44.675250875322256 31.54185566622398 26.52885473954135 0 0 0
3098 178 3 0 44.0025358120877 30.869140602989454 27.04678721982605 0 0 0
3102 1 1 0 48.594316827031015 33.18289719941716 31.614498009680457 0 0 0
3103 94 2 0 51.4019356786547 33.2555395428737 31.541855666223952 0 0 0
3104 94 3 0 50.884003198369996 33.92825460610825 30.86914060298942 0 0 0
3117 1 1 0 46.31629240851553 29.33647359116502 33.18289719941717 0 0 0
3118 161 2 0 46.38893475197203 26.52885473954135 33.25553954287372 0 0 0
3119 161 3 0 47.06164981520657 27.046787219826054 33.92825460610826 0 0 0
3178 1 1 0 46.31629240851554 31.61449800968048 35.460921617932605 0 0 0
3179 183 2 0 45.53209281364717 32.39869760454882 36.08295190333093 0 0 0
3180 183 2 0 45.53209281364717 32.39869760454882 37.557411239488566 0 0 0
3181 183 2 0 46.388934751972066 31.541855666223967 38.26854046955627 0 0 0
3182 183 3 0 47.061649815206614 30.86914060298944 37.750607989271565 0 0 0
3205 1 4 0 44.408861424489594 33.52192899370639 33.52192899370639 0 0 0
3206 1 1 0 44.74789321877882 35.46092161793261 33.18289719941716 0 0 0
3207 187 2 0 45.53209281364719 36.08295190333094 32.39869760454882 0 0 0
3208 187 2 0 45.53209281364718 37.55741123948857 32.39869760454882 0 0 0
3209 187 2 0 44.67525087532229 38.26854046955628 33.25553954287368 0 0 0
3210 187 3 0 44.002535812087736 37.75060798927158 33.92825460610821 0 0 0
3217 1 1 0 44.747893218778806 33.18289719941717 35.460921617932605 0 0 0
3218 183 2 0 44.67525087532228 33.25553954287368 38.26854046955628 0 0 0
3219 183 3 0 44.00253581208772 33.9282546061082 37.75060798927157 0 0 0
3229 1 1 0 46.31629240851555 35.46092161793261 31.614498009680474 0 0 0
3230 187 2 0 46.38893475197207 38.26854046955628 31.541855666223963 0 0 0
3231 187 3 0 47.06164981520663 37.75060798927158 30.86914060298944 0 0 0
3027 1 4 0 31.27546621539124 33.52192899370639 46.65532420280477 0 0 0
3028 1 5 0 32.398697604548815 32.398697604548815 45.53209281364718 0 0 0
3045 1 4 0 33.52192899370639 31.27546621539124 46.65532420280477 0 0 0
3046 1 1 0 33.18289719941717 29.336473591165017 46.31629240851552 0 0 0
3047 160 2 0 32.39869760454882 28.714443305766693 45.532092813647154 0 0 0
3048 160 2 0 32.398697604548836 27.23998396960906 45.53209281364714 0 0 0
3049 160 2 0 33.255539542873706 26.52885473954135 46.38893475197202 0 0 0
3050 160 3 0 33.92825460610825 27.046787219826054 47.06164981520657 0 0 0
3069 1 4 0 31.27546621539124 31.275466215391244 44.40886142448958 0 0 0
3070 1 1 0 29.33647359116502 31.614498009680478 44.7478932187788 0 0 0
3071 113 2 0 28.714443305766697 32.39869760454883 45.53209281364716 0 0 0
3072 113 2 0 27.23998396960906 32.39869760454884 45.53209281364714 0 0 0
3073 113 2 0 26.528854739541348 31.541855666223984 44.67525087532225 0 0 0
3074 113 3 0 27.04678721982605 30.869140602989454 44.0025358120877 0 0 0
3105 1 1 0 29.336473591165017 33.18289719941717 46.31629240851553 0 0 0
3106 113 2 0 26.52885473954135 33.25553954287371 46.388934751972016 0 0 0
3107 113 3 0 27.046787219826054 33.92825460610825 47.061649815206565 0 0 0
3120 1 1 0 31.61449800968047 29.336473591165017 44.7478932187788 0 0 0
3121 160 2 0 31.54185566622398 26.528854739541348 44.67525087532225 0 0 0
3122 160 3 0 30.86914060298946 27.04678721982605 44.00253581208769 0 0 0
3183 1 1 0 31.61449800968047 31.61449800968047 42.469868800263356 0 0 0
3184 185 2 0 32.39869760454882 32.39869760454882 41.84783851486503 0 0 0
3185 185 2 0 32.39869760454882 32.39869760454882 40.373379178707395 0 0 0
3186 185 2 0 31.54185566622395 31.54185566622395 39.66224994863968 0 0 0
3187 185 3 0 30.869140602989408 30.869140602989408 40.18018242892439 0 0 0
3211 1 4 0 33.52192899370639 33.52192899370638 44.40886142448959 0 0 0
3212 1 1 0 33.18289719941717 35.460921617932605 44.74789321877881 0 0 0
3213 186 2 0 32.39869760454883 36.08295190333093 45.532092813647175 0 0 0
3214 186 2 0 32.398697604548836 37.557411239488566 45.532092813647175 0 0 0
3215 186 2 0 33.25553954287369 38.26854046955627 44.675250875322284 0 0 0
3216 186 3 0 33.92825460610822 37.750607989271565 44.00253581208773 0 0 0
3223 1 1 0 33.18289719941718 33.18289719941718 42.469868800263356 0 0 0
3224 185 2 0 33.2555395428737 33.2555395428737 39.66224994863968 0 0 0
3225 185 3 0 33.92825460610824 33.92825460610825 40.18018242892438 0 0 0
3232 1 1 0 31.614498009680478 35.46092161793261 46.31629240851554 0 0 0
3233 186 2 0 31.541855666223974 38.26854046955627 46.388934751972066 0 0 0
3234 186 3 0 30.869140602989443 37.750607989271565 47.061649815206614 0 0 0
3335 1 1 0 31.614498009680457 33.18289719941717 48.594316827031015 0 0 0
3338 1 1 0 33.18289719941717 31.614498009680464 48.59431682703101 0 0 0
3353 162 2 0 32.398697604548815 32.398697604548815 49.21634711242934 0 0 0
3354 162 2 0 32.39869760454882 32.39869760454882 50.69080644858698 0 0 0
3355 162 2 0 31.541855666223952 33.2555395428737 51.4019356786547 0 0 0
3356 162 3 0 30.86914060298941 33.92825460610825 50.88400319837 0 0 0
3363 162 2 0 33.2555395428737 31.54185566622395 51.401935678654695 0 0 0
3364 162 3 0 33.92825460610824 30.869140602989415 50.88400319836999 0 0 0
3265 1 1 0 42.46986880026336 33.18289719941717 44.74789321877881 0 0 0
3266 190 2 0 41.84783851486504 32.39869760454883 45.53209281364718 0 0 0
3267 190 2 0 40.3733791787074 32.398697604548836 45.532092813647175 0 0 0
3268 190 2 0 39.66224994863969 33.25553954287369 44.675250875322284 0 0 0
3269 190 3 0 40.18018242892439 33.92825460610822 44.00253581208773 0 0 0
3295 1 1 0 35.46092161793261 31.61449800968048 46.316292408515544 0 0 0
3296 190 2 0 36.08295190333094 32.39869760454882 45.532092813647175 0 0 0
3297 190 2 0 37.557411239488566 32.39869760454883 45.532092813647175 0 0 0
3298 190 2 0 38.26854046955628 31.54185566622397 46.388934751972066 0 0 0
3299 190 3 0 37.75060798927157 30.869140602989447 47.06164981520662 0 0 0
3308 1 1 0 35.46092161793261 33.18289719941716 44.74789321877881 0 0 0
3309 190 2 0 38.26854046955627 33.255539542873684 44.675250875322284 0 0 0
3310 190 3 0 37.750607989271565 33.928254606108204 44.00253581208773 0 0 0
3326 1 1 0 42.46986880026336 31.614498009680485 46.316292408515544 0 0 0
3327 190 2 0 39.66224994863969 31.54185566622397 46.38893475197206 0 0 0
3328 190 3 0 40.18018242892439 30.869140602989436 47.06164981520661 0 0 0
2994 1 1 0 46.31629240851552 29.336473591165024 44.74789321877881 0 0 0
2995 146 2 0 45.53209281364716 28.7144433057667 45.532092813647154 0 0 0
2996 146 2 0 45.53209281364714 27.239983969609064 45.53209281364714 0 0 0
2997 146 2 0 46.38893475197201 26.528854739541355 44.675250875322256 0 0 0
2998 146 3 0 47.06164981520654 27.046787219826058 44.00253581208771 0 0 0
3002 1 1 0 44.74789321877881 29.336473591165028 46.316292408515515 0 0 0
3003 146 2 0 44.675250875322256 26.528854739541355 46.38893475197201 0 0 0
3004 146 3 0 44.002535812087714 27.046787219826058 47.06164981520655 0 0 0
3006 1 4 0 44.408861424489594 31.27546621539125 46.65532420280477 0 0 0
3007 1 4 0 46.65532420280478 31.27546621539125 44.408861424489594 0 0 0
3021 1 5 0 45.53209281364718 32.39869760454882 45.53209281364718 0 0 0
3025 1 4 0 46.65532420280476 33.521928993706396 46.65532420280477 0 0 0
3135 1 4 0 44.408861424489594 33.52192899370638 44.408861424489594 0 0 0
3136 1 1 0 44.74789321877881 33.182897199417155 42.46986880026337 0 0 0
3137 183 2 0 45.53209281364718 32.39869760454882 41.84783851486504 0 0 0
3138 183 2 0 45.532092813647175 32.39869760454882 40.3733791787074 0 0 0
3139 183 2 0 44.67525087532228 33.25553954287368 39.66224994863969 0 0 0
3140 183 3 0 44.00253581208772 33.92825460610821 40.18018242892439 0 0 0
3168 1 1 0 46.31629240851551 35.46092161793261 46.31629240851552 0 0 0
3169 189 2 0 45.53209281364716 36.08295190333094 45.53209281364716 0 0 0
3170 189 2 0 45.532092813647154 37.55741123948857 45.53209281364716 0 0 0
3171 189 2 0 46.38893475197203 38.26854046955628 46.38893475197203 0 0 0
3172 189 3 0 47.06164981520657 37.75060798927158 47.06164981520657 0 0 0
3241 1 1 0 46.31629240851556 31.61449800968049 42.46986880026336 0 0 0
3242 183 2 0 46.388934751972066 31.541855666223967 39.66224994863969 0 0 0
3243 183 3 0 47.06164981520662 30.869140602989443 40.18018242892439 0 0 0
3253 1 1 0 44.74789321877881 35.460921617932605 44.747893218778806 0 0 0
3254 189 2 0 44.67525087532228 38.268540469556285 44.675250875322284 0 0 0
3255 189 3 0 44.002535812087736 37.750607989271586 44.00253581208775 0 0 0
3329 1 1 0 44.74789321877882 31.61449800968047 48.594316827031015 0 0 0
3332 1 1 0 48.59431682703101 33.182897199417184 46.31629240851553 0 0 0
3339 1 1 0 46.31629240851554 33.18289719941717 48.59431682703101 0 0 0
3344 1 1 0 48.594316827031015 31.614498009680474 44.74789321877882 0 0 0
3345 165 2 0 45.532092813647175 32.39869760454883 49.21634711242934 0 0 0
3346 165 2 0 45.53209281364716 32.398697604548836 50.69080644858698 0 0 0
3347 165 2 0 44.67525087532227 31.54185566622398 51.401935678654695 0 0 0
3348 165 3 0 44.002535812087714 30.869140602989457 50.884003198369996 0 0 0
3365 165 2 0 46.388934751972045 33.255539542873706 51.4019356786547 0 0 0
3366 165 3 0 47.06164981520659 33.92825460610824 50.884003198369996 0 0 0
3385 96 2 0 49.21634711242934 32.398697604548836 45.53209281364717 0 0 0
3386 96 2 0 50.69080644858699 32.39869760454885 45.53209281364716 0 0 0
3387 96 2 0 51.4019356786547 33.25553954287372 46.388934751972045 0 0 0
3388 96 3 0 50.884003198369996 33.92825460610825 47.06164981520659 0 0 0
3391 96 2 0 51.4019356786547 31.54185566622399 44.67525087532227 0 0 0
3392 96 3 0 50.884003198369996 30.869140602989464 44.002535812087714 0 0 0
2607 1 4 0 31.275466215391248 44.40886142448959 5.008675797194492 0 0 0
2608 1 5 0 32.398697604548815 45.53209281364718 6.131907186352079 0 0 0
2609 1 1 0 31.61449800968048 44.7478932187788 3.0696831729682525 0 0 0
2610 164 2 0 32.39869760454883 45.53209281364716 2.447652887569926 0 0 0
2611 164 2 0 32.39869760454884 45.53209281364715 0.9731935514122837 0 0 0
2612 164 2 0 31.54185566622399 44.675250875322256 0.26206432134456836 0 0 0
2613 164 3 0 30.869140602989464 44.00253581208771 0.7799968016292774 0 0 0
2639 1 4 0 33.52192899370639 46.65532420280477 5.008675797194495 0 0 0
2640 1 1 0 33.18289719941718 48.59431682703101 5.3477075914837355 0 0 0
2641 114 2 0 32.39869760454883 49.21634711242933 6.131907186352098 0 0 0
2642 114 2 0 32.39869760454884 50.690806448586976 6.131907186352116 0 0 0
2643 114 2 0 33.25553954287372 51.401935678654695 5.2750652480272455 0 0 0
2644 114 3 0 33.92825460610826 50.88400319836999 4.602350184792706 0 0 0
2651 1 4 0 31.275466215391244 46.65532420280476 7.25513857550967 0 0 0
2652 1 1 0 29.33647359116502 46.316292408515515 6.916106781220447 0 0 0
2653 92 2 0 28.714443305766697 45.53209281364715 6.1319071863521035 0 0 0
2654 92 2 0 27.23998396960906 45.53209281364713 6.131907186352119 0 0 0
2655 92 2 0 26.52885473954135 46.38893475197202 6.988749124676979 0 0 0
2656 92 3 0 27.046787219826054 47.06164981520658 7.661464187911505 0 0 0
2669 1 1 0 33.18289719941717 46.31629240851553 3.0696831729682534 0 0 0
2670 164 2 0 33.255539542873706 46.38893475197204 0.26206432134457464 0 0 0
2671 164 3 0 33.92825460610824 47.06164981520658 0.7799968016292858 0 0 0
2684 1 1 0 29.33647359116502 44.7478932187788 5.34770759148374 0 0 0
2685 92 2 0 26.52885473954135 44.67525087532224 5.275065248027261 0 0 0
2686 92 3 0 27.046787219826054 44.00253581208768 4.60235018479274 0 0 0
2690 1 1 0 31.614498009680474 48.59431682703101 6.916106781220452 0 0 0
2691 114 2 0 31.541855666223974 51.40193567865469 6.988749124676997 0 0 0
2692 114 3 0 30.869140602989436 50.88400319836999 7.66146418791154 0 0 0
2749 1 1 0 31.61449800968047 46.31629240851554 9.194131199735903 0 0 0
2750 166 2 0 32.39869760454882 45.53209281364718 9.816161485134227 0 0 0
2751 166 2 0 32.39869760454883 45.532092813647175 11.290620821291865 0 0 0
2752 166 2 0 31.541855666223967 46.38893475197206 12.001750051359577 0 0 0
2753 166 3 0 30.86914060298944 47.061649815206614 11.483817571074876 0 0 0
2769 1 4 0 33.52192899370638 44.408861424489594 7.255138575509671 0 0 0
2770 1 1 0 33.18289719941718 42.469868800263356 6.916106781220456 0 0 0
2771 172 2 0 32.398697604548836 41.84783851486503 6.13190718635209 0 0 0
2772 172 2 0 32.398697604548836 40.373379178707395 6.131907186352091 0 0 0
2773 172 2 0 33.25553954287371 39.66224994863968 6.988749124676966 0 0 0
2774 172 3 0 33.928254606108254 40.18018242892438 7.661464187911511 0 0 0
2796 1 1 0 33.18289719941717 44.74789321877882 9.1941311997359 0 0 0
2797 166 2 0 33.25553954287369 44.67525087532229 12.001750051359574 0 0 0
2798 166 3 0 33.92825460610822 44.002535812087736 11.48381757107487 0 0 0
2814 1 1 0 31.61449800968049 42.469868800263356 5.3477075914837275 0 0 0
2815 172 2 0 31.541855666223963 39.66224994863968 5.2750652480272135 0 0 0
2816 172 3 0 30.86914060298942 40.18018242892439 4.602350184792675 0 0 0
2846 1 1 0 42.46986880026336 44.74789321877881 6.916106781220442 0 0 0
2847 175 2 0 41.84783851486504 45.53209281364717 6.131907186352088 0 0 0
2848 175 2 0 40.3733791787074 45.53209281364716 6.131907186352087 0 0 0
2849 175 2 0 39.66224994863969 44.67525087532227 6.988749124676945 0 0 0
2850 175 3 0 40.1801824289244 44.00253581208771 7.661464187911463 0 0 0
2876 1 1 0 35.46092161793261 46.31629240851553 5.347707591483737 0 0 0
2877 175 2 0 36.08295190333093 45.53209281364717 6.131907186352089 0 0 0
2878 175 2 0 37.557411239488566 45.53209281364717 6.131907186352092 0 0 0
2879 175 2 0 38.26854046955628 46.38893475197206 5.275065248027233 0 0 0
2880 175 3 0 37.75060798927157 47.061649815206614 4.6023501847927095 0 0 0
2881 1 1 0 35.460921617932605 44.74789321877881 6.916106781220441 0 0 0
2882 175 2 0 38.26854046955628 44.67525087532227 6.988749124676945 0 0 0
2883 175 3 0 37.75060798927157 44.00253581208771 7.661464187911462 0 0 0
2899 1 1 0 42.46986880026336 46.31629240851553 5.347707591483739 0 0 0
2900 175 2 0 39.66224994863969 46.38893475197205 5.275065248027229 0 0 0
2901 175 3 0 40.1801824289244 47.06164981520661 4.602350184792704 0 0 0
2590 1 4 0 44.4088614244896 46.65532420280477 5.008675797194497 0 0 0
2591 1 5 0 45.53209281364719 45.53209281364718 6.131907186352079 0 0 0
2592 1 1 0 44.74789321877882 46.31629240851553 3.069683172968254 0 0 0
2593 163 2 0 45.53209281364717 45.53209281364717 2.447652887569926 0 0 0
2594 163 2 0 45.532092813647154 45.532092813647154 0.9731935514122827 0 0 0
2595 163 2 0 44.67525087532228 46.388934751972016 0.26206432134456864 0 0 0
2596 163 3 0 44.00253581208773 47.06164981520655 0.7799968016292763 0 0 0
2600 1 4 0 46.65532420280476 44.408861424489594 5.008675797194494 0 0 0
2602 1 4 0 46.65532420280476 46.65532420280476 7.25513857550967 0 0 0
2699 1 1 0 46.31629240851553 44.74789321877882 3.069683172968253 0 0 0
2700 163 2 0 46.388934751972016 44.67525087532227 0.2620643213445691 0 0 0
2701 163 3 0 47.06164981520655 44.00253581208772 0.7799968016292763 0 0 0
2717 1 4 0 44.4088614244896 44.4088614244896 7.255138575509667 0 0 0
2718 1 1 0 44.74789321877882 44.74789321877882 9.194131199735898 0 0 0
2719 168 2 0 45.53209281364717 45.532092813647175 9.816161485134227 0 0 0
2720 168 2 0 45.53209281364717 45.53209281364717 11.290620821291865 0 0 0
2721 168 2 0 44.67525087532229 44.67525087532229 12.001750051359576 0 0 0
2722 168 3 0 44.00253581208775 44.00253581208775 11.483817571074873 0 0 0
2734 1 1 0 46.316292408515515 42.46986880026336 5.347707591483727 0 0 0
2735 171 2 0 45.53209281364716 41.84783851486504 6.131907186352086 0 0 0
2736 171 2 0 45.532092813647154 40.3733791787074 6.131907186352087 0 0 0
2737 171 2 0 46.38893475197204 39.66224994863969 5.275065248027223 0 0 0
2738 171 3 0 47.06164981520659 40.18018242892439 4.602350184792696 0 0 0
2823 1 1 0 46.31629240851552 46.31629240851553 9.194131199735903 0 0 0
2824 168 2 0 46.388934751972045 46.388934751972045 12.001750051359577 0 0 0
2825 168 3 0 47.061649815206586 47.061649815206586 11.483817571074876 0 0 0
2838 1 1 0 44.74789321877882 42.46986880026337 6.91610678122045 0 0 0
2839 171 2 0 44.67525087532226 39.66224994863969 6.988749124676946 0 0 0
2840 171 3 0 44.00253581208771 40.1801824289244 7.661464187911471 0 0 0
2907 1 1 0 48.59431682703101 44.74789321877881 5.34770759148374 0 0 0
2910 1 1 0 46.31629240851553 48.59431682703101 6.9161067812204475 0 0 0
2917 1 1 0 44.74789321877882 48.594316827031015 5.347707591483737 0 0 0
2919 1 1 0 48.59431682703101 46.31629240851552 6.916106781220452 0 0 0
2949 121 2 0 45.53209281364717 49.21634711242934 6.131907186352102 0 0 0
2950 121 2 0 45.532092813647154 50.69080644858698 6.131907186352116 0 0 0
2951 121 2 0 46.38893475197204 51.4019356786547 6.988749124676978 0 0 0
2952 121 3 0 47.06164981520659 50.88400319837 7.661464187911506 0 0 0
2953 121 2 0 44.675250875322256 51.401935678654695 5.275065248027264 0 0 0
2954 121 3 0 44.0025358120877 50.884003198369996 4.602350184792737 0 0 0
2957 73 2 0 49.21634711242934 45.53209281364716 6.1319071863521035 0 0 0
2958 73 2 0 50.69080644858698 45.53209281364715 6.131907186352119 0 0 0
2959 73 2 0 51.401935678654695 44.675250875322256 5.275065248027264 0 0 0
2960 73 3 0 50.884003198369996 44.00253581208769 4.602350184792743 0 0 0
2965 73 2 0 51.401935678654695 46.38893475197204 6.988749124676977 0 0 0
2966 73 3 0 50.88400319836999 47.061649815206586 7.661464187911506 0 0 0
2550 1 1 0 29.336473591165017 44.74789321877884 20.049501990318813 0 0 0
2551 75 2 0 28.714443305766697 45.532092813647196 19.26530239545046 0 0 0
2552 75 2 0 27.23998396960906 45.53209281364718 19.265302395450448 0 0 0
2553 75 2 0 26.52885473954135 44.675250875322284 20.122144333775296 0 0 0
2554 75 3 0 27.046787219826054 44.00253581208772 20.794859397009816 0 0 0
2555 1 1 0 29.33647359116502 46.31629240851555 18.481102800582104 0 0 0
2556 75 2 0 26.528854739541348 46.388934751972066 18.408460457125585 0 0 0
2557 75 3 0 27.046787219826047 47.061649815206614 17.73574539389105 0 0 0
2562 1 4 0 31.275466215391237 44.4088614244896 20.388533784608043 0 0 0
2564 1 4 0 31.275466215391248 46.65532420280478 18.142071006292884 0 0 0
2598 1 4 0 33.521928993706396 46.65532420280477 20.388533784608047 0 0 0
2599 1 5 0 32.398697604548815 45.53209281364719 19.265302395450465 0 0 0
2705 1 4 0 33.52192899370639 44.40886142448959 18.14207100629289 0 0 0
2706 1 1 0 33.18289719941718 44.747893218778806 16.203078382066664 0 0 0
2707 166 2 0 32.39869760454883 45.53209281364717 15.581048096668338 0 0 0
2708 166 2 0 32.398697604548836 45.532092813647175 14.106588760510702 0 0 0
2709 166 2 0 33.25553954287369 44.675250875322284 13.39545953044299 0 0 0
2710 166 3 0 33.92825460610822 44.00253581208773 13.913392010727692 0 0 0
2729 1 1 0 31.614498009680446 42.46986880026337 20.04950199031881 0 0 0
2730 170 2 0 32.3986976045488 41.84783851486504 19.26530239545046 0 0 0
2731 170 2 0 32.39869760454879 40.3733791787074 19.265302395450462 0 0 0
2732 170 2 0 31.54185566622392 39.66224994863969 20.122144333775335 0 0 0
2733 170 3 0 30.869140602989383 40.1801824289244 20.794859397009876 0 0 0
2820 1 1 0 31.614498009680485 46.31629240851554 16.20307838206666 0 0 0
2821 166 2 0 31.54185566622397 46.38893475197206 13.395459530442993 0 0 0
2822 166 3 0 30.869140602989443 47.061649815206614 13.913392010727698 0 0 0
2835 1 1 0 33.18289719941716 42.469868800263356 18.481102800582107 0 0 0
2836 170 2 0 33.255539542873656 39.66224994863969 18.408460457125575 0 0 0
2837 170 3 0 33.92825460610818 40.1801824289244 17.73574539389102 0 0 0
2906 1 1 0 33.18289719941718 46.31629240851552 22.32752640883427 0 0 0
2909 1 1 0 31.614498009680485 48.594316827031015 18.48110280058211 0 0 0
2916 1 1 0 31.614498009680478 44.747893218778806 22.327526408834267 0 0 0
2918 1 1 0 33.18289719941719 48.594316827031015 20.049501990318824 0 0 0
2925 179 2 0 32.39869760454883 45.53209281364716 22.94955669423259 0 0 0
2926 179 2 0 32.39869760454884 45.53209281364715 24.424016030390227 0 0 0
2927 179 2 0 33.255539542873706 46.38893475197204 25.135145260457936 0 0 0
2928 179 3 0 33.92825460610824 47.061649815206586 24.617212780173237 0 0 0
2943 179 2 0 31.54185566622399 44.67525087532225 25.135145260457936 0 0 0
2944 179 3 0 30.869140602989464 44.00253581208769 24.617212780173233 0 0 0
2945 120 2 0 32.39869760454884 49.21634711242934 19.265302395450462 0 0 0
2946 120 2 0 32.39869760454885 50.69080644858698 19.265302395450455 0 0 0
2947 120 2 0 31.541855666223963 51.401935678654695 18.408460457125592 0 0 0
2948 120 3 0 30.869140602989408 50.88400319836999 17.735745393891065 0 0 0
2955 120 2 0 33.25553954287374 51.4019356786547 20.122144333775307 0 0 0
2956 120 3 0 33.9282546061083 50.884003198369996 20.794859397009834 0 0 0
2851 1 1 0 35.46092161793261 44.7478932187788 18.481102800582125 0 0 0
2852 176 2 0 36.08295190333094 45.53209281364716 19.265302395450473 0 0 0
2853 176 2 0 37.55741123948857 45.532092813647154 19.26530239545048 0 0 0
2854 176 2 0 38.268540469556285 44.67525087532225 18.40846045712564 0 0 0
2855 176 3 0 37.750607989271586 44.00253581208768 17.735745393891126 0 0 0
2866 1 1 0 42.46986880026337 46.31629240851555 20.04950199031882 0 0 0
2867 176 2 0 41.847838514865046 45.53209281364718 19.265302395450476 0 0 0
2868 176 2 0 40.37337917870741 45.53209281364717 19.265302395450483 0 0 0
2869 176 2 0 39.6622499486397 46.388934751972066 20.122144333775328 0 0 0
2870 176 3 0 40.1801824289244 47.061649815206636 20.79485939700984 0 0 0
2890 1 1 0 42.46986880026337 44.74789321877882 18.481102800582132 0 0 0
2891 176 2 0 39.6622499486397 44.675250875322256 18.408460457125642 0 0 0
2892 176 3 0 40.180182428924404 44.00253581208768 17.73574539389114 0 0 0
2893 1 1 0 35.46092161793261 46.31629240851553 20.049501990318813 0 0 0
2894 176 2 0 38.26854046955628 46.38893475197206 20.122144333775324 0 0 0
2895 176 3 0 37.75060798927157 47.06164981520662 20.79485939700984 0 0 0
2605 1 4 0 46.65532420280478 44.40886142448961 20.38853378460804 0 0 0
2606 1 5 0 45.53209281364719 45.532092813647196 19.26530239545047 0 0 0
2633 1 4 0 44.40886142448961 46.655324202804785 20.388533784608047 0 0 0
2634 1 1 0 44.747893218778835 48.59431682703102 20.04950199031881 0 0 0
2635 115 2 0 45.53209281364719 49.21634711242935 19.26530239545045 0 0 0
2636 115 2 0 45.53209281364718 50.69080644858699 19.265302395450444 0 0 0
2637 115 2 0 44.675250875322284 51.4019356786547 20.122144333775296 0 0 0
2638 115 3 0 44.00253581208773 50.884003198369996 20.79485939700982 0 0 0
2663 1 4 0 46.65532420280477 46.65532420280477 18.142071006292884 0 0 0
2664 1 1 0 48.594316827031015 46.316292408515544 18.4811028005821 0 0 0
2665 67 2 0 49.21634711242935 45.53209281364718 19.265302395450448 0 0 0
2666 67 2 0 50.69080644858699 45.532092813647175 19.265302395450437 0 0 0
2667 67 2 0 51.4019356786547 46.38893475197206 18.408460457125575 0 0 0
2668 67 3 0 50.884003198369996 47.061649815206614 17.73574539389105 0 0 0
2675 1 1 0 48.594316827031015 44.74789321877883 20.049501990318806 0 0 0
2676 67 2 0 51.4019356786547 44.67525087532228 20.12214433377529 0 0 0
2677 67 3 0 50.884003198369996 44.002535812087714 20.794859397009805 0 0 0
2687 1 1 0 46.31629240851555 48.594316827031015 18.481102800582104 0 0 0
2688 115 2 0 46.38893475197207 51.4019356786547 18.408460457125585 0 0 0
2689 115 3 0 47.06164981520662 50.884003198369996 17.735745393891058 0 0 0
2764 1 1 0 46.31629240851553 46.31629240851553 16.20307838206666 0 0 0
2765 168 2 0 45.532092813647175 45.53209281364717 15.58104809666834 0 0 0
2766 168 2 0 45.53209281364717 45.53209281364717 14.106588760510702 0 0 0
2767 168 2 0 46.388934751972045 46.38893475197204 13.395459530442992 0 0 0
2768 168 3 0 47.061649815206586 47.06164981520658 13.913392010727694 0 0 0
2775 1 4 0 44.4088614244896 44.4088614244896 18.1420710062929 0 0 0
2776 1 1 0 44.747893218778806 42.46986880026337 18.481102800582132 0 0 0
2777 173 2 0 45.53209281364717 41.847838514865046 19.265302395450476 0 0 0
2778 173 2 0 45.532092813647154 40.37337917870741 19.265302395450483 0 0 0
2779 173 2 0 44.67525087532224 39.6622499486397 18.408460457125642 0 0 0
2780 173 3 0 44.00253581208767 40.180182428924404 17.735745393891136 0 0 0
2802 1 1 0 44.74789321877882 44.74789321877881 16.203078382066668 0 0 0
2803 168 2 0 44.67525087532229 44.6752508753223 13.395459530442993 0 0 0
2804 168 3 0 44.00253581208775 44.00253581208776 13.913392010727698 0 0 0
2811 1 1 0 46.316292408515544 42.46986880026337 20.049501990318813 0 0 0
2812 173 2 0 46.38893475197206 39.6622499486397 20.122144333775324 0 0 0
2813 173 3 0 47.06164981520663 40.1801824289244 20.79485939700984 0 0 0
2912 1 1 0 46.31629240851554 44.74789321877883 22.32752640883427 0 0 0
2913 1 1 0 44.74789321877883 46.31629240851554 22.327526408834274 0 0 0
2933 181 2 0 45.532092813647175 45.532092813647175 22.949556694232598 0 0 0
2934 181 2 0 45.532092813647154 45.532092813647154 24.424016030390234 0 0 0
2935 181 2 0 46.388934751972016 44.67525087532226 25.135145260457943 0 0 0
2936 181 3 0 47.06164981520655 44.00253581208772 24.617212780173237 0 0 0
2937 181 2 0 44.67525087532226 46.38893475197201 25.135145260457943 0 0 0
2938 181 3 0 44.00253581208772 47.06164981520655 24.61721278017324 0 0 0
3031 1 4 0 31.275466215391237 44.40886142448959 31.27546621539124 0 0 0
3032 1 5 0 32.398697604548815 45.53209281364718 32.398697604548815 0 0 0
3033 1 1 0 31.614498009680467 44.747893218778806 29.336473591165017 0 0 0
3034 179 2 0 32.39869760454882 45.53209281364716 28.714443305766697 0 0 0
3035 179 2 0 32.39869760454884 45.53209281364715 27.23998396960906 0 0 0
3036 179 2 0 31.541855666223988 44.67525087532225 26.528854739541348 0 0 0
3037 179 3 0 30.86914060298946 44.00253581208769 27.04678721982605 0 0 0
3063 1 4 0 33.52192899370639 46.65532420280477 31.27546621539124 0 0 0
3064 1 1 0 33.18289719941716 48.594316827031015 31.61449800968046 0 0 0
3065 142 2 0 32.398697604548815 49.21634711242935 32.39869760454882 0 0 0
3066 142 2 0 32.39869760454882 50.69080644858699 32.39869760454882 0 0 0
3067 142 2 0 33.2555395428737 51.4019356786547 31.541855666223952 0 0 0
3068 142 3 0 33.92825460610825 50.884003198369996 30.869140602989418 0 0 0
3075 1 4 0 31.27546621539124 46.65532420280478 33.52192899370639 0 0 0
3076 1 1 0 29.336473591165017 46.31629240851553 33.18289719941718 0 0 0
3077 112 2 0 28.714443305766693 45.53209281364716 32.398697604548836 0 0 0
3078 112 2 0 27.239983969609057 45.53209281364715 32.39869760454885 0 0 0
3079 112 2 0 26.528854739541348 46.38893475197202 33.25553954287372 0 0 0
3080 112 3 0 27.04678721982605 47.06164981520657 33.928254606108254 0 0 0
3093 1 1 0 33.18289719941717 46.31629240851552 29.336473591165024 0 0 0
3094 179 2 0 33.25553954287371 46.38893475197203 26.52885473954135 0 0 0
3095 179 3 0 33.92825460610824 47.06164981520658 27.046787219826058 0 0 0
3108 1 1 0 29.336473591165014 44.747893218778806 31.614498009680478 0 0 0
3109 112 2 0 26.52885473954135 44.675250875322256 31.54185566622399 0 0 0
3110 112 3 0 27.04678721982605 44.0025358120877 30.86914060298946 0 0 0
3114 1 1 0 31.61449800968046 48.59431682703102 33.18289719941718 0 0 0
3115 142 2 0 31.54185566622395 51.4019356786547 33.2555395428737 0 0 0
3116 142 3 0 30.869140602989408 50.884003198369996 33.92825460610824 0 0 0
3173 1 1 0 31.614498009680478 46.31629240851554 35.46092161793261 0 0 0
3174 182 2 0 32.39869760454883 45.53209281364717 36.08295190333093 0 0 0
3175 182 2 0 32.39869760454883 45.53209281364717 37.557411239488566 0 0 0
3176 182 2 0 31.541855666223967 46.38893475197206 38.26854046955627 0 0 0
3177 182 3 0 30.869140602989443 47.061649815206614 37.75060798927157 0 0 0
3193 1 4 0 33.52192899370638 44.40886142448959 33.52192899370638 0 0 0
3194 1 1 0 33.18289719941717 42.46986880026336 33.18289719941717 0 0 0
3195 188 2 0 32.398697604548815 41.84783851486503 32.39869760454882 0 0 0
3196 188 2 0 32.398697604548815 40.373379178707395 32.398697604548815 0 0 0
3197 188 2 0 33.25553954287369 39.66224994863969 33.25553954287369 0 0 0
3198 188 3 0 33.92825460610824 40.18018242892439 33.92825460610823 0 0 0
3220 1 1 0 33.18289719941717 44.747893218778806 35.460921617932605 0 0 0
3221 182 2 0 33.255539542873684 44.67525087532228 38.26854046955628 0 0 0
3222 182 3 0 33.928254606108204 44.00253581208772 37.75060798927157 0 0 0
3238 1 1 0 31.61449800968046 42.469868800263356 31.614498009680464 0 0 0
3239 188 2 0 31.541855666223938 39.66224994863968 31.54185566622394 0 0 0
3240 188 3 0 30.8691406029894 40.18018242892439 30.869140602989404 0 0 0
3270 1 1 0 42.46986880026336 44.74789321877881 33.18289719941716 0 0 0
3271 191 2 0 41.84783851486504 45.53209281364718 32.39869760454883 0 0 0
3272 191 2 0 40.3733791787074 45.532092813647175 32.39869760454883 0 0 0
3273 191 2 0 39.66224994863969 44.67525087532228 33.25553954287368 0 0 0
3274 191 3 0 40.1801824289244 44.00253581208772 33.9282546061082 0 0 0
3300 1 1 0 35.46092161793261 46.31629240851554 31.614498009680467 0 0 0
3301 191 2 0 36.08295190333093 45.53209281364717 32.398697604548815 0 0 0
3302 191 2 0 37.557411239488566 45.53209281364717 32.398697604548815 0 0 0
3303 191 2 0 38.26854046955628 46.38893475197206 31.541855666223963 0 0 0
3304 191 3 0 37.750607989271565 47.06164981520661 30.869140602989432 0 0 0
3305 1 1 0 35.4609216179326 44.747893218778806 33.18289719941716 0 0 0
3306 191 2 0 38.26854046955627 44.67525087532227 33.25553954287368 0 0 0
3307 191 3 0 37.750607989271565 44.002535812087714 33.9282546061082 0 0 0
3323 1 1 0 42.46986880026336 46.31629240851556 31.61449800968049 0 0 0
3324 191 2 0 39.66224994863969 46.38893475197206 31.541855666223963 0 0 0
3325 191 3 0 40.18018242892439 47.06164981520662 30.869140602989443 0 0 0
3014 1 4 0 44.4088614244896 46.65532420280478 31.27546621539125 0 0 0
3015 1 5 0 45.53209281364719 45.53209281364719 32.398697604548815 0 0 0
3016 1 1 0 44.74789321877881 46.316292408515515 29.33647359116503 0 0 0
3017 181 2 0 45.53209281364716 45.532092813647154 28.714443305766704 0 0 0
3018 181 2 0 45.53209281364714 45.53209281364714 27.239983969609067 0 0 0
3019 181 2 0 44.675250875322256 46.388934751972 26.52885473954136 0 0 0
3020 181 3 0 44.00253581208771 47.061649815206536 27.04678721982606 0 0 0
3024 1 4 0 46.65532420280478 44.4088614244896 31.27546621539125 0 0 0
3026 1 4 0 46.65532420280477 46.65532420280477 33.521928993706396 0 0 0
3123 1 1 0 46.31629240851553 44.74789321877881 29.336473591165024 0 0 0
3124 181 2 0 46.38893475197201 44.675250875322256 26.52885473954136 0 0 0
3125 181 3 0 47.06164981520654 44.00253581208771 27.04678721982606 0 0 0
3141 1 4 0 44.408861424489594 44.4088614244896 33.521928993706375 0 0 0
3142 1 1 0 44.74789321877881 44.74789321877881 35.460921617932605 0 0 0
3143 184 2 0 45.53209281364717 45.53209281364716 36.08295190333094 0 0 0
3144 184 2 0 45.53209281364716 45.532092813647154 37.55741123948857 0 0 0
3145 184 2 0 44.675250875322284 44.675250875322284 38.26854046955628 0 0 0
3146 184 3 0 44.00253581208774 44.00253581208775 37.75060798927157 0 0 0
3158 1 1 0 46.31629240851555 42.46986880026337 31.61449800968048 0 0 0
3159 187 2 0 45.53209281364718 41.847838514865046 32.39869760454882 0 0 0
3160 187 2 0 45.532092813647175 40.3733791787074 32.39869760454882 0 0 0
3161 187 2 0 46.388934751972066 39.66224994863969 31.541855666223963 0 0 0
3162 187 3 0 47.06164981520663 40.1801824289244 30.869140602989443 0 0 0
3247 1 1 0 46.31629240851553 46.316292408515515 35.46092161793261 0 0 0
3248 184 2 0 46.38893475197204 46.38893475197203 38.26854046955628 0 0 0
3249 184 3 0 47.06164981520658 47.061649815206565 37.75060798927157 0 0 0
3262 1 1 0 44.74789321877881 42.46986880026338 33.182897199417155 0 0 0
3263 187 2 0 44.675250875322284 39.6622499486397 33.25553954287368 0 0 0
3264 187 3 0 44.00253581208772 40.1801824289244 33.928254606108204 0 0 0
3331 1 1 0 48.59431682703101 44.74789321877883 31.614498009680485 0 0 0
3334 1 1 0 46.31629240851553 48.594316827031015 33.18289719941719 0 0 0
3341 1 1 0 44.74789321877883 48.594316827031015 31.614498009680474 0 0 0
3343 1 1 0 48.594316827031015 46.316292408515544 33.18289719941719 0 0 0
3373 145 2 0 45.532092813647175 49.21634711242935 32.398697604548836 0 0 0
3374 145 2 0 45.53209281364716 50.69080644858699 32.39869760454885 0 0 0
3375 145 2 0 46.388934751972045 51.4019356786547 33.25553954287371 0 0 0
3376 145 3 0 47.06164981520659 50.884003198369996 33.92825460610824 0 0 0
3377 145 2 0 44.67525087532227 51.4019356786547 31.541855666223995 0 0 0
3378 145 3 0 44.00253581208772 50.884003198369996 30.86914060298946 0 0 0
3381 97 2 0 49.21634711242934 45.53209281364718 32.39869760454884 0 0 0
3382 97 2 0 50.69080644858698 45.53209281364716 32.39869760454885 0 0 0
3383 97 2 0 51.401935678654695 44.67525087532227 31.54185566622399 0 0 0
3384 97 3 0 50.88400319836999 44.002535812087714 30.869140602989464 0 0 0
3389 97 2 0 51.4019356786547 46.388934751972045 33.25553954287371 0 0 0
3390 97 3 0 50.88400319837 47.06164981520659 33.92825460610825 0 0 0
2974 1 1 0 29.336473591165024 44.747893218778806 46.316292408515515 0 0 0
2975 99 2 0 28.714443305766704 45.53209281364716 45.532092813647154 0 0 0
2976 99 2 0 27.239983969609067 45.53209281364715 45.53209281364714 0 0 0
2977 99 2 0 26.528854739541355 44.67525087532227 46.38893475197201 0 0 0
2978 99 3 0 27.046787219826054 44.00253581208772 47.06164981520655 0 0 0
2979 1 1 0 29.336473591165028 46.31629240851553 44.74789321877881 0 0 0
2980 99 2 0 26.528854739541355 46.38893475197201 44.675250875322256 0 0 0
2981 99 3 0 27.046787219826054 47.06164981520654 44.00253581208771 0 0 0
2986 1 4 0 31.27546621539125 44.408861424489594 46.65532420280477 0 0 0
2988 1 4 0 31.275466215391255 46.65532420280478 44.408861424489594 0 0 0
3022 1 4 0 33.521928993706396 46.65532420280476 46.65532420280477 0 0 0
3023 1 5 0 32.39869760454882 45.53209281364718 45.53209281364718 0 0 0
3129 1 4 0 33.52192899370638 44.40886142448959 44.40886142448959 0 0 0
3130 1 1 0 33.18289719941716 44.747893218778806 42.46986880026336 0 0 0
3131 182 2 0 32.39869760454883 45.532092813647175 41.84783851486504 0 0 0
3132 182 2 0 32.39869760454883 45.532092813647175 40.373379178707395 0 0 0
3133 182 2 0 33.255539542873684 44.67525087532228 39.66224994863969 0 0 0
3134 182 3 0 33.92825460610821 44.00253581208772 40.1801824289244 0 0 0
3153 1 1 0 31.61449800968049 42.46986880026336 46.316292408515544 0 0 0
3154 186 2 0 32.39869760454883 41.84783851486503 45.532092813647175 0 0 0
3155 186 2 0 32.398697604548836 40.373379178707395 45.532092813647175 0 0 0
3156 186 2 0 31.541855666223977 39.66224994863968 46.388934751972066 0 0 0
3157 186 3 0 30.869140602989447 40.18018242892439 47.061649815206614 0 0 0
3244 1 1 0 31.61449800968049 46.31629240851555 42.46986880026336 0 0 0
3245 182 2 0 31.541855666223963 46.38893475197206 39.66224994863968 0 0 0
3246 182 3 0 30.869140602989436 47.06164981520661 40.18018242892439 0 0 0
3259 1 1 0 33.18289719941717 42.469868800263356 44.747893218778806 0 0 0
3260 186 2 0 33.25553954287369 39.66224994863968 44.675250875322284 0 0 0
3261 186 3 0 33.92825460610822 40.18018242892438 44.00253581208772 0 0 0
3330 1 1 0 33.182897199417184 46.31629240851554 48.594316827031015 0 0 0
3333 1 1 0 31.61449800968048 48.594316827031015 44.74789321877882 0 0 0
3340 1 1 0 31.614498009680474 44.74789321877883 48.59431682703101 0 0 0
3342 1 1 0 33.182897199417184 48.594316827031015 46.31629240851554 0 0 0
3349 164 2 0 32.39869760454883 45.53209281364718 49.21634711242934 0 0 0
3350 164 2 0 32.398697604548836 45.53209281364716 50.69080644858698 0 0 0
3351 164 2 0 33.255539542873706 46.38893475197204 51.4019356786547 0 0 0
3352 164 3 0 33.92825460610823 47.061649815206586 50.884003198369996 0 0 0
3367 164 2 0 31.541855666223988 44.67525087532226 51.401935678654695 0 0 0
3368 164 3 0 30.86914060298946 44.00253581208771 50.88400319836999 0 0 0
3369 144 2 0 32.398697604548836 49.21634711242935 45.532092813647175 0 0 0
3370 144 2 0 32.39869760454885 50.69080644858699 45.53209281364716 0 0 0
3371 144 2 0 31.541855666223988 51.4019356786547 44.67525087532227 0 0 0
3372 144 3 0 30.869140602989464 50.884003198369996 44.002535812087714 0 0 0
3379 144 2 0 33.25553954287371 51.4019356786547 46.38893475197204 0 0 0
3380 144 3 0 33.928254606108254 50.88400319837 47.061649815206586 0 0 0
3275 1 1 0 35.4609216179326 44.747893218778806 44.74789321877881 0 0 0
3276 192 2 0 36.08295190333093 45.53209281364716 45.53209281364717 0 0 0
3277 192 2 0 37.557411239488566 45.532092813647154 45.53209281364716 0 0 0
3278 192 2 0 38.26854046955628 44.67525087532228 44.67525087532229 0 0 0
3279 192 3 0 37.75060798927157 44.002535812087736 44.00253581208775 0 0 0
3290 1 1 0 42.46986880026336 46.31629240851552 46.316292408515515 0 0 0
3291 192 2 0 41.84783851486504 45.53209281364717 45.53209281364716 0 0 0
3292 192 2 0 40.3733791787074 45.53209281364716 45.53209281364716 0 0 0
3293 192 2 0 39.66224994863969 46.38893475197203 46.38893475197203 0 0 0
3294 192 3 0 40.18018242892439 47.06164981520657 47.06164981520657 0 0 0
3314 1 1 0 42.46986880026336 44.74789321877881 44.747893218778806 0 0 0
3315 192 2 0 39.66224994863969 44.675250875322284 44.675250875322284 0 0 0
3316 192 3 0 40.18018242892439 44.00253581208774 44.00253581208774 0 0 0
3317 1 1 0 35.46092161793261 46.316292408515515 46.31629240851552 0 0 0
3318 192 2 0 38.26854046955628 46.38893475197203 46.38893475197203 0 0 0
3319 192 3 0 37.750607989271565 47.06164981520657 47.061649815206565 0 0 0
3029 1 4 0 46.65532420280476 44.408861424489594 46.65532420280476 0 0 0
3030 1 5 0 45.53209281364718 45.53209281364718 45.53209281364718 0 0 0
3057 1 4 0 44.408861424489594 46.65532420280476 46.65532420280476 0 0 0
3058 1 1 0 44.74789321877882 48.59431682703101 46.31629240851553 0 0 0
3059 143 2 0 45.53209281364717 49.21634711242934 45.53209281364717 0 0 0
3060 143 2 0 45.53209281364715 50.69080644858698 45.532092813647154 0 0 0
3061 143 2 0 44.67525087532227 51.4019356786547 46.38893475197202 0 0 0
3062 143 3 0 44.00253581208773 50.884003198369996 47.06164981520656 0 0 0
3087 1 4 0 46.65532420280476 46.65532420280477 44.408861424489594 0 0 0
3088 1 1 0 48.59431682703101 46.31629240851553 44.74789321877882 0 0 0
3089 95 2 0 49.21634711242934 45.53209281364717 45.53209281364717 0 0 0
3090 95 2 0 50.69080644858698 45.53209281364716 45.53209281364715 0 0 0
3091 95 2 0 51.401935678654695 46.38893475197202 44.67525087532226 0 0 0
3092 95 3 0 50.88400319836999 47.06164981520656 44.00253581208772 0 0 0
3099 1 1 0 48.59431682703101 44.74789321877881 46.31629240851552 0 0 0
3100 95 2 0 51.401935678654695 44.67525087532228 46.388934751972016 0 0 0
3101 95 3 0 50.884003198369996 44.00253581208773 47.06164981520655 0 0 0
3111 1 1 0 46.31629240851552 48.59431682703101 44.74789321877881 0 0 0
3112 143 2 0 46.388934751972016 51.401935678654695 44.67525087532227 0 0 0
3113 143 3 0 47.06164981520655 50.88400319836999 44.00253581208772 0 0 0
3188 1 1 0 46.31629240851552 46.31629240851552 42.46986880026336 0 0 0
3189 184 2 0 45.53209281364717 45.53209281364717 41.84783851486504 0 0 0
3190 184 2 0 45.53209281364716 45.53209281364716 40.3733791787074 0 0 0
3191 184 2 0 46.38893475197204 46.38893475197203 39.66224994863969 0 0 0
3192 184 3 0 47.06164981520658 47.061649815206565 40.1801824289244 0 0 0
3199 1 4 0 44.408861424489594 44.408861424489594 44.408861424489594 0 0 0
3200 1 1 0 44.747893218778806 42.46986880026337 44.74789321877881 0 0 0
3201 189 2 0 45.53209281364716 41.847838514865046 45.53209281364716 0 0 0
3202 189 2 0 45.53209281364716 40.37337917870741 45.53209281364716 0 0 0
3203 189 2 0 44.675250875322284 39.6622499486397 44.675250875322284 0 0 0
3204 189 3 0 44.00253581208774 40.180182428924404 44.00253581208775 0 0 0
3226 1 1 0 44.74789321877881 44.747893218778806 42.46986880026336 0 0 0
3227 184 2 0 44.675250875322284 44.675250875322284 39.66224994863969 0 0 0
3228 184 3 0 44.00253581208774 44.00253581208775 40.1801824289244 0 0 0
3235 1 1 0 46.316292408515515 42.46986880026336 46.31629240851552 0 0 0
3236 189 2 0 46.38893475197204 39.6622499486397 46.38893475197203 0 0 0
3237 189 3 0 47.06164981520658 40.1801824289244 47.06164981520657 0 0 0
3336 1 1 0 46.31629240851552 44.74789321877882 48.594316827031 0 0 0
3337 1 1 0 44.74789321877881 46.31629240851552 48.59431682703101 0 0 0
3357 163 2 0 45.53209281364716 45.53209281364716 49.21634711242933 0 0 0
3358 163 2 0 45.53209281364715 45.53209281364715 50.690806448586976 0 0 0
3359 163 2 0 46.38893475197201 44.67525087532226 51.401935678654695 0 0 0
3360 163 3 0 47.061649815206536 44.002535812087714 50.88400319836999 0 0 0
3361 163 2 0 44.67525087532227 46.388934751972016 51.401935678654695 0 0 0
3362 163 3 0 44.00253581208773 47.06164981520656 50.884003198369996 0 0 0

Velocities

1 0 0 0
2 0 0 0
3 0 0 0
4 0 0 0
5 0 0 0
14 0 0 0
15 0 0 0
16 0 0 0
17 0 0 0
19 0 0 0
21 0 0 0
22 0 0 0
23 0 0 0
24 0 0 0
25 0 0 0
31 0 0 0
32 0 0 0
33 0 0 0
37 0 0 0
40 0 0 0
41 0 0 0
42 0 0 0
43 0 0 0
44 0 0 0
45 0 0 0
158 0 0 0
159 0 0 0
160 0 0 0
179 0 0 0
180 0 0 0
181 0 0 0
182 0 0 0
183 0 0 0
184 0 0 0
195 0 0 0
196 0 0 0
197 0 0 0
198 0 0 0
199 0 0 0
282 0 0 0
283 0 0 0
284 0 0 0
288 0 0 0
289 0 0 0
290 0 0 0
312 0 0 0
313 0 0 0
314 0 0 0
315 0 0 0
316 0 0 0
317 0 0 0
318 0 0 0
319 0 0 0
320 0 0 0
321 0 0 0
343 0 0 0
344 0 0 0
345 0 0 0
352 0 0 0
353 0 0 0
354 0 0 0
70 0 0 0
71 0 0 0
72 0 0 0
73 0 0 0
74 0 0 0
75 0 0 0
76 0 0 0
83 0 0 0
84 0 0 0
85 0 0 0
86 0 0 0
87 0 0 0
88 0 0 0
113 0 0 0
114 0 0 0
115 0 0 0
116 0 0 0
117 0 0 0
118 0 0 0
128 0 0 0
129 0 0 0
130 0 0 0
134 0 0 0
135 0 0 0
136 0 0 0
149 0 0 0
150 0 0 0
151 0 0 0
210 0 0 0
211 0 0 0
212 0 0 0
213 0 0 0
214 0 0 0
237 0 0 0
238 0 0 0
239 0 0 0
240 0 0 0
241 0 0 0
242 0 0 0
249 0 0 0
250 0 0 0
251 0 0 0
261 0 0 0
262 0 0 0
263 0 0 0
59 0 0 0
60 0 0 0
77 0 0 0
78 0 0 0
79 0 0 0
80 0 0 0
81 0 0 0
82 0 0 0
101 0 0 0
102 0 0 0
103 0 0 0
104 0 0 0
105 0 0 0
106 0 0 0
137 0 0 0
138 0 0 0
139 0 0 0
152 0 0 0
153 0 0 0
154 0 0 0
215 0 0 0
216 0 0 0
217 0 0 0
218 0 0 0
219 0 0 0
243 0 0 0
244 0 0 0
245 0 0 0
246 0 0 0
247 0 0 0
248 0 0 0
255 0 0 0
256 0 0 0
257 0 0 0
264 0 0 0
265 0 0 0
266 0 0 0
367 0 0 0
370 0 0 0
385 0 0 0
386 0 0 0
387 0 0 0
388 0 0 0
395 0 0 0
396 0 0 0
297 0 0 0
298 0 0 0
299 0 0 0
300 0 0 0
301 0 0 0
327 0 0 0
328 0 0 0
329 0 0 0
330 0 0 0
331 0 0 0
340 0 0 0
341 0 0 0
342 0 0 0
358 0 0 0
359 0 0 0
360 0 0 0
26 0 0 0
27 0 0 0
28 0 0 0
29 0 0 0
30 0 0 0
34 0 0 0
35 0 0 0
36 0 0 0
38 0 0 0
39 0 0 0
53 0 0 0
57 0 0 0
167 0 0 0
168 0 0 0
169 0 0 0
170 0 0 0
171 0 0 0
172 0 0 0
200 0 0 0
201 0 0 0
202 0 0 0
203 0 0 0
204 0 0 0
273 0 0 0
274 0 0 0
275 0 0 0
285 0 0 0
286 0 0 0
287 0 0 0
361 0 0 0
364 0 0 0
371 0 0 0
376 0 0 0
377 0 0 0
378 0 0 0
379 0 0 0
380 0 0 0
397 0 0 0
398 0 0 0
417 0 0 0
418 0 0 0
419 0 0 0
420 0 0 0
423 0 0 0
424 0 0 0
425 0 0 0
426 0 0 0
427 0 0 0
428 0 0 0
429 0 0 0
438 0 0 0
439 0 0 0
440 0 0 0
441 0 0 0
443 0 0 0
445 0 0 0
446 0 0 0
447 0 0 0
448 0 0 0
449 0 0 0
455 0 0 0
456 0 0 0
457 0 0 0
461 0 0 0
464 0 0 0
465 0 0 0
466 0 0 0
467 0 0 0
468 0 0 0
469 0 0 0
582 0 0 0
583 0 0 0
584 0 0 0
603 0 0 0
604 0 0 0
605 0 0 0
606 0 0 0
607 0 0 0
608 0 0 0
619 0 0 0
620 0 0 0
621 0 0 0
622 0 0 0
623 0 0 0
706 0 0 0
707 0 0 0
708 0 0 0
712 0 0 0
713 0 0 0
714 0 0 0
736 0 0 0
737 0 0 0
738 0 0 0
739 0 0 0
740 0 0 0
741 0 0 0
742 0 0 0
743 0 0 0
744 0 0 0
745 0 0 0
767 0 0 0
768 0 0 0
769 0 0 0
776 0 0 0
777 0 0 0
778 0 0 0
494 0 0 0
495 0 0 0
496 0 0 0
497 0 0 0
498 0 0 0
499 0 0 0
500 0 0 0
507 0 0 0
508 0 0 0
509 0 0 0
510 0 0 0
511 0 0 0
512 0 0 0
537 0 0 0
538 0 0 0
539 0 0 0
540 0 0 0
541 0 0 0
542 0 0 0
552 0 0 0
553 0 0 0
554 0 0 0
558 0 0 0
559 0 0 0
560 0 0 0
573 0 0 0
574 0 0 0
575 0 0 0
634 0 0 0
635 0 0 0
636 0 0 0
637 0 0 0
638 0 0 0
661 0 0 0
662 0 0 0
663 0 0 0
664 0 0 0
665 0 0 0
666 0 0 0
673 0 0 0
674 0 0 0
675 0 0 0
685 0 0 0
686 0 0 0
687 0 0 0
483 0 0 0
484 0 0 0
501 0 0 0
502 0 0 0
503 0 0 0
504 0 0 0
505 0 0 0
506 0 0 0
525 0 0 0
526 0 0 0
527 0 0 0
528 0 0 0
529 0 0 0
530 0 0 0
561 0 0 0
562 0 0 0
563 0 0 0
576 0 0 0
577 0 0 0
578 0 0 0
639 0 0 0
640 0 0 0
641 0 0 0
642 0 0 0
643 0 0 0
667 0 0 0
668 0 0 0
669 0 0 0
670 0 0 0
671 0 0 0
672 0 0 0
679 0 0 0
680 0 0 0
681 0 0 0
688 0 0 0
689 0 0 0
690 0 0 0
791 0 0 0
794 0 0 0
809 0 0 0
810 0 0 0
811 0 0 0
812 0 0 0
819 0 0 0
820 0 0 0
721 0 0 0
722 0 0 0
723 0 0 0
724 0 0 0
725 0 0 0
751 0 0 0
752 0 0 0
753 0 0 0
754 0 0 0
755 0 0 0
764 0 0 0
765 0 0 0
766 0 0 0
782 0 0 0
783 0 0 0
784 0 0 0
450 0 0 0
451 0 0 0
452 0 0 0
453 0 0 0
454 0 0 0
458 0 0 0
459 0 0 0
460 0 0 0
462 0 0 0
463 0 0 0
477 0 0 0
481 0 0 0
591 0 0 0
592 0 0 0
593 0 0 0
594 0 0 0
595 0 0 0
596 0 0 0
624 0 0 0
625 0 0 0
626 0 0 0
627 0 0 0
628 0 0 0
697 0 0 0
698 0 0 0
699 0 0 0
709 0 0 0
710 0 0 0
711 0 0 0
785 0 0 0
788 0 0 0
795 0 0 0
800 0 0 0
801 0 0 0
802 0 0 0
803 0 0 0
804 0 0 0
821 0 0 0
822 0 0 0
841 0 0 0
842 0 0 0
843 0 0 0
844 0 0 0
847 0 0 0
848 0 0 0
63 0 0 0
64 0 0 0
65 0 0 0
66 0 0 0
67 0 0 0
68 0 0 0
69 0 0 0
95 0 0 0
96 0 0 0
97 0 0 0
98 0 0 0
99 0 0 0
100 0 0 0
107 0 0 0
108 0 0 0
109 0 0 0
110 0 0 0
111 0 0 0
112 0 0 0
125 0 0 0
126 0 0 0
127 0 0 0
140 0 0 0
141 0 0 0
142 0 0 0
146 0 0 0
147 0 0 0
148 0 0 0
205 0 0 0
206 0 0 0
207 0 0 0
208 0 0 0
209 0 0 0
225 0 0 0
226 0 0 0
227 0 0 0
228 0 0 0
229 0 0 0
230 0 0 0
252 0 0 0
253 0 0 0
254 0 0 0
270 0 0 0
271 0 0 0
272 0 0 0
302 0 0 0
303 0 0 0
304 0 0 0
305 0 0 0
306 0 0 0
332 0 0 0
333 0 0 0
334 0 0 0
335 0 0 0
336 0 0 0
337 0 0 0
338 0 0 0
339 0 0 0
355 0 0 0
356 0 0 0
357 0 0 0
46 0 0 0
47 0 0 0
48 0 0 0
49 0 0 0
50 0 0 0
51 0 0 0
52 0 0 0
56 0 0 0
58 0 0 0
155 0 0 0
156 0 0 0
157 0 0 0
173 0 0 0
174 0 0 0
175 0 0 0
176 0 0 0
177 0 0 0
178 0 0 0
190 0 0 0
191 0 0 0
192 0 0 0
193 0 0 0
194 0 0 0
279 0 0 0
280 0 0 0
281 0 0 0
294 0 0 0
295 0 0 0
296 0 0 0
363 0 0 0
366 0 0 0
373 0 0 0
375 0 0 0
405 0 0 0
406 0 0 0
407 0 0 0
408 0 0 0
409 0 0 0
410 0 0 0
413 0 0 0
414 0 0 0
415 0 0 0
416 0 0 0
421 0 0 0
422 0 0 0
6 0 0 0
7 0 0 0
8 0 0 0
9 0 0 0
10 0 0 0
11 0 0 0
12 0 0 0
13 0 0 0
18 0 0 0
20 0 0 0
54 0 0 0
55 0 0 0
161 0 0 0
162 0 0 0
163 0 0 0
164 0 0 0
165 0 0 0
166 0 0 0
185 0 0 0
186 0 0 0
187 0 0 0
188 0 0 0
189 0 0 0
276 0 0 0
277 0 0 0
278 0 0 0
291 0 0 0
292 0 0 0
293 0 0 0
362 0 0 0
365 0 0 0
372 0 0 0
374 0 0 0
381 0 0 0
382 0 0 0
383 0 0 0
384 0 0 0
399 0 0 0
400 0 0 0
401 0 0 0
402 0 0 0
403 0 0 0
404 0 0 0
411 0 0 0
412 0 0 0
307 0 0 0
308 0 0 0
309 0 0 0
310 0 0 0
311 0 0 0
322 0 0 0
323 0 0 0
324 0 0 0
325 0 0 0
326 0 0 0
346 0 0 0
347 0 0 0
348 0 0 0
349 0 0 0
350 0 0 0
351 0 0 0
61 0 0 0
62 0 0 0
89 0 0 0
90 0 0 0
91 0 0 0
92 0 0 0
93 0 0 0
94 0 0 0
119 0 0 0
120 0 0 0
121 0 0 0
122 0 0 0
123 0 0 0
124 0 0 0
131 0 0 0
132 0 0 0
133 0 0 0
143 0 0 0
144 0 0 0
145 0 0 0
220 0 0 0
221 0 0 0
222 0 0 0
223 0 0 0
224 0 0 0
231 0 0 0
232 0 0 0
233 0 0 0
234 0 0 0
235 0 0 0
236 0 0 0
258 0 0 0
259 0 0 0
260 0 0 0
267 0 0 0
268 0 0 0
269 0 0 0
368 0 0 0
369 0 0 0
389 0 0 0
390 0 0 0
391 0 0 0
392 0 0 0
393 0 0 0
394 0 0 0
487 0 0 0
488 0 0 0
489 0 0 0
490 0 0 0
491 0 0 0
492 0 0 0
493 0 0 0
519 0 0 0
520 0 0 0
521 0 0 0
522 0 0 0
523 0 0 0
524 0 0 0
531 0 0 0
532 0 0 0
533 0 0 0
534 0 0 0
535 0 0 0
536 0 0 0
549 0 0 0
550 0 0 0
551 0 0 0
564 0 0 0
565 0 0 0
566 0 0 0
570 0 0 0
571 0 0 0
572 0 0 0
629 0 0 0
630 0 0 0
631 0 0 0
632 0 0 0
633 0 0 0
649 0 0 0
650 0 0 0
651 0 0 0
652 0 0 0
653 0 0 0
654 0 0 0
676 0 0 0
677 0 0 0
678 0 0 0
694 0 0 0
695 0 0 0
696 0 0 0
726 0 0 0
727 0 0 0
728 0 0 0
729 0 0 0
730 0 0 0
756 0 0 0
757 0 0 0
758 0 0 0
759 0 0 0
760 0 0 0
761 0 0 0
762 0 0 0
763 0 0 0
779 0 0 0
780 0 0 0
781 0 0 0
470 0 0 0
471 0 0 0
472 0 0 0
473 0 0 0
474 0 0 0
475 0 0 0
476 0 0 0
480 0 0 0
482 0 0 0
579 0 0 0
580 0 0 0
581 0 0 0
597 0 0 0
598 0 0 0
599 0 0 0
600 0 0 0
601 0 0 0
602 0 0 0
614 0 0 0
615 0 0 0
616 0 0 0
617 0 0 0
618 0 0 0
703 0 0 0
704 0 0 0
705 0 0 0
718 0 0 0
719 0 0 0
720 0 0 0
787 0 0 0
790 0 0 0
797 0 0 0
799 0 0 0
829 0 0 0
830 0 0 0
831 0 0 0
832 0 0 0
833 0 0 0
834 0 0 0
837 0 0 0
838 0 0 0
839 0 0 0
840 0 0 0
845 0 0 0
846 0 0 0
430 0 0 0
431 0 0 0
432 0 0 0
433 0 0 0
434 0 0 0
435 0 0 0
436 0 0 0
437 0 0 0
442 0 0 0
444 0 0 0
478 0 0 0
479 0 0 0
585 0 0 0
586 0 0 0
587 0 0 0
588 0 0 0
589 0 0 0
590 0 0 0
609 0 0 0
610 0 0 0
611 0 0 0
612 0 0 0
613 0 0 0
700 0 0 0
701 0 0 0
702 0 0 0
715 0 0 0
716 0 0 0
717 0 0 0
786 0 0 0
789 0 0 0
796 0 0 0
798 0 0 0
805 0 0 0
806 0 0 0
807 0 0 0
808 0 0 0
823 0 0 0
824 0 0 0
825 0 0 0
826 0 0 0
827 0 0 0
828 0 0 0
835 0 0 0
836 0 0 0
731 0 0 0
732 0 0 0
733 0 0 0
734 0 0 0
735 0 0 0
746 0 0 0
747 0 0 0
748 0 0 0
749 0 0 0
750 0 0 0
770 0 0 0
771 0 0 0
772 0 0 0
773 0 0 0
774 0 0 0
775 0 0 0
485 0 0 0
486 0 0 0
513 0 0 0
514 0 0 0
515 0 0 0
516 0 0 0
517 0 0 0
518 0 0 0
543 0 0 0
544 0 0 0
545 0 0 0
546 0 0 0
547 0 0 0
548 0 0 0
555 0 0 0
556 0 0 0
557 0 0 0
567 0 0 0
568 0 0 0
569 0 0 0
644 0 0 0
645 0 0 0
646 0 0 0
647 0 0 0
648 0 0 0
655 0 0 0
656 0 0 0
657 0 0 0
658 0 0 0
659 0 0 0
660 0 0 0
682 0 0 0
683 0 0 0
684 0 0 0
691 0 0 0
692 0 0 0
693 0 0 0
792 0 0 0
793 0 0 0
813 0 0 0
814 0 0 0
815 0 0 0
816 0 0 0
817 0 0 0
818 0 0 0
849 0 0 0
850 0 0 0
851 0 0 0
852 0 0 0
853 0 0 0
862 0 0 0
863 0 0 0
864 0 0 0
865 0 0 0
867 0 0 0
869 0 0 0
870 0 0 0
871 0 0 0
872 0 0 0
873 0 0 0
879 0 0 0
880 0 0 0
881 0 0 0
885 0 0 0
888 0 0 0
889 0 0 0
890 0 0 0
891 0 0 0
892 0 0 0
893 0 0 0
1006 0 0 0
1007 0 0 0
1008 0 0 0
1027 0 0 0
1028 0 0 0
1029 0 0 0
1030 0 0 0
1031 0 0 0
1032 0 0 0
1043 0 0 0
1044 0 0 0
1045 0 0 0
1046 0 0 0
1047 0 0 0
1130 0 0 0
1131 0 0 0
1132 0 0 0
1136 0 0 0
1137 0 0 0
1138 0 0 0
1160 0 0 0
1161 0 0 0
1162 0 0 0
1163 0 0 0
1164 0 0 0
1165 0 0 0
1166 0 0 0
1167 0 0 0
1168 0 0 0
1169 0 0 0
1191 0 0 0
1192 0 0 0
1193 0 0 0
1200 0 0 0
1201 0 0 0
1202 0 0 0
918 0 0 0
919 0 0 0
920 0 0 0
921 0 0 0
922 0 0 0
923 0 0 0
924 0 0 0
931 0 0 0
932 0 0 0
933 0 0 0
934 0 0 0
935 0 0 0
936 0 0 0
961 0 0 0
962 0 0 0
963 0 0 0
964 0 0 0
965 0 0 0
966 0 0 0
976 0 0 0
977 0 0 0
978 0 0 0
982 0 0 0
983 0 0 0
984 0 0 0
997 0 0 0
998 0 0 0
999 0 0 0
1058 0 0 0
1059 0 0 0
1060 0 0 0
1061 0 0 0
1062 0 0 0
1085 0 0 0
1086 0 0 0
1087 0 0 0
1088 0 0 0
1089 0 0 0
1090 0 0 0
1097 0 0 0
1098 0 0 0
1099 0 0 0
1109 0 0 0
1110 0 0 0
1111 0 0 0
907 0 0 0
908 0 0 0
925 0 0 0
926 0 0 0
927 0 0 0
928 0 0 0
929 0 0 0
930 0 0 0
949 0 0 0
950 0 0 0
951 0 0 0
952 0 0 0
953 0 0 0
954 0 0 0
985 0 0 0
986 0 0 0
987 0 0 0
1000 0 0 0
1001 0 0 0
1002 0 0 0
1063 0 0 0
1064 0 0 0
1065 0 0 0
1066 0 0 0
1067 0 0 0
1091 0 0 0
1092 0 0 0
1093 0 0 0
1094 0 0 0
1095 0 0 0
1096 0 0 0
1103 0 0 0
1104 0 0 0
1105 0 0 0
1112 0 0 0
1113 0 0 0
1114 0 0 0
1215 0 0 0
1218 0 0 0
1233 0 0 0
1234 0 0 0
1235 0 0 0
1236 0 0 0
1243 0 0 0
1244 0 0 0
1145 0 0 0
1146 0 0 0
1147 0 0 0
1148 0 0 0
1149 0 0 0
1175 0 0 0
1176 0 0 0
1177 0 0 0
1178 0 0 0
1179 0 0 0
1188 0 0 0
1189 0 0 0
1190 0 0 0
1206 0 0 0
1207 0 0 0
1208 0 0 0
874 0 0 0
875 0 0 0
876 0 0 0
877 0 0 0
878 0 0 0
882 0 0 0
883 0 0 0
884 0 0 0
886 0 0 0
887 0 0 0
901 0 0 0
905 0 0 0
1015 0 0 0
1016 0 0 0
1017 0 0 0
1018 0 0 0
1019 0 0 0
1020 0 0 0
1048 0 0 0
1049 0 0 0
1050 0 0 0
1051 0 0 0
1052 0 0 0
1121 0 0 0
1122 0 0 0
1123 0 0 0
1133 0 0 0
1134 0 0 0
1135 0 0 0
1209 0 0 0
1212 0 0 0
1219 0 0 0
1224 0 0 0
1225 0 0 0
1226 0 0 0
1227 0 0 0
1228 0 0 0
1245 0 0 0
1246 0 0 0
1265 0 0 0
1266 0 0 0
1267 0 0 0
1268 0 0 0
1271 0 0 0
1272 0 0 0
1273 0 0 0
1274 0 0 0
1275 0 0 0
1276 0 0 0
1277 0 0 0
1286 0 0 0
1287 0 0 0
1288 0 0 0
1289 0 0 0
1291 0 0 0
1293 0 0 0
1294 0 0 0
1295 0 0 0
1296 0 0 0
1297 0 0 0
1303 0 0 0
1304 0 0 0
1305 0 0 0
1309 0 0 0
1312 0 0 0
1313 0 0 0
1314 0 0 0
1315 0 0 0
1316 0 0 0
1317 0 0 0
1430 0 0 0
1431 0 0 0
1432 0 0 0
1451 0 0 0
1452 0 0 0
1453 0 0 0
1454 0 0 0
1455 0 0 0
1456 0 0 0
1467 0 0 0
1468 0 0 0
1469 0 0 0
1470 0 0 0
1471 0 0 0
1554 0 0 0
1555 0 0 0
1556 0 0 0
1560 0 0 0
1561 0 0 0
1562 0 0 0
1584 0 0 0
1585 0 0 0
1586 0 0 0
1587 0 0 0
1588 0 0 0
1589 0 0 0
1590 0 0 0
1591 0 0 0
1592 0 0 0
1593 0 0 0
1615 0 0 0
1616 0 0 0
1617 0 0 0
1624 0 0 0
1625 0 0 0
1626 0 0 0
1342 0 0 0
1343 0 0 0
1344 0 0 0
1345 0 0 0
1346 0 0 0
1347 0 0 0
1348 0 0 0
1355 0 0 0
1356 0 0 0
1357 0 0 0
1358 0 0 0
1359 0 0 0
1360 0 0 0
1385 0 0 0
1386 0 0 0
1387 0 0 0
1388 0 0 0
1389 0 0 0
1390 0 0 0
1400 0 0 0
1401 0 0 0
1402 0 0 0
1406 0 0 0
1407 0 0 0
1408 0 0 0
1421 0 0 0
1422 0 0 0
1423 0 0 0
1482 0 0 0
1483 0 0 0
1484 0 0 0
1485 0 0 0
1486 0 0 0
1509 0 0 0
1510 0 0 0
1511 0 0 0
1512 0 0 0
1513 0 0 0
1514 0 0 0
1521 0 0 0
1522 0 0 0
1523 0 0 0
1533 0 0 0
1534 0 0 0
1535 0 0 0
1331 0 0 0
1332 0 0 0
1349 0 0 0
1350 0 0 0
1351 0 0 0
1352 0 0 0
1353 0 0 0
1354 0 0 0
1373 0 0 0
1374 0 0 0
1375 0 0 0
1376 0 0 0
1377 0 0 0
1378 0 0 0
1409 0 0 0
1410 0 0 0
1411 0 0 0
1424 0 0 0
1425 0 0 0
1426 0 0 0
1487 0 0 0
1488 0 0 0
1489 0 0 0
1490 0 0 0
1491 0 0 0
1515 0 0 0
1516 0 0 0
1517 0 0 0
1518 0 0 0
1519 0 0 0
1520 0 0 0
1527 0 0 0
1528 0 0 0
1529 0 0 0
1536 0 0 0
1537 0 0 0
1538 0 0 0
1639 0 0 0
1642 0 0 0
1657 0 0 0
1658 0 0 0
1659 0 0 0
1660 0 0 0
1667 0 0 0
1668 0 0 0
1569 0 0 0
1570 0 0 0
1571 0 0 0
1572 0 0 0
1573 0 0 0
1599 0 0 0
1600 0 0 0
1601 0 0 0
1602 0 0 0
1603 0 0 0
1612 0 0 0
1613 0 0 0
1614 0 0 0
1630 0 0 0
1631 0 0 0
1632 0 0 0
1298 0 0 0
1299 0 0 0
1300 0 0 0
1301 0 0 0
1302 0 0 0
1306 0 0 0
1307 0 0 0
1308 0 0 0
1310 0 0 0
1311 0 0 0
1325 0 0 0
1329 0 0 0
1439 0 0 0
1440 0 0 0
1441 0 0 0
1442 0 0 0
1443 0 0 0
1444 0 0 0
1472 0 0 0
1473 0 0 0
1474 0 0 0
1475 0 0 0
1476 0 0 0
1545 0 0 0
1546 0 0 0
1547 0 0 0
1557 0 0 0
1558 0 0 0
1559 0 0 0
1633 0 0 0
1636 0 0 0
1643 0 0 0
1648 0 0 0
1649 0 0 0
1650 0 0 0
1651 0 0 0
1652 0 0 0
1669 0 0 0
1670 0 0 0
1689 0 0 0
1690 0 0 0
1691 0 0 0
1692 0 0 0
1695 0 0 0
1696 0 0 0
911 0 0 0
912 0 0 0
913 0 0 0
914 0 0 0
915 0 0 0
916 0 0 0
917 0 0 0
943 0 0 0
944 0 0 0
945 0 0 0
946 0 0 0
947 0 0 0
948 0 0 0
955 0 0 0
956 0 0 0
957 0 0 0
958 0 0 0
959 0 0 0
960 0 0 0
973 0 0 0
974 0 0 0
975 0 0 0
988 0 0 0
989 0 0 0
990 0 0 0
994 0 0 0
995 0 0 0
996 0 0 0
1053 0 0 0
1054 0 0 0
1055 0 0 0
1056 0 0 0
1057 0 0 0
1073 0 0 0
1074 0 0 0
1075 0 0 0
1076 0 0 0
1077 0 0 0
1078 0 0 0
1100 0 0 0
1101 0 0 0
1102 0 0 0
1118 0 0 0
1119 0 0 0
1120 0 0 0
1150 0 0 0
1151 0 0 0
1152 0 0 0
1153 0 0 0
1154 0 0 0
1180 0 0 0
1181 0 0 0
1182 0 0 0
1183 0 0 0
1184 0 0 0
1185 0 0 0
1186 0 0 0
1187 0 0 0
1203 0 0 0
1204 0 0 0
1205 0 0 0
894 0 0 0
895 0 0 0
896 0 0 0
897 0 0 0
898 0 0 0
899 0 0 0
900 0 0 0
904 0 0 0
906 0 0 0
1003 0 0 0
1004 0 0 0
1005 0 0 0
1021 0 0 0
1022 0 0 0
1023 0 0 0
1024 0 0 0
1025 0 0 0
1026 0 0 0
1038 0 0 0
1039 0 0 0
1040 0 0 0
1041 0 0 0
1042 0 0 0
1127 0 0 0
1128 0 0 0
1129 0 0 0
1142 0 0 0
1143 0 0 0
1144 0 0 0
1211 0 0 0
1214 0 0 0
1221 0 0 0
1223 0 0 0
1253 0 0 0
1254 0 0 0
1255 0 0 0
1256 0 0 0
1257 0 0 0
1258 0 0 0
1261 0 0 0
1262 0 0 0
1263 0 0 0
1264 0 0 0
1269 0 0 0
1270 0 0 0
854 0 0 0
855 0 0 0
856 0 0 0
857 0 0 0
858 0 0 0
859 0 0 0
860 0 0 0
861 0 0 0
866 0 0 0
868 0 0 0
902 0 0 0
903 0 0 0
1009 0 0 0
1010 0 0 0
1011 0 0 0
1012 0 0 0
1013 0 0 0
1014 0 0 0
1033 0 0 0
1034 0 0 0
1035 0 0 0
1036 0 0 0
1037 0 0 0
1124 0 0 0
1125 0 0 0
1126 0 0 0
1139 0 0 0
1140 0 0 0
1141 0 0 0
1210 0 0 0
1213 0 0 0
1220 0 0 0
1222 0 0 0
1229 0 0 0
1230 0 0 0
1231 0 0 0
1232 0 0 0
1247 0 0 0
1248 0 0 0
1249 0 0 0
1250 0 0 0
1251 0 0 0
1252 0 0 0
1259 0 0 0
1260 0 0 0
1155 0 0 0
1156 0 0 0
1157 0 0 0
1158 0 0 0
1159 0 0 0
1170 0 0 0
1171 0 0 0
1172 0 0 0
1173 0 0 0
1174 0 0 0
1194 0 0 0
1195 0 0 0
1196 0 0 0
1197 0 0 0
1198 0 0 0
1199 0 0 0
909 0 0 0
910 0 0 0
937 0 0 0
938 0 0 0
939 0 0 0
940 0 0 0
941 0 0 0
942 0 0 0
967 0 0 0
968 0 0 0
969 0 0 0
970 0 0 0
971 0 0 0
972 0 0 0
979 0 0 0
980 0 0 0
981 0 0 0
991 0 0 0
992 0 0 0
993 0 0 0
1068 0 0 0
1069 0 0 0
1070 0 0 0
1071 0 0 0
1072 0 0 0
1079 0 0 0
1080 0 0 0
1081 0 0 0
1082 0 0 0
1083 0 0 0
1084 0 0 0
1106 0 0 0
1107 0 0 0
1108 0 0 0
1115 0 0 0
1116 0 0 0
1117 0 0 0
1216 0 0 0
1217 0 0 0
1237 0 0 0
1238 0 0 0
1239 0 0 0
1240 0 0 0
1241 0 0 0
1242 0 0 0
1335 0 0 0
1336 0 0 0
1337 0 0 0
1338 0 0 0
1339 0 0 0
1340 0 0 0
1341 0 0 0
1367 0 0 0
1368 0 0 0
1369 0 0 0
1370 0 0 0
1371 0 0 0
1372 0 0 0
1379 0 0 0
1380 0 0 0
1381 0 0 0
1382 0 0 0
1383 0 0 0
1384 0 0 0
1397 0 0 0
1398 0 0 0
1399 0 0 0
1412 0 0 0
1413 0 0 0
1414 0 0 0
1418 0 0 0
1419 0 0 0
1420 0 0 0
1477 0 0 0
1478 0 0 0
1479 0 0 0
1480 0 0 0
1481 0 0 0
1497 0 0 0
1498 0 0 0
1499 0 0 0
1500 0 0 0
1501 0 0 0
1502 0 0 0
1524 0 0 0
1525 0 0 0
1526 0 0 0
1542 0 0 0
1543 0 0 0
1544 0 0 0
1574 0 0 0
1575 0 0 0
1576 0 0 0
1577 0 0 0
1578 0 0 0
1604 0 0 0
1605 0 0 0
1606 0 0 0
1607 0 0 0
1608 0 0 0
1609 0 0 0
1610 0 0 0
1611 0 0 0
1627 0 0 0
1628 0 0 0
1629 0 0 0
1318 0 0 0
1319 0 0 0
1320 0 0 0
1321 0 0 0
1322 0 0 0
1323 0 0 0
1324 0 0 0
1328 0 0 0
1330 0 0 0
1427 0 0 0
1428 0 0 0
1429 0 0 0
1445 0 0 0
1446 0 0 0
1447 0 0 0
1448 0 0 0
1449 0 0 0
1450 0 0 0
1462 0 0 0
1463 0 0 0
1464 0 0 0
1465 0 0 0
1466 0 0 0
1551 0 0 0
1552 0 0 0
1553 0 0 0
1566 0 0 0
1567 0 0 0
1568 0 0 0
1635 0 0 0
1638 0 0 0
1645 0 0 0
1647 0 0 0
1677 0 0 0
1678 0 0 0
1679 0 0 0
1680 0 0 0
1681 0 0 0
1682 0 0 0
1685 0 0 0
1686 0 0 0
1687 0 0 0
1688 0 0 0
1693 0 0 0
1694 0 0 0
1278 0 0 0
1279 0 0 0
1280 0 0 0
1281 0 0 0
1282 0 0 0
1283 0 0 0
1284 0 0 0
1285 0 0 0
1290 0 0 0
1292 0 0 0
1326 0 0 0
1327 0 0 0
1433 0 0 0
1434 0 0 0
1435 0 0 0
1436 0 0 0
1437 0 0 0
1438 0 0 0
1457 0 0 0
1458 0 0 0
1459 0 0 0
1460 0 0 0
1461 0 0 0
1548 0 0 0
1549 0 0 0
1550 0 0 0
1563 0 0 0
1564 0 0 0
1565 0 0 0
1634 0 0 0
1637 0 0 0
1644 0 0 0
1646 0 0 0
1653 0 0 0
1654 0 0 0
1655 0 0 0
1656 0 0 0
1671 0 0 0
1672 0 0 0
1673 0 0 0
1674 0 0 0
1675 0 0 0
1676 0 0 0
1683 0 0 0
1684 0 0 0
1579 0 0 0
1580 0 0 0
1581 0 0 0
1582 0 0 0
1583 0 0 0
1594 0 0 0
1595 0 0 0
1596 0 0 0
1597 0 0 0
1598 0 0 0
1618 0 0 0
1619 0 0 0
1620 0 0 0
1621 0 0 0
1622 0 0 0
1623 0 0 0
1333 0 0 0
1334 0 0 0
1361 0 0 0
1362 0 0 0
1363 0 0 0
1364 0 0 0
1365 0 0 0
1366 0 0 0
1391 0 0 0
1392 0 0 0
1393 0 0 0
1394 0 0 0
1395 0 0 0
1396 0 0 0
1403 0 0 0
1404 0 0 0
1405 0 0 0
1415 0 0 0
1416 0 0 0
1417 0 0 0
1492 0 0 0
1493 0 0 0
1494 0 0 0
1495 0 0 0
1496 0 0 0
1503 0 0 0
1504 0 0 0
1505 0 0 0
1506 0 0 0
1507 0 0 0
1508 0 0 0
1530 0 0 0
1531 0 0 0
1532 0 0 0
1539 0 0 0
1540 0 0 0
1541 0 0 0
1640 0 0 0
1641 0 0 0
1661 0 0 0
1662 0 0 0
1663 0 0 0
1664 0 0 0
1665 0 0 0
1666 0 0 0
1697 0 0 0
1698 0 0 0
1699 0 0 0
1700 0 0 0
1701 0 0 0
1710 0 0 0
1711 0 0 0
1712 0 0 0
1713 0 0 0
1715 0 0 0
1717 0 0 0
1718 0 0 0
1719 0 0 0
1720 0 0 0
1721 0 0 0
1727 0 0 0
1728 0 0 0
1729 0 0 0
1733 0 0 0
1736 0 0 0
1737 0 0 0
1738 0 0 0
1739 0 0 0
1740 0 0 0
1741 0 0 0
1854 0 0 0
1855 0 0 0
1856 0 0 0
1875 0 0 0
1876 0 0 0
1877 0 0 0
1878 0 0 0
1879 0 0 0
1880 0 0 0
1891 0 0 0
1892 0 0 0
1893 0 0 0
1894 0 0 0
1895 0 0 0
1978 0 0 0
1979 0 0 0
1980 0 0 0
1984 0 0 0
1985 0 0 0
1986 0 0 0
2008 0 0 0
2009 0 0 0
2010 0 0 0
2011 0 0 0
2012 0 0 0
2013 0 0 0
2014 0 0 0
2015 0 0 0
2016 0 0 0
2017 0 0 0
2039 0 0 0
2040 0 0 0
2041 0 0 0
2048 0 0 0
2049 0 0 0
2050 0 0 0
1766 0 0 0
1767 0 0 0
1768 0 0 0
1769 0 0 0
1770 0 0 0
1771 0 0 0
1772 0 0 0
1779 0 0 0
1780 0 0 0
1781 0 0 0
1782 0 0 0
1783 0 0 0
1784 0 0 0
1809 0 0 0
1810 0 0 0
1811 0 0 0
1812 0 0 0
1813 0 0 0
1814 0 0 0
1824 0 0 0
1825 0 0 0
1826 0 0 0
1830 0 0 0
1831 0 0 0
1832 0 0 0
1845 0 0 0
1846 0 0 0
1847 0 0 0
1906 0 0 0
1907 0 0 0
1908 0 0 0
1909 0 0 0
1910 0 0 0
1933 0 0 0
1934 0 0 0
1935 0 0 0
1936 0 0 0
1937 0 0 0
1938 0 0 0
1945 0 0 0
1946 0 0 0
1947 0 0 0
1957 0 0 0
1958 0 0 0
1959 0 0 0
1755 0 0 0
1756 0 0 0
1773 0 0 0
1774 0 0 0
1775 0 0 0
1776 0 0 0
1777 0 0 0
1778 0 0 0
1797 0 0 0
1798 0 0 0
1799 0 0 0
1800 0 0 0
1801 0 0 0
1802 0 0 0
1833 0 0 0
1834 0 0 0
1835 0 0 0
1848 0 0 0
1849 0 0 0
1850 0 0 0
1911 0 0 0
1912 0 0 0
1913 0 0 0
1914 0 0 0
1915 0 0 0
1939 0 0 0
1940 0 0 0
1941 0 0 0
1942 0 0 0
1943 0 0 0
1944 0 0 0
1951 0 0 0
1952 0 0 0
1953 0 0 0
1960 0 0 0
1961 0 0 0
1962 0 0 0
2063 0 0 0
2066 0 0 0
2081 0 0 0
2082 0 0 0
2083 0 0 0
2084 0 0 0
2091 0 0 0
2092 0 0 0
1993 0 0 0
1994 0 0 0
1995 0 0 0
1996 0 0 0
1997 0 0 0
2023 0 0 0
2024 0 0 0
2025 0 0 0
2026 0 0 0
2027 0 0 0
2036 0 0 0
2037 0 0 0
2038 0 0 0
2054 0 0 0
2055 0 0 0
2056 0 0 0
1722 0 0 0
1723 0 0 0
1724 0 0 0
1725 0 0 0
1726 0 0 0
1730 0 0 0
1731 0 0 0
1732 0 0 0
1734 0 0 0
1735 0 0 0
1749 0 0 0
1753 0 0 0
1863 0 0 0
1864 0 0 0
1865 0 0 0
1866 0 0 0
1867 0 0 0
1868 0 0 0
1896 0 0 0
1897 0 0 0
1898 0 0 0
1899 0 0 0
1900 0 0 0
1969 0 0 0
1970 0 0 0
1971 0 0 0
1981 0 0 0
1982 0 0 0
1983 0 0 0
2057 0 0 0
2060 0 0 0
2067 0 0 0
2072 0 0 0
2073 0 0 0
2074 0 0 0
2075 0 0 0
2076 0 0 0
2093 0 0 0
2094 0 0 0
2113 0 0 0
2114 0 0 0
2115 0 0 0
2116 0 0 0
2119 0 0 0
2120 0 0 0
2121 0 0 0
2122 0 0 0
2123 0 0 0
2124 0 0 0
2125 0 0 0
2134 0 0 0
2135 0 0 0
2136 0 0 0
2137 0 0 0
2139 0 0 0
2141 0 0 0
2142 0 0 0
2143 0 0 0
2144 0 0 0
2145 0 0 0
2151 0 0 0
2152 0 0 0
2153 0 0 0
2157 0 0 0
2160 0 0 0
2161 0 0 0
2162 0 0 0
2163 0 0 0
2164 0 0 0
2165 0 0 0
2278 0 0 0
2279 0 0 0
2280 0 0 0
2299 0 0 0
2300 0 0 0
2301 0 0 0
2302 0 0 0
2303 0 0 0
2304 0 0 0
2315 0 0 0
2316 0 0 0
2317 0 0 0
2318 0 0 0
2319 0 0 0
2402 0 0 0
2403 0 0 0
2404 0 0 0
2408 0 0 0
2409 0 0 0
2410 0 0 0
2432 0 0 0
2433 0 0 0
2434 0 0 0
2435 0 0 0
2436 0 0 0
2437 0 0 0
2438 0 0 0
2439 0 0 0
2440 0 0 0
2441 0 0 0
2463 0 0 0
2464 0 0 0
2465 0 0 0
2472 0 0 0
2473 0 0 0
2474 0 0 0
2190 0 0 0
2191 0 0 0
2192 0 0 0
2193 0 0 0
2194 0 0 0
2195 0 0 0
2196 0 0 0
2203 0 0 0
2204 0 0 0
2205 0 0 0
2206 0 0 0
2207 0 0 0
2208 0 0 0
2233 0 0 0
2234 0 0 0
2235 0 0 0
2236 0 0 0
2237 0 0 0
2238 0 0 0
2248 0 0 0
2249 0 0 0
2250 0 0 0
2254 0 0 0
2255 0 0 0
2256 0 0 0
2269 0 0 0
2270 0 0 0
2271 0 0 0
2330 0 0 0
2331 0 0 0
2332 0 0 0
2333 0 0 0
2334 0 0 0
2357 0 0 0
2358 0 0 0
2359 0 0 0
2360 0 0 0
2361 0 0 0
2362 0 0 0
2369 0 0 0
2370 0 0 0
2371 0 0 0
2381 0 0 0
2382 0 0 0
2383 0 0 0
2179 0 0 0
2180 0 0 0
2197 0 0 0
2198 0 0 0
2199 0 0 0
2200 0 0 0
2201 0 0 0
2202 0 0 0
2221 0 0 0
2222 0 0 0
2223 0 0 0
2224 0 0 0
2225 0 0 0
2226 0 0 0
2257 0 0 0
2258 0 0 0
2259 0 0 0
2272 0 0 0
2273 0 0 0
2274 0 0 0
2335 0 0 0
2336 0 0 0
2337 0 0 0
2338 0 0 0
2339 0 0 0
2363 0 0 0
2364 0 0 0
2365 0 0 0
2366 0 0 0
2367 0 0 0
2368 0 0 0
2375 0 0 0
2376 0 0 0
2377 0 0 0
2384 0 0 0
2385 0 0 0
2386 0 0 0
2487 0 0 0
2490 0 0 0
2505 0 0 0
2506 0 0 0
2507 0 0 0
2508 0 0 0
2515 0 0 0
2516 0 0 0
2417 0 0 0
2418 0 0 0
2419 0 0 0
2420 0 0 0
2421 0 0 0
2447 0 0 0
2448 0 0 0
2449 0 0 0
2450 0 0 0
2451 0 0 0
2460 0 0 0
2461 0 0 0
2462 0 0 0
2478 0 0 0
2479 0 0 0
2480 0 0 0
2146 0 0 0
2147 0 0 0
2148 0 0 0
2149 0 0 0
2150 0 0 0
2154 0 0 0
2155 0 0 0
2156 0 0 0
2158 0 0 0
2159 0 0 0
2173 0 0 0
2177 0 0 0
2287 0 0 0
2288 0 0 0
2289 0 0 0
2290 0 0 0
2291 0 0 0
2292 0 0 0
2320 0 0 0
2321 0 0 0
2322 0 0 0
2323 0 0 0
2324 0 0 0
2393 0 0 0
2394 0 0 0
2395 0 0 0
2405 0 0 0
2406 0 0 0
2407 0 0 0
2481 0 0 0
2484 0 0 0
2491 0 0 0
2496 0 0 0
2497 0 0 0
2498 0 0 0
2499 0 0 0
2500 0 0 0
2517 0 0 0
2518 0 0 0
2537 0 0 0
2538 0 0 0
2539 0 0 0
2540 0 0 0
2543 0 0 0
2544 0 0 0
1759 0 0 0
1760 0 0 0
1761 0 0 0
1762 0 0 0
1763 0 0 0
1764 0 0 0
1765 0 0 0
1791 0 0 0
1792 0 0 0
1793 0 0 0
1794 0 0 0
1795 0 0 0
1796 0 0 0
1803 0 0 0
1804 0 0 0
1805 0 0 0
1806 0 0 0
1807 0 0 0
1808 0 0 0
1821 0 0 0
1822 0 0 0
1823 0 0 0
1836 0 0 0
1837 0 0 0
1838 0 0 0
1842 0 0 0
1843 0 0 0
1844 0 0 0
1901 0 0 0
1902 0 0 0
1903 0 0 0
1904 0 0 0
1905 0 0 0
1921 0 0 0
1922 0 0 0
1923 0 0 0
1924 0 0 0
1925 0 0 0
1926 0 0 0
1948 0 0 0
1949 0 0 0
1950 0 0 0
1966 0 0 0
1967 0 0 0
1968 0 0 0
1998 0 0 0
1999 0 0 0
2000 0 0 0
2001 0 0 0
2002 0 0 0
2028 0 0 0
2029 0 0 0
2030 0 0 0
2031 0 0 0
2032 0 0 0
2033 0 0 0
2034 0 0 0
2035 0 0 0
2051 0 0 0
2052 0 0 0
2053 0 0 0
1742 0 0 0
1743 0 0 0
1744 0 0 0
1745 0 0 0
1746 0 0 0
1747 0 0 0
1748 0 0 0
1752 0 0 0
1754 0 0 0
1851 0 0 0
1852 0 0 0
1853 0 0 0
1869 0 0 0
1870 0 0 0
1871 0 0 0
1872 0 0 0
1873 0 0 0
1874 0 0 0
1886 0 0 0
1887 0 0 0
1888 0 0 0
1889 0 0 0
1890 0 0 0
1975 0 0 0
1976 0 0 0
1977 0 0 0
1990 0 0 0
1991 0 0 0
1992 0 0 0
2059 0 0 0
2062 0 0 0
2069 0 0 0
2071 0 0 0
2101 0 0 0
2102 0 0 0
2103 0 0 0
2104 0 0 0
2105 0 0 0
2106 0 0 0
2109 0 0 0
2110 0 0 0
2111 0 0 0
2112 0 0 0
2117 0 0 0
2118 0 0 0
1702 0 0 0
1703 0 0 0
1704 0 0 0
1705 0 0 0
1706 0 0 0
1707 0 0 0
1708 0 0 0
1709 0 0 0
1714 0 0 0
1716 0 0 0
1750 0 0 0
1751 0 0 0
1857 0 0 0
1858 0 0 0
1859 0 0 0
1860 0 0 0
1861 0 0 0
1862 0 0 0
1881 0 0 0
1882 0 0 0
1883 0 0 0
1884 0 0 0
1885 0 0 0
1972 0 0 0
1973 0 0 0
1974 0 0 0
1987 0 0 0
1988 0 0 0
1989 0 0 0
2058 0 0 0
2061 0 0 0
2068 0 0 0
2070 0 0 0
2077 0 0 0
2078 0 0 0
2079 0 0 0
2080 0 0 0
2095 0 0 0
2096 0 0 0
2097 0 0 0
2098 0 0 0
2099 0 0 0
2100 0 0 0
2107 0 0 0
2108 0 0 0
2003 0 0 0
2004 0 0 0
2005 0 0 0
2006 0 0 0
2007 0 0 0
2018 0 0 0
2019 0 0 0
2020 0 0 0
2021 0 0 0
2022 0 0 0
2042 0 0 0
2043 0 0 0
2044 0 0 0
2045 0 0 0
2046 0 0 0
2047 0 0 0
1757 0 0 0
1758 0 0 0
1785 0 0 0
1786 0 0 0
1787 0 0 0
1788 0 0 0
1789 0 0 0
1790 0 0 0
1815 0 0 0
1816 0 0 0
1817 0 0 0
1818 0 0 0
1819 0 0 0
1820 0 0 0
1827 0 0 0
1828 0 0 0
1829 0 0 0
1839 0 0 0
1840 0 0 0
1841 0 0 0
1916 0 0 0
1917 0 0 0
1918 0 0 0
1919 0 0 0
1920 0 0 0
1927 0 0 0
1928 0 0 0
1929 0 0 0
1930 0 0 0
1931 0 0 0
1932 0 0 0
1954 0 0 0
1955 0 0 0
1956 0 0 0
1963 0 0 0
1964 0 0 0
1965 0 0 0
2064 0 0 0
2065 0 0 0
2085 0 0 0
2086 0 0 0
2087 0 0 0
2088 0 0 0
2089 0 0 0
2090 0 0 0
2183 0 0 0
2184 0 0 0
2185 0 0 0
2186 0 0 0
2187 0 0 0
2188 0 0 0
2189 0 0 0
2215 0 0 0
2216 0 0 0
2217 0 0 0
2218 0 0 0
2219 0 0 0
2220 0 0 0
2227 0 0 0
2228 0 0 0
2229 0 0 0
2230 0 0 0
2231 0 0 0
2232 0 0 0
2245 0 0 0
2246 0 0 0
2247 0 0 0
2260 0 0 0
2261 0 0 0
2262 0 0 0
2266 0 0 0
2267 0 0 0
2268 0 0 0
2325 0 0 0
2326 0 0 0
2327 0 0 0
2328 0 0 0
2329 0 0 0
2345 0 0 0
2346 0 0 0
2347 0 0 0
2348 0 0 0
2349 0 0 0
2350 0 0 0
2372 0 0 0
2373 0 0 0
2374 0 0 0
2390 0 0 0
2391 0 0 0
2392 0 0 0
2422 0 0 0
2423 0 0 0
2424 0 0 0
2425 0 0 0
2426 0 0 0
2452 0 0 0
2453 0 0 0
2454 0 0 0
2455 0 0 0
2456 0 0 0
2457 0 0 0
2458 0 0 0
2459 0 0 0
2475 0 0 0
2476 0 0 0
2477 0 0 0
2166 0 0 0
2167 0 0 0
2168 0 0 0
2169 0 0 0
2170 0 0 0
2171 0 0 0
2172 0 0 0
2176 0 0 0
2178 0 0 0
2275 0 0 0
2276 0 0 0
2277 0 0 0
2293 0 0 0
2294 0 0 0
2295 0 0 0
2296 0 0 0
2297 0 0 0
2298 0 0 0
2310 0 0 0
2311 0 0 0
2312 0 0 0
2313 0 0 0
2314 0 0 0
2399 0 0 0
2400 0 0 0
2401 0 0 0
2414 0 0 0
2415 0 0 0
2416 0 0 0
2483 0 0 0
2486 0 0 0
2493 0 0 0
2495 0 0 0
2525 0 0 0
2526 0 0 0
2527 0 0 0
2528 0 0 0
2529 0 0 0
2530 0 0 0
2533 0 0 0
2534 0 0 0
2535 0 0 0
2536 0 0 0
2541 0 0 0
2542 0 0 0
2126 0 0 0
2127 0 0 0
2128 0 0 0
2129 0 0 0
2130 0 0 0
2131 0 0 0
2132 0 0 0
2133 0 0 0
2138 0 0 0
2140 0 0 0
2174 0 0 0
2175 0 0 0
2281 0 0 0
2282 0 0 0
2283 0 0 0
2284 0 0 0
2285 0 0 0
2286 0 0 0
2305 0 0 0
2306 0 0 0
2307 0 0 0
2308 0 0 0
2309 0 0 0
2396 0 0 0
2397 0 0 0
2398 0 0 0
2411 0 0 0
2412 0 0 0
2413 0 0 0
2482 0 0 0
2485 0 0 0
2492 0 0 0
2494 0 0 0
2501 0 0 0
2502 0 0 0
2503 0 0 0
2504 0 0 0
2519 0 0 0
2520 0 0 0
2521 0 0 0
2522 0 0 0
2523 0 0 0
2524 0 0 0
2531 0 0 0
2532 0 0 0
2427 0 0 0
2428 0 0 0
2429 0 0 0
2430 0 0 0
2431 0 0 0
2442 0 0 0
2443 0 0 0
2444 0 0 0
2445 0 0 0
2446 0 0 0
2466 0 0 0
2467 0 0 0
2468 0 0 0
2469 0 0 0
2470 0 0 0
2471 0 0 0
2181 0 0 0
2182 0 0 0
2209 0 0 0
2210 0 0 0
2211 0 0 0
2212 0 0 0
2213 0 0 0
2214 0 0 0
2239 0 0 0
2240 0 0 0
2241 0 0 0
2242 0 0 0
2243 0 0 0
2244 0 0 0
2251 0 0 0
2252 0 0 0
2253 0 0 0
2263 0 0 0
2264 0 0 0
2265 0 0 0
2340 0 0 0
2341 0 0 0
2342 0 0 0
2343 0 0 0
2344 0 0 0
2351 0 0 0
2352 0 0 0
2353 0 0 0
2354 0 0 0
2355 0 0 0
2356 0 0 0
2378 0 0 0
2379 0 0 0
2380 0 0 0
2387 0 0 0
2388 0 0 0
2389 0 0 0
2488 0 0 0
2489 0 0 0
2509 0 0 0
2510 0 0 0
2511 0 0 0
2512 0 0 0
2513 0 0 0
2514 0 0 0
2545 0 0 0
2546 0 0 0
2547 0 0 0
2548 0 0 0
2549 0 0 0
2558 0 0 0
2559 0 0 0
2560 0 0 0
2561 0 0 0
2563 0 0 0
2565 0 0 0
2566 0 0 0
2567 0 0 0
2568 0 0 0
2569 0 0 0
2575 0 0 0
2576 0 0 0
2577 0 0 0
2581 0 0 0
2584 0 0 0
2585 0 0 0
2586 0 0 0
2587 0 0 0
2588 0 0 0
2589 0 0 0
2702 0 0 0
2703 0 0 0
2704 0 0 0
2723 0 0 0
2724 0 0 0
2725 0 0 0
2726 0 0 0
2727 0 0 0
2728 0 0 0
2739 0 0 0
2740 0 0 0
2741 0 0 0
2742 0 0 0
2743 0 0 0
2826 0 0 0
2827 0 0 0
2828 0 0 0
2832 0 0 0
2833 0 0 0
2834 0 0 0
2856 0 0 0
2857 0 0 0
2858 0 0 0
2859 0 0 0
2860 0 0 0
2861 0 0 0
2862 0 0 0
2863 0 0 0
2864 0 0 0
2865 0 0 0
2887 0 0 0
2888 0 0 0
2889 0 0 0
2896 0 0 0
2897 0 0 0
2898 0 0 0
2614 0 0 0
2615 0 0 0
2616 0 0 0
2617 0 0 0
2618 0 0 0
2619 0 0 0
2620 0 0 0
2627 0 0 0
2628 0 0 0
2629 0 0 0
2630 0 0 0
2631 0 0 0
2632 0 0 0
2657 0 0 0
2658 0 0 0
2659 0 0 0
2660 0 0 0
2661 0 0 0
2662 0 0 0
2672 0 0 0
2673 0 0 0
2674 0 0 0
2678 0 0 0
2679 0 0 0
2680 0 0 0
2693 0 0 0
2694 0 0 0
2695 0 0 0
2754 0 0 0
2755 0 0 0
2756 0 0 0
2757 0 0 0
2758 0 0 0
2781 0 0 0
2782 0 0 0
2783 0 0 0
2784 0 0 0
2785 0 0 0
2786 0 0 0
2793 0 0 0
2794 0 0 0
2795 0 0 0
2805 0 0 0
2806 0 0 0
2807 0 0 0
2603 0 0 0
2604 0 0 0
2621 0 0 0
2622 0 0 0
2623 0 0 0
2624 0 0 0
2625 0 0 0
2626 0 0 0
2645 0 0 0
2646 0 0 0
2647 0 0 0
2648 0 0 0
2649 0 0 0
2650 0 0 0
2681 0 0 0
2682 0 0 0
2683 0 0 0
2696 0 0 0
2697 0 0 0
2698 0 0 0
2759 0 0 0
2760 0 0 0
2761 0 0 0
2762 0 0 0
2763 0 0 0
2787 0 0 0
2788 0 0 0
2789 0 0 0
2790 0 0 0
2791 0 0 0
2792 0 0 0
2799 0 0 0
2800 0 0 0
2801 0 0 0
2808 0 0 0
2809 0 0 0
2810 0 0 0
2911 0 0 0
2914 0 0 0
2929 0 0 0
2930 0 0 0
2931 0 0 0
2932 0 0 0
2939 0 0 0
2940 0 0 0
2841 0 0 0
2842 0 0 0
2843 0 0 0
2844 0 0 0
2845 0 0 0
2871 0 0 0
2872 0 0 0
2873 0 0 0
2874 0 0 0
2875 0 0 0
2884 0 0 0
2885 0 0 0
2886 0 0 0
2902 0 0 0
2903 0 0 0
2904 0 0 0
2570 0 0 0
2571 0 0 0
2572 0 0 0
2573 0 0 0
2574 0 0 0
2578 0 0 0
2579 0 0 0
2580 0 0 0
2582 0 0 0
2583 0 0 0
2597 0 0 0
2601 0 0 0
2711 0 0 0
2712 0 0 0
2713 0 0 0
2714 0 0 0
2715 0 0 0
2716 0 0 0
2744 0 0 0
2745 0 0 0
2746 0 0 0
2747 0 0 0
2748 0 0 0
2817 0 0 0
2818 0 0 0
2819 0 0 0
2829 0 0 0
2830 0 0 0
2831 0 0 0
2905 0 0 0
2908 0 0 0
2915 0 0 0
2920 0 0 0
2921 0 0 0
2922 0 0 0
2923 0 0 0
2924 0 0 0
2941 0 0 0
2942 0 0 0
2961 0 0 0
2962 0 0 0
2963 0 0 0
2964 0 0 0
2967 0 0 0
2968 0 0 0
2969 0 0 0
2970 0 0 0
2971 0 0 0
2972 0 0 0
2973 0 0 0
2982 0 0 0
2983 0 0 0
2984 0 0 0
2985 0 0 0
2987 0 0 0
2989 0 0 0
2990 0 0 0
2991 0 0 0
2992 0 0 0
2993 0 0 0
2999 0 0 0
3000 0 0 0
3001 0 0 0
3005 0 0 0
3008 0 0 0
3009 0 0 0
3010 0 0 0
3011 0 0 0
3012 0 0 0
3013 0 0 0
3126 0 0 0
3127 0 0 0
3128 0 0 0
3147 0 0 0
3148 0 0 0
3149 0 0 0
3150 0 0 0
3151 0 0 0
3152 0 0 0
3163 0 0 0
3164 0 0 0
3165 0 0 0
3166 0 0 0
3167 0 0 0
3250 0 0 0
3251 0 0 0
3252 0 0 0
3256 0 0 0
3257 0 0 0
3258 0 0 0
3280 0 0 0
3281 0 0 0
3282 0 0 0
3283 0 0 0
3284 0 0 0
3285 0 0 0
3286 0 0 0
3287 0 0 0
3288 0 0 0
3289 0 0 0
3311 0 0 0
3312 0 0 0
3313 0 0 0
3320 0 0 0
3321 0 0 0
3322 0 0 0
3038 0 0 0
3039 0 0 0
3040 0 0 0
3041 0 0 0
3042 0 0 0
3043 0 0 0
3044 0 0 0
3051 0 0 0
3052 0 0 0
3053 0 0 0
3054 0 0 0
3055 0 0 0
3056 0 0 0
3081 0 0 0
3082 0 0 0
3083 0 0 0
3084 0 0 0
3085 0 0 0
3086 0 0 0
3096 0 0 0
3097 0 0 0
3098 0 0 0
3102 0 0 0
3103 0 0 0
3104 0 0 0
3117 0 0 0
3118 0 0 0
3119 0 0 0
3178 0 0 0
3179 0 0 0
3180 0 0 0
3181 0 0 0
3182 0 0 0
3205 0 0 0
3206 0 0 0
3207 0 0 0
3208 0 0 0
3209 0 0 0
3210 0 0 0
3217 0 0 0
3218 0 0 0
3219 0 0 0
3229 0 0 0
3230 0 0 0
3231 0 0 0
3027 0 0 0
3028 0 0 0
3045 0 0 0
3046 0 0 0
3047 0 0 0
3048 0 0 0
3049 0 0 0
3050 0 0 0
3069 0 0 0
3070 0 0 0
3071 0 0 0
3072 0 0 0
3073 0 0 0
3074 0 0 0
3105 0 0 0
3106 0 0 0
3107 0 0 0
3120 0 0 0
3121 0 0 0
3122 0 0 0
3183 0 0 0
3184 0 0 0
3185 0 0 0
3186 0 0 0
3187 0 0 0
3211 0 0 0
3212 0 0 0
3213 0 0 0
3214 0 0 0
3215 0 0 0
3216 0 0 0
3223 0 0 0
3224 0 0 0
3225 0 0 0
3232 0 0 0
3233 0 0 0
3234 0 0 0
3335 0 0 0
3338 0 0 0
3353 0 0 0
3354 0 0 0
3355 0 0 0
3356 0 0 0
3363 0 0 0
3364 0 0 0
3265 0 0 0
3266 0 0 0
3267 0 0 0
3268 0 0 0
3269 0 0 0
3295 0 0 0
3296 0 0 0
3297 0 0 0
3298 0 0 0
3299 0 0 0
3308 0 0 0
3309 0 0 0
3310 0 0 0
3326 0 0 0
3327 0 0 0
3328 0 0 0
2994 0 0 0
2995 0 0 0
2996 0 0 0
2997 0 0 0
2998 0 0 0
3002 0 0 0
3003 0 0 0
3004 0 0 0
3006 0 0 0
3007 0 0 0
3021 0 0 0
3025 0 0 0
3135 0 0 0
3136 0 0 0
3137 0 0 0
3138 0 0 0
3139 0 0 0
3140 0 0 0
3168 0 0 0
3169 0 0 0
3170 0 0 0
3171 0 0 0
3172 0 0 0
3241 0 0 0
3242 0 0 0
3243 0 0 0
3253 0 0 0
3254 0 0 0
3255 0 0 0
3329 0 0 0
3332 0 0 0
3339 0 0 0
3344 0 0 0
3345 0 0 0
3346 0 0 0
3347 0 0 0
3348 0 0 0
3365 0 0 0
3366 0 0 0
3385 0 0 0
3386 0 0 0
3387 0 0 0
3388 0 0 0
3391 0 0 0
3392 0 0 0
2607 0 0 0
2608 0 0 0
2609 0 0 0
2610 0 0 0
2611 0 0 0
2612 0 0 0
2613 0 0 0
2639 0 0 0
2640 0 0 0
2641 0 0 0
2642 0 0 0
2643 0 0 0
2644 0 0 0
2651 0 0 0
2652 0 0 0
2653 0 0 0
2654 0 0 0
2655 0 0 0
2656 0 0 0
2669 0 0 0
2670 0 0 0
2671 0 0 0
2684 0 0 0
2685 0 0 0
2686 0 0 0
2690 0 0 0
2691 0 0 0
2692 0 0 0
2749 0 0 0
2750 0 0 0
2751 0 0 0
2752 0 0 0
2753 0 0 0
2769 0 0 0
2770 0 0 0
2771 0 0 0
2772 0 0 0
2773 0 0 0
2774 0 0 0
2796 0 0 0
2797 0 0 0
2798 0 0 0
2814 0 0 0
2815 0 0 0
2816 0 0 0
2846 0 0 0
2847 0 0 0
2848 0 0 0
2849 0 0 0
2850 0 0 0
2876 0 0 0
2877 0 0 0
2878 0 0 0
2879 0 0 0
2880 0 0 0
2881 0 0 0
2882 0 0 0
2883 0 0 0
2899 0 0 0
2900 0 0 0
2901 0 0 0
2590 0 0 0
2591 0 0 0
2592 0 0 0
2593 0 0 0
2594 0 0 0
2595 0 0 0
2596 0 0 0
2600 0 0 0
2602 0 0 0
2699 0 0 0
2700 0 0 0
2701 0 0 0
2717 0 0 0
2718 0 0 0
2719 0 0 0
2720 0 0 0
2721 0 0 0
2722 0 0 0
2734 0 0 0
2735 0 0 0
2736 0 0 0
2737 0 0 0
2738 0 0 0
2823 0 0 0
2824 0 0 0
2825 0 0 0
2838 0 0 0
2839 0 0 0
2840 0 0 0
2907 0 0 0
2910 0 0 0
2917 0 0 0
2919 0 0 0
2949 0 0 0
2950 0 0 0
2951 0 0 0
2952 0 0 0
2953 0 0 0
2954 0 0 0
2957 0 0 0
2958 0 0 0
2959 0 0 0
2960 0 0 0
2965 0 0 0
2966 0 0 0
2550 0 0 0
2551 0 0 0
2552 0 0 0
2553 0 0 0
2554 0 0 0
2555 0 0 0
2556 0 0 0
2557 0 0 0
2562 0 0 0
2564 0 0 0
2598 0 0 0
2599 0 0 0
2705 0 0 0
2706 0 0 0
2707 0 0 0
2708 0 0 0
2709 0 0 0
2710 0 0 0
2729 0 0 0
2730 0 0 0
2731 0 0 0
2732 0 0 0
2733 0 0 0
2820 0 0 0
2821 0 0 0
2822 0 0 0
2835 0 0 0
2836 0 0 0
2837 0 0 0
2906 0 0 0
2909 0 0 0
2916 0 0 0
2918 0 0 0
2925 0 0 0
2926 0 0 0
2927 0 0 0
2928 0 0 0
2943 0 0 0
2944 0 0 0
2945 0 0 0
2946 0 0 0
2947 0 0 0
2948 0 0 0
2955 0 0 0
2956 0 0 0
2851 0 0 0
2852 0 0 0
2853 0 0 0
2854 0 0 0
2855 0 0 0
2866 0 0 0
2867 0 0 0
2868 0 0 0
2869 0 0 0
2870 0 0 0
2890 0 0 0
2891 0 0 0
2892 0 0 0
2893 0 0 0
2894 0 0 0
2895 0 0 0
2605 0 0 0
2606 0 0 0
2633 0 0 0
2634 0 0 0
2635 0 0 0
2636 0 0 0
2637 0 0 0
2638 0 0 0
2663 0 0 0
2664 0 0 0
2665 0 0 0
2666 0 0 0
2667 0 0 0
2668 0 0 0
2675 0 0 0
2676 0 0 0
2677 0 0 0
2687 0 0 0
2688 0 0 0
2689 0 0 0
2764 0 0 0
2765 0 0 0
2766 0 0 0
2767 0 0 0
2768 0 0 0
2775 0 0 0
2776 0 0 0
2777 0 0 0
2778 0 0 0
2779 0 0 0
2780 0 0 0
2802 0 0 0
2803 0 0 0
2804 0 0 0
2811 0 0 0
2812 0 0 0
2813 0 0 0
2912 0 0 0
2913 0 0 0
2933 0 0 0
2934 0 0 0
2935 0 0 0
2936 0 0 0
2937 0 0 0
2938 0 0 0
3031 0 0 0
3032 0 0 0
3033 0 0 0
3034 0 0 0
3035 0 0 0
3036 0 0 0
3037 0 0 0
3063 0 0 0
3064 0 0 0
3065 0 0 0
3066 0 0 0
3067 0 0 0
3068 0 0 0
3075 0 0 0
3076 0 0 0
3077 0 0 0
3078 0 0 0
3079 0 0 0
3080 0 0 0
3093 0 0 0
3094 0 0 0
3095 0 0 0
3108 0 0 0
3109 0 0 0
3110 0 0 0
3114 0 0 0
3115 0 0 0
3116 0 0 0
3173 0 0 0
3174 0 0 0
3175 0 0 0
3176 0 0 0
3177 0 0 0
3193 0 0 0
3194 0 0 0
3195 0 0 0
3196 0 0 0
3197 0 0 0
3198 0 0 0
3220 0 0 0
3221 0 0 0
3222 0 0 0
3238 0 0 0
3239 0 0 0
3240 0 0 0
3270 0 0 0
3271 0 0 0
3272 0 0 0
3273 0 0 0
3274 0 0 0
3300 0 0 0
3301 0 0 0
3302 0 0 0
3303 0 0 0
3304 0 0 0
3305 0 0 0
3306 0 0 0
3307 0 0 0
3323 0 0 0
3324 0 0 0
3325 0 0 0
3014 0 0 0
3015 0 0 0
3016 0 0 0
3017 0 0 0
3018 0 0 0
3019 0 0 0
3020 0 0 0
3024 0 0 0
3026 0 0 0
3123 0 0 0
3124 0 0 0
3125 0 0 0
3141 0 0 0
3142 0 0 0
3143 0 0 0
3144 0 0 0
3145 0 0 0
3146 0 0 0
3158 0 0 0
3159 0 0 0
3160 0 0 0
3161 0 0 0
3162 0 0 0
3247 0 0 0
3248 0 0 0
3249 0 0 0
3262 0 0 0
3263 0 0 0
3264 0 0 0
3331 0 0 0
3334 0 0 0
3341 0 0 0
3343 0 0 0
3373 0 0 0
3374 0 0 0
3375 0 0 0
3376 0 0 0
3377 0 0 0
3378 0 0 0
3381 0 0 0
3382 0 0 0
3383 0 0 0
3384 0 0 0
3389 0 0 0
3390 0 0 0
2974 0 0 0
2975 0 0 0
2976 0 0 0
2977 0 0 0
2978 0 0 0
2979 0 0 0
2980 0 0 0
2981 0 0 0
2986 0 0 0
2988 0 0 0
3022 0 0 0
3023 0 0 0
3129 0 0 0
3130 0 0 0
3131 0 0 0
3132 0 0 0
3133 0 0 0
3134 0 0 0
3153 0 0 0
3154 0 0 0
3155 0 0 0
3156 0 0 0
3157 0 0 0
3244 0 0 0
3245 0 0 0
3246 0 0 0
3259 0 0 0
3260 0 0 0
3261 0 0 0
3330 0 0 0
3333 0 0 0
3340 0 0 0
3342 0 0 0
3349 0 0 0
3350 0 0 0
3351 0 0 0
3352 0 0 0
3367 0 0 0
3368 0 0 0
3369 0 0 0
3370 0 0 0
3371 0 0 0
3372 0 0 0
3379 0 0 0
3380 0 0 0
3275 0 0 0
3276 0 0 0
3277 0 0 0
3278 0 0 0
3279 0 0 0
3290 0 0 0
3291 0 0 0
3292 0 0 0
3293 0 0 0
3294 0 0 0
3314 0 0 0
3315 0 0 0
3316 0 0 0
3317 0 0 0
3318 0 0 0
3319 0 0 0
3029 0 0 0
3030 0 0 0
3057 0 0 0
3058 0 0 0
3059 0 0 0
3060 0 0 0
3061 0 0 0
3062 0 0 0
3087 0 0 0
3088 0 0 0
3089 0 0 0
3090 0 0 0
3091 0 0 0
3092 0 0 0
3099 0 0 0
3100 0 0 0
3101 0 0 0
3111 0 0 0
3112 0 0 0
3113 0 0 0
3188 0 0 0
3189 0 0 0
3190 0 0 0
3191 0 0 0
3192 0 0 0
3199 0 0 0
3200 0 0 0
3201 0 0 0
3202 0 0 0
3203 0 0 0
3204 0 0 0
3226 0 0 0
3227 0 0 0
3228 0 0 0
3235 0 0 0
3236 0 0 0
3237 0 0 0
3336 0 0 0
3337 0 0 0
3357 0 0 0
3358 0 0 0
3359 0 0 0
3360 0 0 0
3361 0 0 0
3362 0 0 0

Bonds

1 1 1 2
2 2 1 17
3 3 2 3
4 1 2 14
5 4 3 4
6 4 3 15
7 5 4 5
8 4 4 1831
9 2 14 19
10 5 15 16
11 4 15 1813
12 2 17 40
13 2 17 158
14 2 17 195
15 2 19 21
16 2 19 40
17 2 19 282
18 1 21 22
19 3 22 23
20 1 22 31
21 4 23 24
22 4 23 32
23 5 24 25
24 4 24 995
25 2 31 37
26 5 32 33
27 4 32 947
28 2 37 40
29 2 37 41
30 2 37 352
31 2 40 179
32 1 41 42
33 3 42 43
34 1 42 158
35 4 43 44
36 4 43 159
37 5 44 45
38 4 44 819
39 5 159 160
40 4 159 811
41 2 179 180
42 2 179 288
43 2 179 312
44 1 180 181
45 3 181 182
46 1 181 282
47 4 182 183
48 4 182 283
49 5 183 184
50 4 183 256
51 1 195 196
52 3 196 197
53 1 196 288
54 4 197 198
55 4 197 289
56 5 198 199
57 4 198 271
58 5 283 284
59 5 289 290
60 1 312 313
61 3 313 314
62 1 313 352
63 4 314 315
64 4 314 353
65 5 315 316
66 4 315 344
67 1 317 318
68 3 318 319
69 1 318 343
70 4 319 320
71 4 319 344
72 5 320 321
73 4 320 353
74 5 344 345
75 5 353 354
76 2 70 71
77 2 70 72
78 2 70 134
79 2 70 261
80 2 71 83
81 2 71 113
82 2 71 237
83 1 72 73
84 3 73 74
85 1 73 128
86 4 74 75
87 4 74 129
88 5 75 76
89 4 75 821
90 2 83 84
91 2 83 128
92 2 83 317
93 1 84 85
94 3 85 86
95 1 85 149
96 4 86 87
97 4 86 150
98 5 87 88
99 4 87 1257
100 2 113 114
101 2 113 149
102 2 113 210
103 1 114 115
104 3 115 116
105 1 115 134
106 4 116 117
107 4 116 135
108 5 117 118
109 5 129 130
110 4 129 803
111 5 135 136
112 5 150 151
113 4 150 1255
114 1 210 211
115 3 211 212
116 1 211 249
117 4 212 213
118 4 212 250
119 5 213 214
120 4 213 274
121 2 237 238
122 2 237 249
123 2 237 343
124 1 238 239
125 3 239 240
126 1 239 261
127 4 240 241
128 4 240 262
129 5 241 242
130 4 241 295
131 5 250 251
132 5 262 263
133 2 59 60
134 2 59 137
135 2 59 264
136 2 59 367
137 2 60 77
138 2 60 101
139 2 60 243
140 2 77 78
141 2 77 327
142 2 77 370
143 1 78 79
144 3 79 80
145 1 79 152
146 4 80 81
147 4 80 153
148 5 81 82
149 4 81 1259
150 2 101 102
151 2 101 152
152 2 101 215
153 1 102 103
154 3 103 104
155 1 103 137
156 4 104 105
157 4 104 138
158 5 105 106
159 4 105 2119
160 5 138 139
161 4 138 2115
162 5 153 154
163 4 153 1251
164 1 215 216
165 3 216 217
166 1 216 255
167 4 217 218
168 4 217 256
169 5 218 219
170 4 218 283
171 2 243 244
172 2 243 255
173 2 243 340
174 1 244 245
175 3 245 246
176 1 245 264
177 4 246 247
178 4 246 265
179 5 247 248
180 4 247 292
181 5 256 257
182 5 265 266
183 1 367 385
184 1 370 385
185 3 385 386
186 4 386 387
187 4 386 395
188 5 387 388
189 5 395 396
190 1 297 298
191 3 298 299
192 1 298 358
193 4 299 300
194 4 299 359
195 5 300 301
196 4 300 341
197 1 327 328
198 3 328 329
199 1 328 340
200 4 329 330
201 4 329 341
202 5 330 331
203 4 330 359
204 5 341 342
205 5 359 360
206 1 26 27
207 2 26 39
208 3 27 28
209 1 27 34
210 4 28 29
211 4 28 35
212 5 29 30
213 4 29 992
214 2 34 38
215 5 35 36
216 4 35 941
217 2 38 53
218 2 38 358
219 2 38 361
220 2 39 53
221 2 39 273
222 2 39 376
223 2 53 57
224 2 53 167
225 2 57 200
226 2 57 364
227 2 57 371
228 2 167 168
229 2 167 285
230 2 167 297
231 1 168 169
232 3 169 170
233 1 169 273
234 4 170 171
235 4 170 274
236 5 171 172
237 4 171 250
238 1 200 201
239 3 201 202
240 1 201 285
241 4 202 203
242 4 202 286
243 5 203 204
244 4 203 268
245 5 274 275
246 5 286 287
247 1 361 377
248 1 364 417
249 1 371 377
250 1 376 417
251 3 377 378
252 4 378 379
253 4 378 397
254 5 379 380
255 5 397 398
256 3 417 418
257 4 418 419
258 4 418 423
259 5 419 420
260 5 423 424
261 1 425 426
262 2 425 441
263 3 426 427
264 1 426 438
265 4 427 428
266 4 427 439
267 5 428 429
268 4 428 2255
269 2 438 443
270 5 439 440
271 4 439 2237
272 2 441 464
273 2 441 582
274 2 441 619
275 2 443 445
276 2 443 464
277 2 443 706
278 1 445 446
279 3 446 447
280 1 446 455
281 4 447 448
282 4 447 456
283 5 448 449
284 4 448 1419
285 2 455 461
286 5 456 457
287 4 456 1371
288 2 461 464
289 2 461 465
290 2 461 776
291 2 464 603
292 1 465 466
293 3 466 467
294 1 466 582
295 4 467 468
296 4 467 583
297 4 468 395
298 5 468 469
299 4 583 387
300 5 583 584
301 2 603 604
302 2 603 712
303 2 603 736
304 1 604 605
305 3 605 606
306 1 605 706
307 4 606 607
308 4 606 707
309 5 607 608
310 4 607 680
311 1 619 620
312 3 620 621
313 1 620 712
314 4 621 622
315 4 621 713
316 5 622 623
317 4 622 695
318 5 707 708
319 5 713 714
320 1 736 737
321 3 737 738
322 1 737 776
323 4 738 739
324 4 738 777
325 5 739 740
326 4 739 768
327 1 741 742
328 3 742 743
329 1 742 767
330 4 743 744
331 4 743 768
332 5 744 745
333 4 744 777
334 5 768 769
335 5 777 778
336 2 494 495
337 2 494 496
338 2 494 558
339 2 494 685
340 2 495 507
341 2 495 537
342 2 495 661
343 1 496 497
344 3 497 498
345 1 497 552
346 4 498 499
347 4 498 553
348 4 499 397
349 5 499 500
350 2 507 508
351 2 507 552
352 2 507 741
353 1 508 509
354 3 509 510
355 1 509 573
356 4 510 511
357 4 510 574
358 5 511 512
359 4 511 1681
360 2 537 538
361 2 537 573
362 2 537 634
363 1 538 539
364 3 539 540
365 1 539 558
366 4 540 541
367 4 540 559
368 5 541 542
369 4 553 379
370 5 553 554
371 5 559 560
372 5 574 575
373 4 574 1679
374 1 634 635
375 3 635 636
376 1 635 673
377 4 636 637
378 4 636 674
379 5 637 638
380 4 637 698
381 2 661 662
382 2 661 673
383 2 661 767
384 1 662 663
385 3 663 664
386 1 663 685
387 4 664 665
388 4 664 686
389 5 665 666
390 4 665 719
391 5 674 675
392 5 686 687
393 2 483 484
394 2 483 561
395 2 483 688
396 2 483 791
397 2 484 501
398 2 484 525
399 2 484 667
400 2 501 502
401 2 501 751
402 2 501 794
403 1 502 503
404 3 503 504
405 1 503 576
406 4 504 505
407 4 504 577
408 5 505 506
409 4 505 1683
410 2 525 526
411 2 525 576
412 2 525 639
413 1 526 527
414 3 527 528
415 1 527 561
416 4 528 529
417 4 528 562
418 5 529 530
419 4 529 2543
420 5 562 563
421 4 562 2539
422 5 577 578
423 4 577 1675
424 1 639 640
425 3 640 641
426 1 640 679
427 4 641 642
428 4 641 680
429 5 642 643
430 4 642 707
431 2 667 668
432 2 667 679
433 2 667 764
434 1 668 669
435 3 669 670
436 1 669 688
437 4 670 671
438 4 670 689
439 5 671 672
440 4 671 716
441 5 680 681
442 5 689 690
443 1 791 809
444 1 794 809
445 3 809 810
446 4 810 811
447 4 810 819
448 5 811 812
449 5 819 820
450 1 721 722
451 3 722 723
452 1 722 782
453 4 723 724
454 4 723 783
455 5 724 725
456 4 724 765
457 1 751 752
458 3 752 753
459 1 752 764
460 4 753 754
461 4 753 765
462 5 754 755
463 4 754 783
464 5 765 766
465 5 783 784
466 1 450 451
467 2 450 463
468 3 451 452
469 1 451 458
470 4 452 453
471 4 452 459
472 5 453 454
473 4 453 1416
474 2 458 462
475 5 459 460
476 4 459 1365
477 2 462 477
478 2 462 782
479 2 462 785
480 2 463 477
481 2 463 697
482 2 463 800
483 2 477 481
484 2 477 591
485 2 481 624
486 2 481 788
487 2 481 795
488 2 591 592
489 2 591 709
490 2 591 721
491 1 592 593
492 3 593 594
493 1 593 697
494 4 594 595
495 4 594 698
496 5 595 596
497 4 595 674
498 1 624 625
499 3 625 626
500 1 625 709
501 4 626 627
502 4 626 710
503 5 627 628
504 4 627 692
505 5 698 699
506 5 710 711
507 1 785 801
508 1 788 841
509 1 795 801
510 1 800 841
511 3 801 802
512 4 802 803
513 4 802 821
514 5 803 804
515 5 821 822
516 3 841 842
517 4 842 843
518 4 842 847
519 5 843 844
520 5 847 848
521 2 63 64
522 2 63 65
523 2 63 140
524 2 63 270
525 2 64 95
526 2 64 107
527 2 64 225
528 1 65 66
529 3 66 67
530 1 66 125
531 4 67 68
532 4 67 126
533 5 68 69
534 4 68 823
535 2 95 96
536 2 95 125
537 2 95 332
538 1 96 97
539 3 97 98
540 1 97 146
541 4 98 99
542 4 98 147
543 5 99 100
544 2 107 108
545 2 107 146
546 2 107 205
547 1 108 109
548 3 109 110
549 1 109 140
550 4 110 111
551 4 110 141
552 5 111 112
553 4 111 2117
554 5 126 127
555 4 126 807
556 5 141 142
557 4 141 2111
558 5 147 148
559 1 205 206
560 3 206 207
561 1 206 252
562 4 207 208
563 4 207 253
564 5 208 209
565 4 208 277
566 2 225 226
567 2 225 252
568 2 225 337
569 1 226 227
570 3 227 228
571 1 227 270
572 4 228 229
573 4 228 271
574 5 229 230
575 4 229 289
576 5 253 254
577 5 271 272
578 1 302 303
579 3 303 304
580 1 303 355
581 4 304 305
582 4 304 356
583 5 305 306
584 4 305 338
585 1 332 333
586 3 333 334
587 1 333 337
588 4 334 335
589 4 334 338
590 5 335 336
591 4 335 356
592 5 338 339
593 5 356 357
594 2 46 47
595 2 46 48
596 2 46 355
597 2 46 373
598 2 47 56
599 2 47 58
600 2 47 173
601 1 48 49
602 3 49 50
603 1 49 155
604 4 50 51
605 4 50 156
606 5 51 52
607 4 51 817
608 2 56 155
609 2 56 190
610 2 56 363
611 2 58 279
612 2 58 366
613 2 58 375
614 5 156 157
615 4 156 815
616 2 173 174
617 2 173 294
618 2 173 302
619 1 174 175
620 3 175 176
621 1 175 279
622 4 176 177
623 4 176 280
624 5 177 178
625 4 177 259
626 1 190 191
627 3 191 192
628 1 191 294
629 4 192 193
630 4 192 295
631 5 193 194
632 4 193 262
633 5 280 281
634 5 295 296
635 1 363 413
636 1 366 405
637 1 373 405
638 1 375 413
639 3 405 406
640 4 406 407
641 4 406 409
642 5 407 408
643 5 409 410
644 3 413 414
645 4 414 415
646 4 414 421
647 5 415 416
648 5 421 422
649 1 6 7
650 2 6 18
651 3 7 8
652 1 7 11
653 4 8 9
654 4 8 12
655 5 9 10
656 4 9 1828
657 2 11 20
658 5 12 13
659 4 12 1819
660 2 18 55
661 2 18 185
662 2 18 372
663 2 20 55
664 2 20 276
665 2 20 365
666 2 54 55
667 2 54 349
668 2 54 362
669 2 54 374
670 2 55 161
671 2 161 162
672 2 161 291
673 2 161 307
674 1 162 163
675 3 163 164
676 1 163 276
677 4 164 165
678 4 164 277
679 5 165 166
680 4 165 253
681 1 185 186
682 3 186 187
683 1 186 291
684 4 187 188
685 4 187 292
686 5 188 189
687 4 188 265
688 5 277 278
689 5 292 293
690 1 362 381
691 1 365 401
692 1 372 381
693 1 374 401
694 3 381 382
695 4 382 383
696 4 382 399
697 5 383 384
698 5 399 400
699 3 401 402
700 4 402 403
701 4 402 411
702 5 403 404
703 5 411 412
704 1 307 308
705 3 308 309
706 1 308 349
707 4 309 310
708 4 309 350
709 5 310 311
710 4 310 347
711 1 322 323
712 3 323 324
713 1 323 346
714 4 324 325
715 4 324 347
716 5 325 326
717 4 325 350
718 5 347 348
719 5 350 351
720 2 61 62
721 2 61 131
722 2 61 267
723 2 61 368
724 2 62 89
725 2 62 119
726 2 62 231
727 2 89 90
728 2 89 322
729 2 89 369
730 1 90 91
731 3 91 92
732 1 91 143
733 4 92 93
734 4 92 144
735 5 93 94
736 2 119 120
737 2 119 143
738 2 119 220
739 1 120 121
740 3 121 122
741 1 121 131
742 4 122 123
743 4 122 132
744 5 123 124
745 5 132 133
746 5 144 145
747 1 220 221
748 3 221 222
749 1 221 258
750 4 222 223
751 4 222 259
752 5 223 224
753 4 223 280
754 2 231 232
755 2 231 258
756 2 231 346
757 1 232 233
758 3 233 234
759 1 233 267
760 4 234 235
761 4 234 268
762 5 235 236
763 4 235 286
764 5 259 260
765 5 268 269
766 1 368 389
767 1 369 389
768 3 389 390
769 4 390 391
770 4 390 393
771 5 391 392
772 5 393 394
773 2 487 488
774 2 487 489
775 2 487 564
776 2 487 694
777 2 488 519
778 2 488 531
779 2 488 649
780 1 489 490
781 3 490 491
782 1 490 549
783 4 491 492
784 4 491 550
785 4 492 399
786 5 492 493
787 2 519 520
788 2 519 549
789 2 519 756
790 1 520 521
791 3 521 522
792 1 521 570
793 4 522 523
794 4 522 571
795 5 523 524
796 2 531 532
797 2 531 570
798 2 531 629
799 1 532 533
800 3 533 534
801 1 533 564
802 4 534 535
803 4 534 565
804 5 535 536
805 4 535 2541
806 4 550 383
807 5 550 551
808 5 565 566
809 4 565 2535
810 5 571 572
811 1 629 630
812 3 630 631
813 1 630 676
814 4 631 632
815 4 631 677
816 5 632 633
817 4 632 701
818 2 649 650
819 2 649 676
820 2 649 761
821 1 650 651
822 3 651 652
823 1 651 694
824 4 652 653
825 4 652 695
826 5 653 654
827 4 653 713
828 5 677 678
829 5 695 696
830 1 726 727
831 3 727 728
832 1 727 779
833 4 728 729
834 4 728 780
835 5 729 730
836 4 729 762
837 1 756 757
838 3 757 758
839 1 757 761
840 4 758 759
841 4 758 762
842 5 759 760
843 4 759 780
844 5 762 763
845 5 780 781
846 2 470 471
847 2 470 472
848 2 470 779
849 2 470 797
850 2 471 480
851 2 471 482
852 2 471 597
853 1 472 473
854 3 473 474
855 1 473 579
856 4 474 475
857 4 474 580
858 4 475 393
859 5 475 476
860 2 480 579
861 2 480 614
862 2 480 787
863 2 482 703
864 2 482 790
865 2 482 799
866 4 580 391
867 5 580 581
868 2 597 598
869 2 597 718
870 2 597 726
871 1 598 599
872 3 599 600
873 1 599 703
874 4 600 601
875 4 600 704
876 5 601 602
877 4 601 683
878 1 614 615
879 3 615 616
880 1 615 718
881 4 616 617
882 4 616 719
883 5 617 618
884 4 617 686
885 5 704 705
886 5 719 720
887 1 787 837
888 1 790 829
889 1 797 829
890 1 799 837
891 3 829 830
892 4 830 831
893 4 830 833
894 5 831 832
895 5 833 834
896 3 837 838
897 4 838 839
898 4 838 845
899 5 839 840
900 5 845 846
901 1 430 431
902 2 430 442
903 3 431 432
904 1 431 435
905 4 432 433
906 4 432 436
907 5 433 434
908 4 433 2252
909 2 435 444
910 5 436 437
911 4 436 2243
912 2 442 479
913 2 442 609
914 2 442 796
915 2 444 479
916 2 444 700
917 2 444 789
918 2 478 479
919 2 478 773
920 2 478 786
921 2 478 798
922 2 479 585
923 2 585 586
924 2 585 715
925 2 585 731
926 1 586 587
927 3 587 588
928 1 587 700
929 4 588 589
930 4 588 701
931 5 589 590
932 4 589 677
933 1 609 610
934 3 610 611
935 1 610 715
936 4 611 612
937 4 611 716
938 5 612 613
939 4 612 689
940 5 701 702
941 5 716 717
942 1 786 805
943 1 789 825
944 1 796 805
945 1 798 825
946 3 805 806
947 4 806 807
948 4 806 823
949 5 807 808
950 5 823 824
951 3 825 826
952 4 826 827
953 4 826 835
954 5 827 828
955 5 835 836
956 1 731 732
957 3 732 733
958 1 732 773
959 4 733 734
960 4 733 774
961 5 734 735
962 4 734 771
963 1 746 747
964 3 747 748
965 1 747 770
966 4 748 749
967 4 748 771
968 5 749 750
969 4 749 774
970 5 771 772
971 5 774 775
972 2 485 486
973 2 485 555
974 2 485 691
975 2 485 792
976 2 486 513
977 2 486 543
978 2 486 655
979 2 513 514
980 2 513 746
981 2 513 793
982 1 514 515
983 3 515 516
984 1 515 567
985 4 516 517
986 4 516 568
987 5 517 518
988 2 543 544
989 2 543 567
990 2 543 644
991 1 544 545
992 3 545 546
993 1 545 555
994 4 546 547
995 4 546 556
996 5 547 548
997 5 556 557
998 5 568 569
999 1 644 645
1000 3 645 646
1001 1 645 682
1002 4 646 647
1003 4 646 683
1004 5 647 648
1005 4 647 704
1006 2 655 656
1007 2 655 682
1008 2 655 770
1009 1 656 657
1010 3 657 658
1011 1 657 691
1012 4 658 659
1013 4 658 692
1014 5 659 660
1015 4 659 710
1016 5 683 684
1017 5 692 693
1018 1 792 813
1019 1 793 813
1020 3 813 814
1021 4 814 815
1022 4 814 817
1023 5 815 816
1024 5 817 818
1025 1 849 850
1026 2 849 865
1027 3 850 851
1028 1 850 862
1029 4 851 852
1030 4 851 863
1031 5 852 853
1032 4 852 2679
1033 2 862 867
1034 5 863 864
1035 4 863 2661
1036 2 865 888
1037 2 865 1006
1038 2 865 1043
1039 2 867 869
1040 2 867 888
1041 2 867 1130
1042 1 869 870
1043 3 870 871
1044 1 870 879
1045 4 871 872
1046 4 871 880
1047 4 872 147
1048 5 872 873
1049 2 879 885
1050 4 880 99
1051 5 880 881
1052 2 885 888
1053 2 885 889
1054 2 885 1200
1055 2 888 1027
1056 1 889 890
1057 3 890 891
1058 1 890 1006
1059 4 891 892
1060 4 891 1007
1061 5 892 893
1062 4 892 1667
1063 5 1007 1008
1064 4 1007 1659
1065 2 1027 1028
1066 2 1027 1136
1067 2 1027 1160
1068 1 1028 1029
1069 3 1029 1030
1070 1 1029 1130
1071 4 1030 1031
1072 4 1030 1131
1073 5 1031 1032
1074 4 1031 1104
1075 1 1043 1044
1076 3 1044 1045
1077 1 1044 1136
1078 4 1045 1046
1079 4 1045 1137
1080 5 1046 1047
1081 4 1046 1119
1082 5 1131 1132
1083 5 1137 1138
1084 1 1160 1161
1085 3 1161 1162
1086 1 1161 1200
1087 4 1162 1163
1088 4 1162 1201
1089 5 1163 1164
1090 4 1163 1192
1091 1 1165 1166
1092 3 1166 1167
1093 1 1166 1191
1094 4 1167 1168
1095 4 1167 1192
1096 5 1168 1169
1097 4 1168 1201
1098 5 1192 1193
1099 5 1201 1202
1100 2 918 919
1101 2 918 920
1102 2 918 982
1103 2 918 1109
1104 2 919 931
1105 2 919 961
1106 2 919 1085
1107 1 920 921
1108 3 921 922
1109 1 921 976
1110 4 922 923
1111 4 922 977
1112 5 923 924
1113 4 923 1669
1114 2 931 932
1115 2 931 976
1116 2 931 1165
1117 1 932 933
1118 3 933 934
1119 1 933 997
1120 4 934 935
1121 4 934 998
1122 4 935 409
1123 5 935 936
1124 2 961 962
1125 2 961 997
1126 2 961 1058
1127 1 962 963
1128 3 963 964
1129 1 963 982
1130 4 964 965
1131 4 964 983
1132 5 965 966
1133 5 977 978
1134 4 977 1651
1135 5 983 984
1136 4 998 407
1137 5 998 999
1138 1 1058 1059
1139 3 1059 1060
1140 1 1059 1097
1141 4 1060 1061
1142 4 1060 1098
1143 5 1061 1062
1144 4 1061 1122
1145 2 1085 1086
1146 2 1085 1097
1147 2 1085 1191
1148 1 1086 1087
1149 3 1087 1088
1150 1 1087 1109
1151 4 1088 1089
1152 4 1088 1110
1153 5 1089 1090
1154 4 1089 1143
1155 5 1098 1099
1156 5 1110 1111
1157 2 907 908
1158 2 907 985
1159 2 907 1112
1160 2 907 1215
1161 2 908 925
1162 2 908 949
1163 2 908 1091
1164 2 925 926
1165 2 925 1175
1166 2 925 1218
1167 1 926 927
1168 3 927 928
1169 1 927 1000
1170 4 928 929
1171 4 928 1001
1172 4 929 411
1173 5 929 930
1174 2 949 950
1175 2 949 1000
1176 2 949 1063
1177 1 950 951
1178 3 951 952
1179 1 951 985
1180 4 952 953
1181 4 952 986
1182 5 953 954
1183 4 953 2967
1184 5 986 987
1185 4 986 2963
1186 4 1001 403
1187 5 1001 1002
1188 1 1063 1064
1189 3 1064 1065
1190 1 1064 1103
1191 4 1065 1066
1192 4 1065 1104
1193 5 1066 1067
1194 4 1066 1131
1195 2 1091 1092
1196 2 1091 1103
1197 2 1091 1188
1198 1 1092 1093
1199 3 1093 1094
1200 1 1093 1112
1201 4 1094 1095
1202 4 1094 1113
1203 5 1095 1096
1204 4 1095 1140
1205 5 1104 1105
1206 5 1113 1114
1207 1 1215 1233
1208 1 1218 1233
1209 3 1233 1234
1210 4 1234 1235
1211 4 1234 1243
1212 5 1235 1236
1213 5 1243 1244
1214 1 1145 1146
1215 3 1146 1147
1216 1 1146 1206
1217 4 1147 1148
1218 4 1147 1207
1219 5 1148 1149
1220 4 1148 1189
1221 1 1175 1176
1222 3 1176 1177
1223 1 1176 1188
1224 4 1177 1178
1225 4 1177 1189
1226 5 1178 1179
1227 4 1178 1207
1228 5 1189 1190
1229 5 1207 1208
1230 1 874 875
1231 2 874 887
1232 3 875 876
1233 1 875 882
1234 4 876 877
1235 4 876 883
1236 4 877 144
1237 5 877 878
1238 2 882 886
1239 4 883 93
1240 5 883 884
1241 2 886 901
1242 2 886 1206
1243 2 886 1209
1244 2 887 901
1245 2 887 1121
1246 2 887 1224
1247 2 901 905
1248 2 901 1015
1249 2 905 1048
1250 2 905 1212
1251 2 905 1219
1252 2 1015 1016
1253 2 1015 1133
1254 2 1015 1145
1255 1 1016 1017
1256 3 1017 1018
1257 1 1017 1121
1258 4 1018 1019
1259 4 1018 1122
1260 5 1019 1020
1261 4 1019 1098
1262 1 1048 1049
1263 3 1049 1050
1264 1 1049 1133
1265 4 1050 1051
1266 4 1050 1134
1267 5 1051 1052
1268 4 1051 1116
1269 5 1122 1123
1270 5 1134 1135
1271 1 1209 1225
1272 1 1212 1265
1273 1 1219 1225
1274 1 1224 1265
1275 3 1225 1226
1276 4 1226 1227
1277 4 1226 1245
1278 5 1227 1228
1279 5 1245 1246
1280 3 1265 1266
1281 4 1266 1267
1282 4 1266 1271
1283 5 1267 1268
1284 5 1271 1272
1285 1 1273 1274
1286 2 1273 1289
1287 3 1274 1275
1288 1 1274 1286
1289 4 1275 1276
1290 4 1275 1287
1291 5 1276 1277
1292 4 1276 3103
1293 2 1286 1291
1294 5 1287 1288
1295 4 1287 3085
1296 2 1289 1312
1297 2 1289 1430
1298 2 1289 1467
1299 2 1291 1293
1300 2 1291 1312
1301 2 1291 1554
1302 1 1293 1294
1303 3 1294 1295
1304 1 1294 1303
1305 4 1295 1296
1306 4 1295 1304
1307 4 1296 571
1308 5 1296 1297
1309 2 1303 1309
1310 4 1304 523
1311 5 1304 1305
1312 2 1309 1312
1313 2 1309 1313
1314 2 1309 1624
1315 2 1312 1451
1316 1 1313 1314
1317 3 1314 1315
1318 1 1314 1430
1319 4 1315 1316
1320 4 1315 1431
1321 4 1316 1243
1322 5 1316 1317
1323 4 1431 1235
1324 5 1431 1432
1325 2 1451 1452
1326 2 1451 1560
1327 2 1451 1584
1328 1 1452 1453
1329 3 1453 1454
1330 1 1453 1554
1331 4 1454 1455
1332 4 1454 1555
1333 5 1455 1456
1334 4 1455 1528
1335 1 1467 1468
1336 3 1468 1469
1337 1 1468 1560
1338 4 1469 1470
1339 4 1469 1561
1340 5 1470 1471
1341 4 1470 1543
1342 5 1555 1556
1343 5 1561 1562
1344 1 1584 1585
1345 3 1585 1586
1346 1 1585 1624
1347 4 1586 1587
1348 4 1586 1625
1349 5 1587 1588
1350 4 1587 1616
1351 1 1589 1590
1352 3 1590 1591
1353 1 1590 1615
1354 4 1591 1592
1355 4 1591 1616
1356 5 1592 1593
1357 4 1592 1625
1358 5 1616 1617
1359 5 1625 1626
1360 2 1342 1343
1361 2 1342 1344
1362 2 1342 1406
1363 2 1342 1533
1364 2 1343 1355
1365 2 1343 1385
1366 2 1343 1509
1367 1 1344 1345
1368 3 1345 1346
1369 1 1345 1400
1370 4 1346 1347
1371 4 1346 1401
1372 4 1347 1245
1373 5 1347 1348
1374 2 1355 1356
1375 2 1355 1400
1376 2 1355 1589
1377 1 1356 1357
1378 3 1357 1358
1379 1 1357 1421
1380 4 1358 1359
1381 4 1358 1422
1382 4 1359 833
1383 5 1359 1360
1384 2 1385 1386
1385 2 1385 1421
1386 2 1385 1482
1387 1 1386 1387
1388 3 1387 1388
1389 1 1387 1406
1390 4 1388 1389
1391 4 1388 1407
1392 5 1389 1390
1393 4 1401 1227
1394 5 1401 1402
1395 5 1407 1408
1396 4 1422 831
1397 5 1422 1423
1398 1 1482 1483
1399 3 1483 1484
1400 1 1483 1521
1401 4 1484 1485
1402 4 1484 1522
1403 5 1485 1486
1404 4 1485 1546
1405 2 1509 1510
1406 2 1509 1521
1407 2 1509 1615
1408 1 1510 1511
1409 3 1511 1512
1410 1 1511 1533
1411 4 1512 1513
1412 4 1512 1534
1413 5 1513 1514
1414 4 1513 1567
1415 5 1522 1523
1416 5 1534 1535
1417 2 1331 1332
1418 2 1331 1409
1419 2 1331 1536
1420 2 1331 1639
1421 2 1332 1349
1422 2 1332 1373
1423 2 1332 1515
1424 2 1349 1350
1425 2 1349 1599
1426 2 1349 1642
1427 1 1350 1351
1428 3 1351 1352
1429 1 1351 1424
1430 4 1352 1353
1431 4 1352 1425
1432 4 1353 835
1433 5 1353 1354
1434 2 1373 1374
1435 2 1373 1424
1436 2 1373 1487
1437 1 1374 1375
1438 3 1375 1376
1439 1 1375 1409
1440 4 1376 1377
1441 4 1376 1410
1442 5 1377 1378
1443 4 1377 3391
1444 5 1410 1411
1445 4 1410 3387
1446 4 1425 827
1447 5 1425 1426
1448 1 1487 1488
1449 3 1488 1489
1450 1 1488 1527
1451 4 1489 1490
1452 4 1489 1528
1453 5 1490 1491
1454 4 1490 1555
1455 2 1515 1516
1456 2 1515 1527
1457 2 1515 1612
1458 1 1516 1517
1459 3 1517 1518
1460 1 1517 1536
1461 4 1518 1519
1462 4 1518 1537
1463 5 1519 1520
1464 4 1519 1564
1465 5 1528 1529
1466 5 1537 1538
1467 1 1639 1657
1468 1 1642 1657
1469 3 1657 1658
1470 4 1658 1659
1471 4 1658 1667
1472 5 1659 1660
1473 5 1667 1668
1474 1 1569 1570
1475 3 1570 1571
1476 1 1570 1630
1477 4 1571 1572
1478 4 1571 1631
1479 5 1572 1573
1480 4 1572 1613
1481 1 1599 1600
1482 3 1600 1601
1483 1 1600 1612
1484 4 1601 1602
1485 4 1601 1613
1486 5 1602 1603
1487 4 1602 1631
1488 5 1613 1614
1489 5 1631 1632
1490 1 1298 1299
1491 2 1298 1311
1492 3 1299 1300
1493 1 1299 1306
1494 4 1300 1301
1495 4 1300 1307
1496 4 1301 568
1497 5 1301 1302
1498 2 1306 1310
1499 4 1307 517
1500 5 1307 1308
1501 2 1310 1325
1502 2 1310 1630
1503 2 1310 1633
1504 2 1311 1325
1505 2 1311 1545
1506 2 1311 1648
1507 2 1325 1329
1508 2 1325 1439
1509 2 1329 1472
1510 2 1329 1636
1511 2 1329 1643
1512 2 1439 1440
1513 2 1439 1557
1514 2 1439 1569
1515 1 1440 1441
1516 3 1441 1442
1517 1 1441 1545
1518 4 1442 1443
1519 4 1442 1546
1520 5 1443 1444
1521 4 1443 1522
1522 1 1472 1473
1523 3 1473 1474
1524 1 1473 1557
1525 4 1474 1475
1526 4 1474 1558
1527 5 1475 1476
1528 4 1475 1540
1529 5 1546 1547
1530 5 1558 1559
1531 1 1633 1649
1532 1 1636 1689
1533 1 1643 1649
1534 1 1648 1689
1535 3 1649 1650
1536 4 1650 1651
1537 4 1650 1669
1538 5 1651 1652
1539 5 1669 1670
1540 3 1689 1690
1541 4 1690 1691
1542 4 1690 1695
1543 5 1691 1692
1544 5 1695 1696
1545 2 911 912
1546 2 911 913
1547 2 911 988
1548 2 911 1118
1549 2 912 943
1550 2 912 955
1551 2 912 1073
1552 1 913 914
1553 3 914 915
1554 1 914 973
1555 4 915 916
1556 4 915 974
1557 5 916 917
1558 4 916 1671
1559 2 943 944
1560 2 943 973
1561 2 943 1180
1562 1 944 945
1563 3 945 946
1564 1 945 994
1565 4 946 947
1566 4 946 995
1567 5 947 948
1568 2 955 956
1569 2 955 994
1570 2 955 1053
1571 1 956 957
1572 3 957 958
1573 1 957 988
1574 4 958 959
1575 4 958 989
1576 5 959 960
1577 4 959 2965
1578 5 974 975
1579 4 974 1655
1580 5 989 990
1581 4 989 2959
1582 5 995 996
1583 1 1053 1054
1584 3 1054 1055
1585 1 1054 1100
1586 4 1055 1056
1587 4 1055 1101
1588 5 1056 1057
1589 4 1056 1125
1590 2 1073 1074
1591 2 1073 1100
1592 2 1073 1185
1593 1 1074 1075
1594 3 1075 1076
1595 1 1075 1118
1596 4 1076 1077
1597 4 1076 1119
1598 5 1077 1078
1599 4 1077 1137
1600 5 1101 1102
1601 5 1119 1120
1602 1 1150 1151
1603 3 1151 1152
1604 1 1151 1203
1605 4 1152 1153
1606 4 1152 1204
1607 5 1153 1154
1608 4 1153 1186
1609 1 1180 1181
1610 3 1181 1182
1611 1 1181 1185
1612 4 1182 1183
1613 4 1182 1186
1614 5 1183 1184
1615 4 1183 1204
1616 5 1186 1187
1617 5 1204 1205
1618 2 894 895
1619 2 894 896
1620 2 894 1203
1621 2 894 1221
1622 2 895 904
1623 2 895 906
1624 2 895 1021
1625 1 896 897
1626 3 897 898
1627 1 897 1003
1628 4 898 899
1629 4 898 1004
1630 5 899 900
1631 4 899 1665
1632 2 904 1003
1633 2 904 1038
1634 2 904 1211
1635 2 906 1127
1636 2 906 1214
1637 2 906 1223
1638 5 1004 1005
1639 4 1004 1663
1640 2 1021 1022
1641 2 1021 1142
1642 2 1021 1150
1643 1 1022 1023
1644 3 1023 1024
1645 1 1023 1127
1646 4 1024 1025
1647 4 1024 1128
1648 5 1025 1026
1649 4 1025 1107
1650 1 1038 1039
1651 3 1039 1040
1652 1 1039 1142
1653 4 1040 1041
1654 4 1040 1143
1655 5 1041 1042
1656 4 1041 1110
1657 5 1128 1129
1658 5 1143 1144
1659 1 1211 1261
1660 1 1214 1253
1661 1 1221 1253
1662 1 1223 1261
1663 3 1253 1254
1664 4 1254 1255
1665 4 1254 1257
1666 5 1255 1256
1667 5 1257 1258
1668 3 1261 1262
1669 4 1262 1263
1670 4 1262 1269
1671 5 1263 1264
1672 5 1269 1270
1673 1 854 855
1674 2 854 866
1675 3 855 856
1676 1 855 859
1677 4 856 857
1678 4 856 860
1679 5 857 858
1680 4 857 2676
1681 2 859 868
1682 5 860 861
1683 4 860 2667
1684 2 866 903
1685 2 866 1033
1686 2 866 1220
1687 2 868 903
1688 2 868 1124
1689 2 868 1213
1690 2 902 903
1691 2 902 1197
1692 2 902 1210
1693 2 902 1222
1694 2 903 1009
1695 2 1009 1010
1696 2 1009 1139
1697 2 1009 1155
1698 1 1010 1011
1699 3 1011 1012
1700 1 1011 1124
1701 4 1012 1013
1702 4 1012 1125
1703 5 1013 1014
1704 4 1013 1101
1705 1 1033 1034
1706 3 1034 1035
1707 1 1034 1139
1708 4 1035 1036
1709 4 1035 1140
1710 5 1036 1037
1711 4 1036 1113
1712 5 1125 1126
1713 5 1140 1141
1714 1 1210 1229
1715 1 1213 1249
1716 1 1220 1229
1717 1 1222 1249
1718 3 1229 1230
1719 4 1230 1231
1720 4 1230 1247
1721 5 1231 1232
1722 5 1247 1248
1723 3 1249 1250
1724 4 1250 1251
1725 4 1250 1259
1726 5 1251 1252
1727 5 1259 1260
1728 1 1155 1156
1729 3 1156 1157
1730 1 1156 1197
1731 4 1157 1158
1732 4 1157 1198
1733 5 1158 1159
1734 4 1158 1195
1735 1 1170 1171
1736 3 1171 1172
1737 1 1171 1194
1738 4 1172 1173
1739 4 1172 1195
1740 5 1173 1174
1741 4 1173 1198
1742 5 1195 1196
1743 5 1198 1199
1744 2 909 910
1745 2 909 979
1746 2 909 1115
1747 2 909 1216
1748 2 910 937
1749 2 910 967
1750 2 910 1079
1751 2 937 938
1752 2 937 1170
1753 2 937 1217
1754 1 938 939
1755 3 939 940
1756 1 939 991
1757 4 940 941
1758 4 940 992
1759 5 941 942
1760 2 967 968
1761 2 967 991
1762 2 967 1068
1763 1 968 969
1764 3 969 970
1765 1 969 979
1766 4 970 971
1767 4 970 980
1768 5 971 972
1769 5 980 981
1770 5 992 993
1771 1 1068 1069
1772 3 1069 1070
1773 1 1069 1106
1774 4 1070 1071
1775 4 1070 1107
1776 5 1071 1072
1777 4 1071 1128
1778 2 1079 1080
1779 2 1079 1106
1780 2 1079 1194
1781 1 1080 1081
1782 3 1081 1082
1783 1 1081 1115
1784 4 1082 1083
1785 4 1082 1116
1786 5 1083 1084
1787 4 1083 1134
1788 5 1107 1108
1789 5 1116 1117
1790 1 1216 1237
1791 1 1217 1237
1792 3 1237 1238
1793 4 1238 1239
1794 4 1238 1241
1795 5 1239 1240
1796 5 1241 1242
1797 2 1335 1336
1798 2 1335 1337
1799 2 1335 1412
1800 2 1335 1542
1801 2 1336 1367
1802 2 1336 1379
1803 2 1336 1497
1804 1 1337 1338
1805 3 1338 1339
1806 1 1338 1397
1807 4 1339 1340
1808 4 1339 1398
1809 4 1340 1247
1810 5 1340 1341
1811 2 1367 1368
1812 2 1367 1397
1813 2 1367 1604
1814 1 1368 1369
1815 3 1369 1370
1816 1 1369 1418
1817 4 1370 1371
1818 4 1370 1419
1819 5 1371 1372
1820 2 1379 1380
1821 2 1379 1418
1822 2 1379 1477
1823 1 1380 1381
1824 3 1381 1382
1825 1 1381 1412
1826 4 1382 1383
1827 4 1382 1413
1828 5 1383 1384
1829 4 1383 3389
1830 4 1398 1231
1831 5 1398 1399
1832 5 1413 1414
1833 4 1413 3383
1834 5 1419 1420
1835 1 1477 1478
1836 3 1478 1479
1837 1 1478 1524
1838 4 1479 1480
1839 4 1479 1525
1840 5 1480 1481
1841 4 1480 1549
1842 2 1497 1498
1843 2 1497 1524
1844 2 1497 1609
1845 1 1498 1499
1846 3 1499 1500
1847 1 1499 1542
1848 4 1500 1501
1849 4 1500 1543
1850 5 1501 1502
1851 4 1501 1561
1852 5 1525 1526
1853 5 1543 1544
1854 1 1574 1575
1855 3 1575 1576
1856 1 1575 1627
1857 4 1576 1577
1858 4 1576 1628
1859 5 1577 1578
1860 4 1577 1610
1861 1 1604 1605
1862 3 1605 1606
1863 1 1605 1609
1864 4 1606 1607
1865 4 1606 1610
1866 5 1607 1608
1867 4 1607 1628
1868 5 1610 1611
1869 5 1628 1629
1870 2 1318 1319
1871 2 1318 1320
1872 2 1318 1627
1873 2 1318 1645
1874 2 1319 1328
1875 2 1319 1330
1876 2 1319 1445
1877 1 1320 1321
1878 3 1321 1322
1879 1 1321 1427
1880 4 1322 1323
1881 4 1322 1428
1882 4 1323 1241
1883 5 1323 1324
1884 2 1328 1427
1885 2 1328 1462
1886 2 1328 1635
1887 2 1330 1551
1888 2 1330 1638
1889 2 1330 1647
1890 4 1428 1239
1891 5 1428 1429
1892 2 1445 1446
1893 2 1445 1566
1894 2 1445 1574
1895 1 1446 1447
1896 3 1447 1448
1897 1 1447 1551
1898 4 1448 1449
1899 4 1448 1552
1900 5 1449 1450
1901 4 1449 1531
1902 1 1462 1463
1903 3 1463 1464
1904 1 1463 1566
1905 4 1464 1465
1906 4 1464 1567
1907 5 1465 1466
1908 4 1465 1534
1909 5 1552 1553
1910 5 1567 1568
1911 1 1635 1685
1912 1 1638 1677
1913 1 1645 1677
1914 1 1647 1685
1915 3 1677 1678
1916 4 1678 1679
1917 4 1678 1681
1918 5 1679 1680
1919 5 1681 1682
1920 3 1685 1686
1921 4 1686 1687
1922 4 1686 1693
1923 5 1687 1688
1924 5 1693 1694
1925 1 1278 1279
1926 2 1278 1290
1927 3 1279 1280
1928 1 1279 1283
1929 4 1280 1281
1930 4 1280 1284
1931 5 1281 1282
1932 4 1281 3100
1933 2 1283 1292
1934 5 1284 1285
1935 4 1284 3091
1936 2 1290 1327
1937 2 1290 1457
1938 2 1290 1644
1939 2 1292 1327
1940 2 1292 1548
1941 2 1292 1637
1942 2 1326 1327
1943 2 1326 1621
1944 2 1326 1634
1945 2 1326 1646
1946 2 1327 1433
1947 2 1433 1434
1948 2 1433 1563
1949 2 1433 1579
1950 1 1434 1435
1951 3 1435 1436
1952 1 1435 1548
1953 4 1436 1437
1954 4 1436 1549
1955 5 1437 1438
1956 4 1437 1525
1957 1 1457 1458
1958 3 1458 1459
1959 1 1458 1563
1960 4 1459 1460
1961 4 1459 1564
1962 5 1460 1461
1963 4 1460 1537
1964 5 1549 1550
1965 5 1564 1565
1966 1 1634 1653
1967 1 1637 1673
1968 1 1644 1653
1969 1 1646 1673
1970 3 1653 1654
1971 4 1654 1655
1972 4 1654 1671
1973 5 1655 1656
1974 5 1671 1672
1975 3 1673 1674
1976 4 1674 1675
1977 4 1674 1683
1978 5 1675 1676
1979 5 1683 1684
1980 1 1579 1580
1981 3 1580 1581
1982 1 1580 1621
1983 4 1581 1582
1984 4 1581 1622
1985 5 1582 1583
1986 4 1582 1619
1987 1 1594 1595
1988 3 1595 1596
1989 1 1595 1618
1990 4 1596 1597
1991 4 1596 1619
1992 5 1597 1598
1993 4 1597 1622
1994 5 1619 1620
1995 5 1622 1623
1996 2 1333 1334
1997 2 1333 1403
1998 2 1333 1539
1999 2 1333 1640
2000 2 1334 1361
2001 2 1334 1391
2002 2 1334 1503
2003 2 1361 1362
2004 2 1361 1594
2005 2 1361 1641
2006 1 1362 1363
2007 3 1363 1364
2008 1 1363 1415
2009 4 1364 1365
2010 4 1364 1416
2011 5 1365 1366
2012 2 1391 1392
2013 2 1391 1415
2014 2 1391 1492
2015 1 1392 1393
2016 3 1393 1394
2017 1 1393 1403
2018 4 1394 1395
2019 4 1394 1404
2020 5 1395 1396
2021 5 1404 1405
2022 5 1416 1417
2023 1 1492 1493
2024 3 1493 1494
2025 1 1493 1530
2026 4 1494 1495
2027 4 1494 1531
2028 5 1495 1496
2029 4 1495 1552
2030 2 1503 1504
2031 2 1503 1530
2032 2 1503 1618
2033 1 1504 1505
2034 3 1505 1506
2035 1 1505 1539
2036 4 1506 1507
2037 4 1506 1540
2038 5 1507 1508
2039 4 1507 1558
2040 5 1531 1532
2041 5 1540 1541
2042 1 1640 1661
2043 1 1641 1661
2044 3 1661 1662
2045 4 1662 1663
2046 4 1662 1665
2047 5 1663 1664
2048 5 1665 1666
2049 1 1697 1698
2050 2 1697 1713
2051 3 1698 1699
2052 1 1698 1710
2053 4 1699 1700
2054 4 1699 1711
2055 4 1700 135
2056 5 1700 1701
2057 2 1710 1715
2058 4 1711 117
2059 5 1711 1712
2060 2 1713 1736
2061 2 1713 1854
2062 2 1713 1891
2063 2 1715 1717
2064 2 1715 1736
2065 2 1715 1978
2066 1 1717 1718
2067 3 1718 1719
2068 1 1718 1727
2069 4 1719 1720
2070 4 1719 1728
2071 5 1720 1721
2072 4 1720 2691
2073 2 1727 1733
2074 5 1728 1729
2075 4 1728 2643
2076 2 1733 1736
2077 2 1733 1737
2078 2 1733 2048
2079 2 1736 1875
2080 1 1737 1738
2081 3 1738 1739
2082 1 1738 1854
2083 4 1739 1740
2084 4 1739 1855
2085 5 1740 1741
2086 4 1740 2515
2087 5 1855 1856
2088 4 1855 2507
2089 2 1875 1876
2090 2 1875 1984
2091 2 1875 2008
2092 1 1876 1877
2093 3 1877 1878
2094 1 1877 1978
2095 4 1878 1879
2096 4 1878 1979
2097 5 1879 1880
2098 4 1879 1952
2099 1 1891 1892
2100 3 1892 1893
2101 1 1892 1984
2102 4 1893 1894
2103 4 1893 1985
2104 5 1894 1895
2105 4 1894 1967
2106 5 1979 1980
2107 5 1985 1986
2108 1 2008 2009
2109 3 2009 2010
2110 1 2009 2048
2111 4 2010 2011
2112 4 2010 2049
2113 5 2011 2012
2114 4 2011 2040
2115 1 2013 2014
2116 3 2014 2015
2117 1 2014 2039
2118 4 2015 2016
2119 4 2015 2040
2120 5 2016 2017
2121 4 2016 2049
2122 5 2040 2041
2123 5 2049 2050
2124 2 1766 1767
2125 2 1766 1768
2126 2 1766 1830
2127 2 1766 1957
2128 2 1767 1779
2129 2 1767 1809
2130 2 1767 1933
2131 1 1768 1769
2132 3 1769 1770
2133 1 1769 1824
2134 4 1770 1771
2135 4 1770 1825
2136 5 1771 1772
2137 4 1771 2517
2138 2 1779 1780
2139 2 1779 1824
2140 2 1779 2013
2141 1 1780 1781
2142 3 1781 1782
2143 1 1781 1845
2144 4 1782 1783
2145 4 1782 1846
2146 5 1783 1784
2147 4 1783 2953
2148 2 1809 1810
2149 2 1809 1845
2150 2 1809 1906
2151 1 1810 1811
2152 3 1811 1812
2153 1 1811 1830
2154 4 1812 1813
2155 4 1812 1831
2156 5 1813 1814
2157 5 1825 1826
2158 4 1825 2499
2159 5 1831 1832
2160 5 1846 1847
2161 4 1846 2951
2162 1 1906 1907
2163 3 1907 1908
2164 1 1907 1945
2165 4 1908 1909
2166 4 1908 1946
2167 5 1909 1910
2168 4 1909 1970
2169 2 1933 1934
2170 2 1933 1945
2171 2 1933 2039
2172 1 1934 1935
2173 3 1935 1936
2174 1 1935 1957
2175 4 1936 1937
2176 4 1936 1958
2177 5 1937 1938
2178 4 1937 1991
2179 5 1946 1947
2180 5 1958 1959
2181 2 1755 1756
2182 2 1755 1833
2183 2 1755 1960
2184 2 1755 2063
2185 2 1756 1773
2186 2 1756 1797
2187 2 1756 1939
2188 2 1773 1774
2189 2 1773 2023
2190 2 1773 2066
2191 1 1774 1775
2192 3 1775 1776
2193 1 1775 1848
2194 4 1776 1777
2195 4 1776 1849
2196 5 1777 1778
2197 4 1777 2955
2198 2 1797 1798
2199 2 1797 1848
2200 2 1797 1911
2201 1 1798 1799
2202 3 1799 1800
2203 1 1799 1833
2204 4 1800 1801
2205 4 1800 1834
2206 4 1801 423
2207 5 1801 1802
2208 4 1834 419
2209 5 1834 1835
2210 5 1849 1850
2211 4 1849 2947
2212 1 1911 1912
2213 3 1912 1913
2214 1 1912 1951
2215 4 1913 1914
2216 4 1913 1952
2217 5 1914 1915
2218 4 1914 1979
2219 2 1939 1940
2220 2 1939 1951
2221 2 1939 2036
2222 1 1940 1941
2223 3 1941 1942
2224 1 1941 1960
2225 4 1942 1943
2226 4 1942 1961
2227 5 1943 1944
2228 4 1943 1988
2229 5 1952 1953
2230 5 1961 1962
2231 1 2063 2081
2232 1 2066 2081
2233 3 2081 2082
2234 4 2082 2083
2235 4 2082 2091
2236 5 2083 2084
2237 5 2091 2092
2238 1 1993 1994
2239 3 1994 1995
2240 1 1994 2054
2241 4 1995 1996
2242 4 1995 2055
2243 5 1996 1997
2244 4 1996 2037
2245 1 2023 2024
2246 3 2024 2025
2247 1 2024 2036
2248 4 2025 2026
2249 4 2025 2037
2250 5 2026 2027
2251 4 2026 2055
2252 5 2037 2038
2253 5 2055 2056
2254 1 1722 1723
2255 2 1722 1735
2256 3 1723 1724
2257 1 1723 1730
2258 4 1724 1725
2259 4 1724 1731
2260 5 1725 1726
2261 4 1725 2688
2262 2 1730 1734
2263 5 1731 1732
2264 4 1731 2637
2265 2 1734 1749
2266 2 1734 2054
2267 2 1734 2057
2268 2 1735 1749
2269 2 1735 1969
2270 2 1735 2072
2271 2 1749 1753
2272 2 1749 1863
2273 2 1753 1896
2274 2 1753 2060
2275 2 1753 2067
2276 2 1863 1864
2277 2 1863 1981
2278 2 1863 1993
2279 1 1864 1865
2280 3 1865 1866
2281 1 1865 1969
2282 4 1866 1867
2283 4 1866 1970
2284 5 1867 1868
2285 4 1867 1946
2286 1 1896 1897
2287 3 1897 1898
2288 1 1897 1981
2289 4 1898 1899
2290 4 1898 1982
2291 5 1899 1900
2292 4 1899 1964
2293 5 1970 1971
2294 5 1982 1983
2295 1 2057 2073
2296 1 2060 2113
2297 1 2067 2073
2298 1 2072 2113
2299 3 2073 2074
2300 4 2074 2075
2301 4 2074 2093
2302 5 2075 2076
2303 5 2093 2094
2304 3 2113 2114
2305 4 2114 2115
2306 4 2114 2119
2307 5 2115 2116
2308 5 2119 2120
2309 1 2121 2122
2310 2 2121 2137
2311 3 2122 2123
2312 1 2122 2134
2313 4 2123 2124
2314 4 2123 2135
2315 4 2124 559
2316 5 2124 2125
2317 2 2134 2139
2318 4 2135 541
2319 5 2135 2136
2320 2 2137 2160
2321 2 2137 2278
2322 2 2137 2315
2323 2 2139 2141
2324 2 2139 2160
2325 2 2139 2402
2326 1 2141 2142
2327 3 2142 2143
2328 1 2142 2151
2329 4 2143 2144
2330 4 2143 2152
2331 5 2144 2145
2332 4 2144 3115
2333 2 2151 2157
2334 5 2152 2153
2335 4 2152 3067
2336 2 2157 2160
2337 2 2157 2161
2338 2 2157 2472
2339 2 2160 2299
2340 1 2161 2162
2341 3 2162 2163
2342 1 2162 2278
2343 4 2163 2164
2344 4 2163 2279
2345 4 2164 2091
2346 5 2164 2165
2347 4 2279 2083
2348 5 2279 2280
2349 2 2299 2300
2350 2 2299 2408
2351 2 2299 2432
2352 1 2300 2301
2353 3 2301 2302
2354 1 2301 2402
2355 4 2302 2303
2356 4 2302 2403
2357 5 2303 2304
2358 4 2303 2376
2359 1 2315 2316
2360 3 2316 2317
2361 1 2316 2408
2362 4 2317 2318
2363 4 2317 2409
2364 5 2318 2319
2365 4 2318 2391
2366 5 2403 2404
2367 5 2409 2410
2368 1 2432 2433
2369 3 2433 2434
2370 1 2433 2472
2371 4 2434 2435
2372 4 2434 2473
2373 5 2435 2436
2374 4 2435 2464
2375 1 2437 2438
2376 3 2438 2439
2377 1 2438 2463
2378 4 2439 2440
2379 4 2439 2464
2380 5 2440 2441
2381 4 2440 2473
2382 5 2464 2465
2383 5 2473 2474
2384 2 2190 2191
2385 2 2190 2192
2386 2 2190 2254
2387 2 2190 2381
2388 2 2191 2203
2389 2 2191 2233
2390 2 2191 2357
2391 1 2192 2193
2392 3 2193 2194
2393 1 2193 2248
2394 4 2194 2195
2395 4 2194 2249
2396 4 2195 2093
2397 5 2195 2196
2398 2 2203 2204
2399 2 2203 2248
2400 2 2203 2437
2401 1 2204 2205
2402 3 2205 2206
2403 1 2205 2269
2404 4 2206 2207
2405 4 2206 2270
2406 5 2207 2208
2407 4 2207 3377
2408 2 2233 2234
2409 2 2233 2269
2410 2 2233 2330
2411 1 2234 2235
2412 3 2235 2236
2413 1 2235 2254
2414 4 2236 2237
2415 4 2236 2255
2416 5 2237 2238
2417 4 2249 2075
2418 5 2249 2250
2419 5 2255 2256
2420 5 2270 2271
2421 4 2270 3375
2422 1 2330 2331
2423 3 2331 2332
2424 1 2331 2369
2425 4 2332 2333
2426 4 2332 2370
2427 5 2333 2334
2428 4 2333 2394
2429 2 2357 2358
2430 2 2357 2369
2431 2 2357 2463
2432 1 2358 2359
2433 3 2359 2360
2434 1 2359 2381
2435 4 2360 2361
2436 4 2360 2382
2437 5 2361 2362
2438 4 2361 2415
2439 5 2370 2371
2440 5 2382 2383
2441 2 2179 2180
2442 2 2179 2257
2443 2 2179 2384
2444 2 2179 2487
2445 2 2180 2197
2446 2 2180 2221
2447 2 2180 2363
2448 2 2197 2198
2449 2 2197 2447
2450 2 2197 2490
2451 1 2198 2199
2452 3 2199 2200
2453 1 2199 2272
2454 4 2200 2201
2455 4 2200 2273
2456 5 2201 2202
2457 4 2201 3379
2458 2 2221 2222
2459 2 2221 2272
2460 2 2221 2335
2461 1 2222 2223
2462 3 2223 2224
2463 1 2223 2257
2464 4 2224 2225
2465 4 2224 2258
2466 4 2225 847
2467 5 2225 2226
2468 4 2258 843
2469 5 2258 2259
2470 5 2273 2274
2471 4 2273 3371
2472 1 2335 2336
2473 3 2336 2337
2474 1 2336 2375
2475 4 2337 2338
2476 4 2337 2376
2477 5 2338 2339
2478 4 2338 2403
2479 2 2363 2364
2480 2 2363 2375
2481 2 2363 2460
2482 1 2364 2365
2483 3 2365 2366
2484 1 2365 2384
2485 4 2366 2367
2486 4 2366 2385
2487 5 2367 2368
2488 4 2367 2412
2489 5 2376 2377
2490 5 2385 2386
2491 1 2487 2505
2492 1 2490 2505
2493 3 2505 2506
2494 4 2506 2507
2495 4 2506 2515
2496 5 2507 2508
2497 5 2515 2516
2498 1 2417 2418
2499 3 2418 2419
2500 1 2418 2478
2501 4 2419 2420
2502 4 2419 2479
2503 5 2420 2421
2504 4 2420 2461
2505 1 2447 2448
2506 3 2448 2449
2507 1 2448 2460
2508 4 2449 2450
2509 4 2449 2461
2510 5 2450 2451
2511 4 2450 2479
2512 5 2461 2462
2513 5 2479 2480
2514 1 2146 2147
2515 2 2146 2159
2516 3 2147 2148
2517 1 2147 2154
2518 4 2148 2149
2519 4 2148 2155
2520 5 2149 2150
2521 4 2149 3112
2522 2 2154 2158
2523 5 2155 2156
2524 4 2155 3061
2525 2 2158 2173
2526 2 2158 2478
2527 2 2158 2481
2528 2 2159 2173
2529 2 2159 2393
2530 2 2159 2496
2531 2 2173 2177
2532 2 2173 2287
2533 2 2177 2320
2534 2 2177 2484
2535 2 2177 2491
2536 2 2287 2288
2537 2 2287 2405
2538 2 2287 2417
2539 1 2288 2289
2540 3 2289 2290
2541 1 2289 2393
2542 4 2290 2291
2543 4 2290 2394
2544 5 2291 2292
2545 4 2291 2370
2546 1 2320 2321
2547 3 2321 2322
2548 1 2321 2405
2549 4 2322 2323
2550 4 2322 2406
2551 5 2323 2324
2552 4 2323 2388
2553 5 2394 2395
2554 5 2406 2407
2555 1 2481 2497
2556 1 2484 2537
2557 1 2491 2497
2558 1 2496 2537
2559 3 2497 2498
2560 4 2498 2499
2561 4 2498 2517
2562 5 2499 2500
2563 5 2517 2518
2564 3 2537 2538
2565 4 2538 2539
2566 4 2538 2543
2567 5 2539 2540
2568 5 2543 2544
2569 2 1759 1760
2570 2 1759 1761
2571 2 1759 1836
2572 2 1759 1966
2573 2 1760 1791
2574 2 1760 1803
2575 2 1760 1921
2576 1 1761 1762
2577 3 1762 1763
2578 1 1762 1821
2579 4 1763 1764
2580 4 1763 1822
2581 5 1764 1765
2582 4 1764 2519
2583 2 1791 1792
2584 2 1791 1821
2585 2 1791 2028
2586 1 1792 1793
2587 3 1793 1794
2588 1 1793 1842
2589 4 1794 1795
2590 4 1794 1843
2591 5 1795 1796
2592 2 1803 1804
2593 2 1803 1842
2594 2 1803 1901
2595 1 1804 1805
2596 3 1805 1806
2597 1 1805 1836
2598 4 1806 1807
2599 4 1806 1837
2600 4 1807 421
2601 5 1807 1808
2602 5 1822 1823
2603 4 1822 2503
2604 4 1837 415
2605 5 1837 1838
2606 5 1843 1844
2607 1 1901 1902
2608 3 1902 1903
2609 1 1902 1948
2610 4 1903 1904
2611 4 1903 1949
2612 5 1904 1905
2613 4 1904 1973
2614 2 1921 1922
2615 2 1921 1948
2616 2 1921 2033
2617 1 1922 1923
2618 3 1923 1924
2619 1 1923 1966
2620 4 1924 1925
2621 4 1924 1967
2622 5 1925 1926
2623 4 1925 1985
2624 5 1949 1950
2625 5 1967 1968
2626 1 1998 1999
2627 3 1999 2000
2628 1 1999 2051
2629 4 2000 2001
2630 4 2000 2052
2631 5 2001 2002
2632 4 2001 2034
2633 1 2028 2029
2634 3 2029 2030
2635 1 2029 2033
2636 4 2030 2031
2637 4 2030 2034
2638 5 2031 2032
2639 4 2031 2052
2640 5 2034 2035
2641 5 2052 2053
2642 2 1742 1743
2643 2 1742 1744
2644 2 1742 2051
2645 2 1742 2069
2646 2 1743 1752
2647 2 1743 1754
2648 2 1743 1869
2649 1 1744 1745
2650 3 1745 1746
2651 1 1745 1851
2652 4 1746 1747
2653 4 1746 1852
2654 5 1747 1748
2655 4 1747 2513
2656 2 1752 1851
2657 2 1752 1886
2658 2 1752 2059
2659 2 1754 1975
2660 2 1754 2062
2661 2 1754 2071
2662 5 1852 1853
2663 4 1852 2511
2664 2 1869 1870
2665 2 1869 1990
2666 2 1869 1998
2667 1 1870 1871
2668 3 1871 1872
2669 1 1871 1975
2670 4 1872 1873
2671 4 1872 1976
2672 5 1873 1874
2673 4 1873 1955
2674 1 1886 1887
2675 3 1887 1888
2676 1 1887 1990
2677 4 1888 1889
2678 4 1888 1991
2679 5 1889 1890
2680 4 1889 1958
2681 5 1976 1977
2682 5 1991 1992
2683 1 2059 2109
2684 1 2062 2101
2685 1 2069 2101
2686 1 2071 2109
2687 3 2101 2102
2688 4 2102 2103
2689 4 2102 2105
2690 5 2103 2104
2691 5 2105 2106
2692 3 2109 2110
2693 4 2110 2111
2694 4 2110 2117
2695 5 2111 2112
2696 5 2117 2118
2697 1 1702 1703
2698 2 1702 1714
2699 3 1703 1704
2700 1 1703 1707
2701 4 1704 1705
2702 4 1704 1708
2703 4 1705 132
2704 5 1705 1706
2705 2 1707 1716
2706 4 1708 123
2707 5 1708 1709
2708 2 1714 1751
2709 2 1714 1881
2710 2 1714 2068
2711 2 1716 1751
2712 2 1716 1972
2713 2 1716 2061
2714 2 1750 1751
2715 2 1750 2045
2716 2 1750 2058
2717 2 1750 2070
2718 2 1751 1857
2719 2 1857 1858
2720 2 1857 1987
2721 2 1857 2003
2722 1 1858 1859
2723 3 1859 1860
2724 1 1859 1972
2725 4 1860 1861
2726 4 1860 1973
2727 5 1861 1862
2728 4 1861 1949
2729 1 1881 1882
2730 3 1882 1883
2731 1 1882 1987
2732 4 1883 1884
2733 4 1883 1988
2734 5 1884 1885
2735 4 1884 1961
2736 5 1973 1974
2737 5 1988 1989
2738 1 2058 2077
2739 1 2061 2097
2740 1 2068 2077
2741 1 2070 2097
2742 3 2077 2078
2743 4 2078 2079
2744 4 2078 2095
2745 5 2079 2080
2746 5 2095 2096
2747 3 2097 2098
2748 4 2098 2099
2749 4 2098 2107
2750 5 2099 2100
2751 5 2107 2108
2752 1 2003 2004
2753 3 2004 2005
2754 1 2004 2045
2755 4 2005 2006
2756 4 2005 2046
2757 5 2006 2007
2758 4 2006 2043
2759 1 2018 2019
2760 3 2019 2020
2761 1 2019 2042
2762 4 2020 2021
2763 4 2020 2043
2764 5 2021 2022
2765 4 2021 2046
2766 5 2043 2044
2767 5 2046 2047
2768 2 1757 1758
2769 2 1757 1827
2770 2 1757 1963
2771 2 1757 2064
2772 2 1758 1785
2773 2 1758 1815
2774 2 1758 1927
2775 2 1785 1786
2776 2 1785 2018
2777 2 1785 2065
2778 1 1786 1787
2779 3 1787 1788
2780 1 1787 1839
2781 4 1788 1789
2782 4 1788 1840
2783 5 1789 1790
2784 2 1815 1816
2785 2 1815 1839
2786 2 1815 1916
2787 1 1816 1817
2788 3 1817 1818
2789 1 1817 1827
2790 4 1818 1819
2791 4 1818 1828
2792 5 1819 1820
2793 5 1828 1829
2794 5 1840 1841
2795 1 1916 1917
2796 3 1917 1918
2797 1 1917 1954
2798 4 1918 1919
2799 4 1918 1955
2800 5 1919 1920
2801 4 1919 1976
2802 2 1927 1928
2803 2 1927 1954
2804 2 1927 2042
2805 1 1928 1929
2806 3 1929 1930
2807 1 1929 1963
2808 4 1930 1931
2809 4 1930 1964
2810 5 1931 1932
2811 4 1931 1982
2812 5 1955 1956
2813 5 1964 1965
2814 1 2064 2085
2815 1 2065 2085
2816 3 2085 2086
2817 4 2086 2087
2818 4 2086 2089
2819 5 2087 2088
2820 5 2089 2090
2821 2 2183 2184
2822 2 2183 2185
2823 2 2183 2260
2824 2 2183 2390
2825 2 2184 2215
2826 2 2184 2227
2827 2 2184 2345
2828 1 2185 2186
2829 3 2186 2187
2830 1 2186 2245
2831 4 2187 2188
2832 4 2187 2246
2833 4 2188 2095
2834 5 2188 2189
2835 2 2215 2216
2836 2 2215 2245
2837 2 2215 2452
2838 1 2216 2217
2839 3 2217 2218
2840 1 2217 2266
2841 4 2218 2219
2842 4 2218 2267
2843 5 2219 2220
2844 2 2227 2228
2845 2 2227 2266
2846 2 2227 2325
2847 1 2228 2229
2848 3 2229 2230
2849 1 2229 2260
2850 4 2230 2231
2851 4 2230 2261
2852 4 2231 845
2853 5 2231 2232
2854 4 2246 2079
2855 5 2246 2247
2856 4 2261 839
2857 5 2261 2262
2858 5 2267 2268
2859 1 2325 2326
2860 3 2326 2327
2861 1 2326 2372
2862 4 2327 2328
2863 4 2327 2373
2864 5 2328 2329
2865 4 2328 2397
2866 2 2345 2346
2867 2 2345 2372
2868 2 2345 2457
2869 1 2346 2347
2870 3 2347 2348
2871 1 2347 2390
2872 4 2348 2349
2873 4 2348 2391
2874 5 2349 2350
2875 4 2349 2409
2876 5 2373 2374
2877 5 2391 2392
2878 1 2422 2423
2879 3 2423 2424
2880 1 2423 2475
2881 4 2424 2425
2882 4 2424 2476
2883 5 2425 2426
2884 4 2425 2458
2885 1 2452 2453
2886 3 2453 2454
2887 1 2453 2457
2888 4 2454 2455
2889 4 2454 2458
2890 5 2455 2456
2891 4 2455 2476
2892 5 2458 2459
2893 5 2476 2477
2894 2 2166 2167
2895 2 2166 2168
2896 2 2166 2475
2897 2 2166 2493
2898 2 2167 2176
2899 2 2167 2178
2900 2 2167 2293
2901 1 2168 2169
2902 3 2169 2170
2903 1 2169 2275
2904 4 2170 2171
2905 4 2170 2276
2906 4 2171 2089
2907 5 2171 2172
2908 2 2176 2275
2909 2 2176 2310
2910 2 2176 2483
2911 2 2178 2399
2912 2 2178 2486
2913 2 2178 2495
2914 4 2276 2087
2915 5 2276 2277
2916 2 2293 2294
2917 2 2293 2414
2918 2 2293 2422
2919 1 2294 2295
2920 3 2295 2296
2921 1 2295 2399
2922 4 2296 2297
2923 4 2296 2400
2924 5 2297 2298
2925 4 2297 2379
2926 1 2310 2311
2927 3 2311 2312
2928 1 2311 2414
2929 4 2312 2313
2930 4 2312 2415
2931 5 2313 2314
2932 4 2313 2382
2933 5 2400 2401
2934 5 2415 2416
2935 1 2483 2533
2936 1 2486 2525
2937 1 2493 2525
2938 1 2495 2533
2939 3 2525 2526
2940 4 2526 2527
2941 4 2526 2529
2942 5 2527 2528
2943 5 2529 2530
2944 3 2533 2534
2945 4 2534 2535
2946 4 2534 2541
2947 5 2535 2536
2948 5 2541 2542
2949 1 2126 2127
2950 2 2126 2138
2951 3 2127 2128
2952 1 2127 2131
2953 4 2128 2129
2954 4 2128 2132
2955 4 2129 556
2956 5 2129 2130
2957 2 2131 2140
2958 4 2132 547
2959 5 2132 2133
2960 2 2138 2175
2961 2 2138 2305
2962 2 2138 2492
2963 2 2140 2175
2964 2 2140 2396
2965 2 2140 2485
2966 2 2174 2175
2967 2 2174 2469
2968 2 2174 2482
2969 2 2174 2494
2970 2 2175 2281
2971 2 2281 2282
2972 2 2281 2411
2973 2 2281 2427
2974 1 2282 2283
2975 3 2283 2284
2976 1 2283 2396
2977 4 2284 2285
2978 4 2284 2397
2979 5 2285 2286
2980 4 2285 2373
2981 1 2305 2306
2982 3 2306 2307
2983 1 2306 2411
2984 4 2307 2308
2985 4 2307 2412
2986 5 2308 2309
2987 4 2308 2385
2988 5 2397 2398
2989 5 2412 2413
2990 1 2482 2501
2991 1 2485 2521
2992 1 2492 2501
2993 1 2494 2521
2994 3 2501 2502
2995 4 2502 2503
2996 4 2502 2519
2997 5 2503 2504
2998 5 2519 2520
2999 3 2521 2522
3000 4 2522 2523
3001 4 2522 2531
3002 5 2523 2524
3003 5 2531 2532
3004 1 2427 2428
3005 3 2428 2429
3006 1 2428 2469
3007 4 2429 2430
3008 4 2429 2470
3009 5 2430 2431
3010 4 2430 2467
3011 1 2442 2443
3012 3 2443 2444
3013 1 2443 2466
3014 4 2444 2445
3015 4 2444 2467
3016 5 2445 2446
3017 4 2445 2470
3018 5 2467 2468
3019 5 2470 2471
3020 2 2181 2182
3021 2 2181 2251
3022 2 2181 2387
3023 2 2181 2488
3024 2 2182 2209
3025 2 2182 2239
3026 2 2182 2351
3027 2 2209 2210
3028 2 2209 2442
3029 2 2209 2489
3030 1 2210 2211
3031 3 2211 2212
3032 1 2211 2263
3033 4 2212 2213
3034 4 2212 2264
3035 5 2213 2214
3036 2 2239 2240
3037 2 2239 2263
3038 2 2239 2340
3039 1 2240 2241
3040 3 2241 2242
3041 1 2241 2251
3042 4 2242 2243
3043 4 2242 2252
3044 5 2243 2244
3045 5 2252 2253
3046 5 2264 2265
3047 1 2340 2341
3048 3 2341 2342
3049 1 2341 2378
3050 4 2342 2343
3051 4 2342 2379
3052 5 2343 2344
3053 4 2343 2400
3054 2 2351 2352
3055 2 2351 2378
3056 2 2351 2466
3057 1 2352 2353
3058 3 2353 2354
3059 1 2353 2387
3060 4 2354 2355
3061 4 2354 2388
3062 5 2355 2356
3063 4 2355 2406
3064 5 2379 2380
3065 5 2388 2389
3066 1 2488 2509
3067 1 2489 2509
3068 3 2509 2510
3069 4 2510 2511
3070 4 2510 2513
3071 5 2511 2512
3072 5 2513 2514
3073 1 2545 2546
3074 2 2545 2561
3075 3 2546 2547
3076 1 2546 2558
3077 4 2547 2548
3078 4 2547 2559
3079 4 2548 983
3080 5 2548 2549
3081 2 2558 2563
3082 4 2559 965
3083 5 2559 2560
3084 2 2561 2584
3085 2 2561 2702
3086 2 2561 2739
3087 2 2563 2565
3088 2 2563 2584
3089 2 2563 2826
3090 1 2565 2566
3091 3 2566 2567
3092 1 2566 2575
3093 4 2567 2568
3094 4 2567 2576
3095 4 2568 1843
3096 5 2568 2569
3097 2 2575 2581
3098 4 2576 1795
3099 5 2576 2577
3100 2 2581 2584
3101 2 2581 2585
3102 2 2581 2896
3103 2 2584 2723
3104 1 2585 2586
3105 3 2586 2587
3106 1 2586 2702
3107 4 2587 2588
3108 4 2587 2703
3109 5 2588 2589
3110 4 2588 3363
3111 5 2703 2704
3112 4 2703 3355
3113 2 2723 2724
3114 2 2723 2832
3115 2 2723 2856
3116 1 2724 2725
3117 3 2725 2726
3118 1 2725 2826
3119 4 2726 2727
3120 4 2726 2827
3121 5 2727 2728
3122 4 2727 2800
3123 1 2739 2740
3124 3 2740 2741
3125 1 2740 2832
3126 4 2741 2742
3127 4 2741 2833
3128 5 2742 2743
3129 4 2742 2815
3130 5 2827 2828
3131 5 2833 2834
3132 1 2856 2857
3133 3 2857 2858
3134 1 2857 2896
3135 4 2858 2859
3136 4 2858 2897
3137 5 2859 2860
3138 4 2859 2888
3139 1 2861 2862
3140 3 2862 2863
3141 1 2862 2887
3142 4 2863 2864
3143 4 2863 2888
3144 5 2864 2865
3145 4 2864 2897
3146 5 2888 2889
3147 5 2897 2898
3148 2 2614 2615
3149 2 2614 2616
3150 2 2614 2678
3151 2 2614 2805
3152 2 2615 2627
3153 2 2615 2657
3154 2 2615 2781
3155 1 2616 2617
3156 3 2617 2618
3157 1 2617 2672
3158 4 2618 2619
3159 4 2618 2673
3160 5 2619 2620
3161 4 2619 3365
3162 2 2627 2628
3163 2 2627 2672
3164 2 2627 2861
3165 1 2628 2629
3166 3 2629 2630
3167 1 2629 2693
3168 4 2630 2631
3169 4 2630 2694
3170 4 2631 2105
3171 5 2631 2632
3172 2 2657 2658
3173 2 2657 2693
3174 2 2657 2754
3175 1 2658 2659
3176 3 2659 2660
3177 1 2659 2678
3178 4 2660 2661
3179 4 2660 2679
3180 5 2661 2662
3181 5 2673 2674
3182 4 2673 3347
3183 5 2679 2680
3184 4 2694 2103
3185 5 2694 2695
3186 1 2754 2755
3187 3 2755 2756
3188 1 2755 2793
3189 4 2756 2757
3190 4 2756 2794
3191 5 2757 2758
3192 4 2757 2818
3193 2 2781 2782
3194 2 2781 2793
3195 2 2781 2887
3196 1 2782 2783
3197 3 2783 2784
3198 1 2783 2805
3199 4 2784 2785
3200 4 2784 2806
3201 5 2785 2786
3202 4 2785 2839
3203 5 2794 2795
3204 5 2806 2807
3205 2 2603 2604
3206 2 2603 2681
3207 2 2603 2808
3208 2 2603 2911
3209 2 2604 2621
3210 2 2604 2645
3211 2 2604 2787
3212 2 2621 2622
3213 2 2621 2871
3214 2 2621 2914
3215 1 2622 2623
3216 3 2623 2624
3217 1 2623 2696
3218 4 2624 2625
3219 4 2624 2697
3220 4 2625 2107
3221 5 2625 2626
3222 2 2645 2646
3223 2 2645 2696
3224 2 2645 2759
3225 1 2646 2647
3226 3 2647 2648
3227 1 2647 2681
3228 4 2648 2649
3229 4 2648 2682
3230 4 2649 1271
3231 5 2649 2650
3232 4 2682 1267
3233 5 2682 2683
3234 4 2697 2099
3235 5 2697 2698
3236 1 2759 2760
3237 3 2760 2761
3238 1 2760 2799
3239 4 2761 2762
3240 4 2761 2800
3241 5 2762 2763
3242 4 2762 2827
3243 2 2787 2788
3244 2 2787 2799
3245 2 2787 2884
3246 1 2788 2789
3247 3 2789 2790
3248 1 2789 2808
3249 4 2790 2791
3250 4 2790 2809
3251 5 2791 2792
3252 4 2791 2836
3253 5 2800 2801
3254 5 2809 2810
3255 1 2911 2929
3256 1 2914 2929
3257 3 2929 2930
3258 4 2930 2931
3259 4 2930 2939
3260 5 2931 2932
3261 5 2939 2940
3262 1 2841 2842
3263 3 2842 2843
3264 1 2842 2902
3265 4 2843 2844
3266 4 2843 2903
3267 5 2844 2845
3268 4 2844 2885
3269 1 2871 2872
3270 3 2872 2873
3271 1 2872 2884
3272 4 2873 2874
3273 4 2873 2885
3274 5 2874 2875
3275 4 2874 2903
3276 5 2885 2886
3277 5 2903 2904
3278 1 2570 2571
3279 2 2570 2583
3280 3 2571 2572
3281 1 2571 2578
3282 4 2572 2573
3283 4 2572 2579
3284 4 2573 1840
3285 5 2573 2574
3286 2 2578 2582
3287 4 2579 1789
3288 5 2579 2580
3289 2 2582 2597
3290 2 2582 2902
3291 2 2582 2905
3292 2 2583 2597
3293 2 2583 2817
3294 2 2583 2920
3295 2 2597 2601
3296 2 2597 2711
3297 2 2601 2744
3298 2 2601 2908
3299 2 2601 2915
3300 2 2711 2712
3301 2 2711 2829
3302 2 2711 2841
3303 1 2712 2713
3304 3 2713 2714
3305 1 2713 2817
3306 4 2714 2715
3307 4 2714 2818
3308 5 2715 2716
3309 4 2715 2794
3310 1 2744 2745
3311 3 2745 2746
3312 1 2745 2829
3313 4 2746 2747
3314 4 2746 2830
3315 5 2747 2748
3316 4 2747 2812
3317 5 2818 2819
3318 5 2830 2831
3319 1 2905 2921
3320 1 2908 2961
3321 1 2915 2921
3322 1 2920 2961
3323 3 2921 2922
3324 4 2922 2923
3325 4 2922 2941
3326 5 2923 2924
3327 5 2941 2942
3328 3 2961 2962
3329 4 2962 2963
3330 4 2962 2967
3331 5 2963 2964
3332 5 2967 2968
3333 1 2969 2970
3334 2 2969 2985
3335 3 2970 2971
3336 1 2970 2982
3337 4 2971 2972
3338 4 2971 2983
3339 4 2972 1407
3340 5 2972 2973
3341 2 2982 2987
3342 4 2983 1389
3343 5 2983 2984
3344 2 2985 3008
3345 2 2985 3126
3346 2 2985 3163
3347 2 2987 2989
3348 2 2987 3008
3349 2 2987 3250
3350 1 2989 2990
3351 3 2990 2991
3352 1 2990 2999
3353 4 2991 2992
3354 4 2991 3000
3355 4 2992 2267
3356 5 2992 2993
3357 2 2999 3005
3358 4 3000 2219
3359 5 3000 3001
3360 2 3005 3008
3361 2 3005 3009
3362 2 3005 3320
3363 2 3008 3147
3364 1 3009 3010
3365 3 3010 3011
3366 1 3010 3126
3367 4 3011 3012
3368 4 3011 3127
3369 4 3012 2939
3370 5 3012 3013
3371 4 3127 2931
3372 5 3127 3128
3373 2 3147 3148
3374 2 3147 3256
3375 2 3147 3280
3376 1 3148 3149
3377 3 3149 3150
3378 1 3149 3250
3379 4 3150 3151
3380 4 3150 3251
3381 5 3151 3152
3382 4 3151 3224
3383 1 3163 3164
3384 3 3164 3165
3385 1 3164 3256
3386 4 3165 3166
3387 4 3165 3257
3388 5 3166 3167
3389 4 3166 3239
3390 5 3251 3252
3391 5 3257 3258
3392 1 3280 3281
3393 3 3281 3282
3394 1 3281 3320
3395 4 3282 3283
3396 4 3282 3321
3397 5 3283 3284
3398 4 3283 3312
3399 1 3285 3286
3400 3 3286 3287
3401 1 3286 3311
3402 4 3287 3288
3403 4 3287 3312
3404 5 3288 3289
3405 4 3288 3321
3406 5 3312 3313
3407 5 3321 3322
3408 2 3038 3039
3409 2 3038 3040
3410 2 3038 3102
3411 2 3038 3229
3412 2 3039 3051
3413 2 3039 3081
3414 2 3039 3205
3415 1 3040 3041
3416 3 3041 3042
3417 1 3041 3096
3418 4 3042 3043
3419 4 3042 3097
3420 4 3043 2941
3421 5 3043 3044
3422 2 3051 3052
3423 2 3051 3096
3424 2 3051 3285
3425 1 3052 3053
3426 3 3053 3054
3427 1 3053 3117
3428 4 3054 3055
3429 4 3054 3118
3430 4 3055 2529
3431 5 3055 3056
3432 2 3081 3082
3433 2 3081 3117
3434 2 3081 3178
3435 1 3082 3083
3436 3 3083 3084
3437 1 3083 3102
3438 4 3084 3085
3439 4 3084 3103
3440 5 3085 3086
3441 4 3097 2923
3442 5 3097 3098
3443 5 3103 3104
3444 4 3118 2527
3445 5 3118 3119
3446 1 3178 3179
3447 3 3179 3180
3448 1 3179 3217
3449 4 3180 3181
3450 4 3180 3218
3451 5 3181 3182
3452 4 3181 3242
3453 2 3205 3206
3454 2 3205 3217
3455 2 3205 3311
3456 1 3206 3207
3457 3 3207 3208
3458 1 3207 3229
3459 4 3208 3209
3460 4 3208 3230
3461 5 3209 3210
3462 4 3209 3263
3463 5 3218 3219
3464 5 3230 3231
3465 2 3027 3028
3466 2 3027 3105
3467 2 3027 3232
3468 2 3027 3335
3469 2 3028 3045
3470 2 3028 3069
3471 2 3028 3211
3472 2 3045 3046
3473 2 3045 3295
3474 2 3045 3338
3475 1 3046 3047
3476 3 3047 3048
3477 1 3047 3120
3478 4 3048 3049
3479 4 3048 3121
3480 4 3049 2531
3481 5 3049 3050
3482 2 3069 3070
3483 2 3069 3120
3484 2 3069 3183
3485 1 3070 3071
3486 3 3071 3072
3487 1 3071 3105
3488 4 3072 3073
3489 4 3072 3106
3490 4 3073 1695
3491 5 3073 3074
3492 4 3106 1691
3493 5 3106 3107
3494 4 3121 2523
3495 5 3121 3122
3496 1 3183 3184
3497 3 3184 3185
3498 1 3184 3223
3499 4 3185 3186
3500 4 3185 3224
3501 5 3186 3187
3502 4 3186 3251
3503 2 3211 3212
3504 2 3211 3223
3505 2 3211 3308
3506 1 3212 3213
3507 3 3213 3214
3508 1 3213 3232
3509 4 3214 3215
3510 4 3214 3233
3511 5 3215 3216
3512 4 3215 3260
3513 5 3224 3225
3514 5 3233 3234
3515 1 3335 3353
3516 1 3338 3353
3517 3 3353 3354
3518 4 3354 3355
3519 4 3354 3363
3520 5 3355 3356
3521 5 3363 3364
3522 1 3265 3266
3523 3 3266 3267
3524 1 3266 3326
3525 4 3267 3268
3526 4 3267 3327
3527 5 3268 3269
3528 4 3268 3309
3529 1 3295 3296
3530 3 3296 3297
3531 1 3296 3308
3532 4 3297 3298
3533 4 3297 3309
3534 5 3298 3299
3535 4 3298 3327
3536 5 3309 3310
3537 5 3327 3328
3538 1 2994 2995
3539 2 2994 3007
3540 3 2995 2996
3541 1 2995 3002
3542 4 2996 2997
3543 4 2996 3003
3544 4 2997 2264
3545 5 2997 2998
3546 2 3002 3006
3547 4 3003 2213
3548 5 3003 3004
3549 2 3006 3021
3550 2 3006 3326
3551 2 3006 3329
3552 2 3007 3021
3553 2 3007 3241
3554 2 3007 3344
3555 2 3021 3025
3556 2 3021 3135
3557 2 3025 3168
3558 2 3025 3332
3559 2 3025 3339
3560 2 3135 3136
3561 2 3135 3253
3562 2 3135 3265
3563 1 3136 3137
3564 3 3137 3138
3565 1 3137 3241
3566 4 3138 3139
3567 4 3138 3242
3568 5 3139 3140
3569 4 3139 3218
3570 1 3168 3169
3571 3 3169 3170
3572 1 3169 3253
3573 4 3170 3171
3574 4 3170 3254
3575 5 3171 3172
3576 4 3171 3236
3577 5 3242 3243
3578 5 3254 3255
3579 1 3329 3345
3580 1 3332 3385
3581 1 3339 3345
3582 1 3344 3385
3583 3 3345 3346
3584 4 3346 3347
3585 4 3346 3365
3586 5 3347 3348
3587 5 3365 3366
3588 3 3385 3386
3589 4 3386 3387
3590 4 3386 3391
3591 5 3387 3388
3592 5 3391 3392
3593 2 2607 2608
3594 2 2607 2609
3595 2 2607 2684
3596 2 2607 2814
3597 2 2608 2639
3598 2 2608 2651
3599 2 2608 2769
3600 1 2609 2610
3601 3 2610 2611
3602 1 2610 2669
3603 4 2611 2612
3604 4 2611 2670
3605 5 2612 2613
3606 4 2612 3367
3607 2 2639 2640
3608 2 2639 2669
3609 2 2639 2876
3610 1 2640 2641
3611 3 2641 2642
3612 1 2641 2690
3613 4 2642 2643
3614 4 2642 2691
3615 5 2643 2644
3616 2 2651 2652
3617 2 2651 2690
3618 2 2651 2749
3619 1 2652 2653
3620 3 2653 2654
3621 1 2653 2684
3622 4 2654 2655
3623 4 2654 2685
3624 4 2655 1269
3625 5 2655 2656
3626 5 2670 2671
3627 4 2670 3351
3628 4 2685 1263
3629 5 2685 2686
3630 5 2691 2692
3631 1 2749 2750
3632 3 2750 2751
3633 1 2750 2796
3634 4 2751 2752
3635 4 2751 2797
3636 5 2752 2753
3637 4 2752 2821
3638 2 2769 2770
3639 2 2769 2796
3640 2 2769 2881
3641 1 2770 2771
3642 3 2771 2772
3643 1 2771 2814
3644 4 2772 2773
3645 4 2772 2815
3646 5 2773 2774
3647 4 2773 2833
3648 5 2797 2798
3649 5 2815 2816
3650 1 2846 2847
3651 3 2847 2848
3652 1 2847 2899
3653 4 2848 2849
3654 4 2848 2900
3655 5 2849 2850
3656 4 2849 2882
3657 1 2876 2877
3658 3 2877 2878
3659 1 2877 2881
3660 4 2878 2879
3661 4 2878 2882
3662 5 2879 2880
3663 4 2879 2900
3664 5 2882 2883
3665 5 2900 2901
3666 2 2590 2591
3667 2 2590 2592
3668 2 2590 2899
3669 2 2590 2917
3670 2 2591 2600
3671 2 2591 2602
3672 2 2591 2717
3673 1 2592 2593
3674 3 2593 2594
3675 1 2593 2699
3676 4 2594 2595
3677 4 2594 2700
3678 5 2595 2596
3679 4 2595 3361
3680 2 2600 2699
3681 2 2600 2734
3682 2 2600 2907
3683 2 2602 2823
3684 2 2602 2910
3685 2 2602 2919
3686 5 2700 2701
3687 4 2700 3359
3688 2 2717 2718
3689 2 2717 2838
3690 2 2717 2846
3691 1 2718 2719
3692 3 2719 2720
3693 1 2719 2823
3694 4 2720 2721
3695 4 2720 2824
3696 5 2721 2722
3697 4 2721 2803
3698 1 2734 2735
3699 3 2735 2736
3700 1 2735 2838
3701 4 2736 2737
3702 4 2736 2839
3703 5 2737 2738
3704 4 2737 2806
3705 5 2824 2825
3706 5 2839 2840
3707 1 2907 2957
3708 1 2910 2949
3709 1 2917 2949
3710 1 2919 2957
3711 3 2949 2950
3712 4 2950 2951
3713 4 2950 2953
3714 5 2951 2952
3715 5 2953 2954
3716 3 2957 2958
3717 4 2958 2959
3718 4 2958 2965
3719 5 2959 2960
3720 5 2965 2966
3721 1 2550 2551
3722 2 2550 2562
3723 3 2551 2552
3724 1 2551 2555
3725 4 2552 2553
3726 4 2552 2556
3727 4 2553 980
3728 5 2553 2554
3729 2 2555 2564
3730 4 2556 971
3731 5 2556 2557
3732 2 2562 2599
3733 2 2562 2729
3734 2 2562 2916
3735 2 2564 2599
3736 2 2564 2820
3737 2 2564 2909
3738 2 2598 2599
3739 2 2598 2893
3740 2 2598 2906
3741 2 2598 2918
3742 2 2599 2705
3743 2 2705 2706
3744 2 2705 2835
3745 2 2705 2851
3746 1 2706 2707
3747 3 2707 2708
3748 1 2707 2820
3749 4 2708 2709
3750 4 2708 2821
3751 5 2709 2710
3752 4 2709 2797
3753 1 2729 2730
3754 3 2730 2731
3755 1 2730 2835
3756 4 2731 2732
3757 4 2731 2836
3758 5 2732 2733
3759 4 2732 2809
3760 5 2821 2822
3761 5 2836 2837
3762 1 2906 2925
3763 1 2909 2945
3764 1 2916 2925
3765 1 2918 2945
3766 3 2925 2926
3767 4 2926 2927
3768 4 2926 2943
3769 5 2927 2928
3770 5 2943 2944
3771 3 2945 2946
3772 4 2946 2947
3773 4 2946 2955
3774 5 2947 2948
3775 5 2955 2956
3776 1 2851 2852
3777 3 2852 2853
3778 1 2852 2893
3779 4 2853 2854
3780 4 2853 2894
3781 5 2854 2855
3782 4 2854 2891
3783 1 2866 2867
3784 3 2867 2868
3785 1 2867 2890
3786 4 2868 2869
3787 4 2868 2891
3788 5 2869 2870
3789 4 2869 2894
3790 5 2891 2892
3791 5 2894 2895
3792 2 2605 2606
3793 2 2605 2675
3794 2 2605 2811
3795 2 2605 2912
3796 2 2606 2633
3797 2 2606 2663
3798 2 2606 2775
3799 2 2633 2634
3800 2 2633 2866
3801 2 2633 2913
3802 1 2634 2635
3803 3 2635 2636
3804 1 2635 2687
3805 4 2636 2637
3806 4 2636 2688
3807 5 2637 2638
3808 2 2663 2664
3809 2 2663 2687
3810 2 2663 2764
3811 1 2664 2665
3812 3 2665 2666
3813 1 2665 2675
3814 4 2666 2667
3815 4 2666 2676
3816 5 2667 2668
3817 5 2676 2677
3818 5 2688 2689
3819 1 2764 2765
3820 3 2765 2766
3821 1 2765 2802
3822 4 2766 2767
3823 4 2766 2803
3824 5 2767 2768
3825 4 2767 2824
3826 2 2775 2776
3827 2 2775 2802
3828 2 2775 2890
3829 1 2776 2777
3830 3 2777 2778
3831 1 2777 2811
3832 4 2778 2779
3833 4 2778 2812
3834 5 2779 2780
3835 4 2779 2830
3836 5 2803 2804
3837 5 2812 2813
3838 1 2912 2933
3839 1 2913 2933
3840 3 2933 2934
3841 4 2934 2935
3842 4 2934 2937
3843 5 2935 2936
3844 5 2937 2938
3845 2 3031 3032
3846 2 3031 3033
3847 2 3031 3108
3848 2 3031 3238
3849 2 3032 3063
3850 2 3032 3075
3851 2 3032 3193
3852 1 3033 3034
3853 3 3034 3035
3854 1 3034 3093
3855 4 3035 3036
3856 4 3035 3094
3857 4 3036 2943
3858 5 3036 3037
3859 2 3063 3064
3860 2 3063 3093
3861 2 3063 3300
3862 1 3064 3065
3863 3 3065 3066
3864 1 3065 3114
3865 4 3066 3067
3866 4 3066 3115
3867 5 3067 3068
3868 2 3075 3076
3869 2 3075 3114
3870 2 3075 3173
3871 1 3076 3077
3872 3 3077 3078
3873 1 3077 3108
3874 4 3078 3079
3875 4 3078 3109
3876 4 3079 1693
3877 5 3079 3080
3878 4 3094 2927
3879 5 3094 3095
3880 4 3109 1687
3881 5 3109 3110
3882 5 3115 3116
3883 1 3173 3174
3884 3 3174 3175
3885 1 3174 3220
3886 4 3175 3176
3887 4 3175 3221
3888 5 3176 3177
3889 4 3176 3245
3890 2 3193 3194
3891 2 3193 3220
3892 2 3193 3305
3893 1 3194 3195
3894 3 3195 3196
3895 1 3195 3238
3896 4 3196 3197
3897 4 3196 3239
3898 5 3197 3198
3899 4 3197 3257
3900 5 3221 3222
3901 5 3239 3240
3902 1 3270 3271
3903 3 3271 3272
3904 1 3271 3323
3905 4 3272 3273
3906 4 3272 3324
3907 5 3273 3274
3908 4 3273 3306
3909 1 3300 3301
3910 3 3301 3302
3911 1 3301 3305
3912 4 3302 3303
3913 4 3302 3306
3914 5 3303 3304
3915 4 3303 3324
3916 5 3306 3307
3917 5 3324 3325
3918 2 3014 3015
3919 2 3014 3016
3920 2 3014 3323
3921 2 3014 3341
3922 2 3015 3024
3923 2 3015 3026
3924 2 3015 3141
3925 1 3016 3017
3926 3 3017 3018
3927 1 3017 3123
3928 4 3018 3019
3929 4 3018 3124
3930 4 3019 2937
3931 5 3019 3020
3932 2 3024 3123
3933 2 3024 3158
3934 2 3024 3331
3935 2 3026 3247
3936 2 3026 3334
3937 2 3026 3343
3938 4 3124 2935
3939 5 3124 3125
3940 2 3141 3142
3941 2 3141 3262
3942 2 3141 3270
3943 1 3142 3143
3944 3 3143 3144
3945 1 3143 3247
3946 4 3144 3145
3947 4 3144 3248
3948 5 3145 3146
3949 4 3145 3227
3950 1 3158 3159
3951 3 3159 3160
3952 1 3159 3262
3953 4 3160 3161
3954 4 3160 3263
3955 5 3161 3162
3956 4 3161 3230
3957 5 3248 3249
3958 5 3263 3264
3959 1 3331 3381
3960 1 3334 3373
3961 1 3341 3373
3962 1 3343 3381
3963 3 3373 3374
3964 4 3374 3375
3965 4 3374 3377
3966 5 3375 3376
3967 5 3377 3378
3968 3 3381 3382
3969 4 3382 3383
3970 4 3382 3389
3971 5 3383 3384
3972 5 3389 3390
3973 1 2974 2975
3974 2 2974 2986
3975 3 2975 2976
3976 1 2975 2979
3977 4 2976 2977
3978 4 2976 2980
3979 4 2977 1404
3980 5 2977 2978
3981 2 2979 2988
3982 4 2980 1395
3983 5 2980 2981
3984 2 2986 3023
3985 2 2986 3153
3986 2 2986 3340
3987 2 2988 3023
3988 2 2988 3244
3989 2 2988 3333
3990 2 3022 3023
3991 2 3022 3317
3992 2 3022 3330
3993 2 3022 3342
3994 2 3023 3129
3995 2 3129 3130
3996 2 3129 3259
3997 2 3129 3275
3998 1 3130 3131
3999 3 3131 3132
4000 1 3131 3244
4001 4 3132 3133
4002 4 3132 3245
4003 5 3133 3134
4004 4 3133 3221
4005 1 3153 3154
4006 3 3154 3155
4007 1 3154 3259
4008 4 3155 3156
4009 4 3155 3260
4010 5 3156 3157
4011 4 3156 3233
4012 5 3245 3246
4013 5 3260 3261
4014 1 3330 3349
4015 1 3333 3369
4016 1 3340 3349
4017 1 3342 3369
4018 3 3349 3350
4019 4 3350 3351
4020 4 3350 3367
4021 5 3351 3352
4022 5 3367 3368
4023 3 3369 3370
4024 4 3370 3371
4025 4 3370 3379
4026 5 3371 3372
4027 5 3379 3380
4028 1 3275 3276
4029 3 3276 3277
4030 1 3276 3317
4031 4 3277 3278
4032 4 3277 3318
4033 5 3278 3279
4034 4 3278 3315
4035 1 3290 3291
4036 3 3291 3292
4037 1 3291 3314
4038 4 3292 3293
4039 4 3292 3315
4040 5 3293 3294
4041 4 3293 3318
4042 5 3315 3316
4043 5 3318 3319
4044 2 3029 3030
4045 2 3029 3099
4046 2 3029 3235
4047 2 3029 3336
4048 2 3030 3057
4049 2 3030 3087
4050 2 3030 3199
4051 2 3057 3058
4052 2 3057 3290
4053 2 3057 3337
4054 1 3058 3059
4055 3 3059 3060
4056 1 3059 3111
4057 4 3060 3061
4058 4 3060 3112
4059 5 3061 3062
4060 2 3087 3088
4061 2 3087 3111
4062 2 3087 3188
4063 1 3088 3089
4064 3 3089 3090
4065 1 3089 3099
4066 4 3090 3091
4067 4 3090 3100
4068 5 3091 3092
4069 5 3100 3101
4070 5 3112 3113
4071 1 3188 3189
4072 3 3189 3190
4073 1 3189 3226
4074 4 3190 3191
4075 4 3190 3227
4076 5 3191 3192
4077 4 3191 3248
4078 2 3199 3200
4079 2 3199 3226
4080 2 3199 3314
4081 1 3200 3201
4082 3 3201 3202
4083 1 3201 3235
4084 4 3202 3203
4085 4 3202 3236
4086 5 3203 3204
4087 4 3203 3254
4088 5 3227 3228
4089 5 3236 3237
4090 1 3336 3357
4091 1 3337 3357
4092 3 3357 3358
4093 4 3358 3359
4094 4 3358 3361
4095 5 3359 3360
4096 5 3361 3362

Angles

1 1 2 1 17
2 2 1 2 3
3 3 1 2 14
4 2 3 2 14
5 4 2 3 4
6 4 2 3 15
7 5 4 3 15
8 6 3 4 5
9 5 3 4 1831
10 6 5 4 1831
11 1 2 14 19
12 6 3 15 16
13 5 3 15 1813
14 6 16 15 1813
15 7 1 17 40
16 7 1 17 158
17 7 1 17 195
18 7 40 17 158
19 7 40 17 195
20 7 158 17 195
21 7 14 19 21
22 7 14 19 40
23 7 14 19 282
24 7 21 19 40
25 7 21 19 282
26 7 40 19 282
27 1 19 21 22
28 2 21 22 23
29 3 21 22 31
30 2 23 22 31
31 4 22 23 24
32 4 22 23 32
33 5 24 23 32
34 6 23 24 25
35 5 23 24 995
36 6 25 24 995
37 1 22 31 37
38 6 23 32 33
39 5 23 32 947
40 6 33 32 947
41 7 31 37 40
42 7 31 37 41
43 7 31 37 352
44 7 40 37 41
45 7 40 37 352
46 7 41 37 352
47 8 17 40 19
48 8 17 40 37
49 8 17 40 179
50 8 19 40 37
51 8 19 40 179
52 8 37 40 179
53 1 37 41 42
54 2 41 42 43
55 3 41 42 158
56 2 43 42 158
57 4 42 43 44
58 4 42 43 159
59 5 44 43 159
60 6 43 44 45
61 5 43 44 819
62 6 45 44 819
63 1 17 158 42
64 6 43 159 160
65 5 43 159 811
66 6 160 159 811
67 7 40 179 180
68 7 40 179 288
69 7 40 179 312
70 7 180 179 288
71 7 180 179 312
72 7 288 179 312
73 1 179 180 181
74 2 180 181 182
75 3 180 181 282
76 2 182 181 282
77 4 181 182 183
78 4 181 182 283
79 5 183 182 283
80 6 182 183 184
81 5 182 183 256
82 6 184 183 256
83 1 17 195 196
84 2 195 196 197
85 3 195 196 288
86 2 197 196 288
87 4 196 197 198
88 4 196 197 289
89 5 198 197 289
90 6 197 198 199
91 5 197 198 271
92 6 199 198 271
93 1 19 282 181
94 5 182 283 218
95 6 182 283 284
96 6 218 283 284
97 1 179 288 196
98 5 197 289 229
99 6 197 289 290
100 6 229 289 290
101 1 179 312 313
102 2 312 313 314
103 3 312 313 352
104 2 314 313 352
105 4 313 314 315
106 4 313 314 353
107 5 315 314 353
108 6 314 315 316
109 5 314 315 344
110 6 316 315 344
111 1 83 317 318
112 2 317 318 319
113 3 317 318 343
114 2 319 318 343
115 4 318 319 320
116 4 318 319 344
117 5 320 319 344
118 6 319 320 321
119 5 319 320 353
120 6 321 320 353
121 1 237 343 318
122 5 315 344 319
123 6 315 344 345
124 6 319 344 345
125 1 37 352 313
126 5 314 353 320
127 6 314 353 354
128 6 320 353 354
129 7 71 70 72
130 7 71 70 134
131 7 71 70 261
132 7 72 70 134
133 7 72 70 261
134 7 134 70 261
135 8 70 71 83
136 8 70 71 113
137 8 70 71 237
138 8 83 71 113
139 8 83 71 237
140 8 113 71 237
141 1 70 72 73
142 2 72 73 74
143 3 72 73 128
144 2 74 73 128
145 4 73 74 75
146 4 73 74 129
147 5 75 74 129
148 6 74 75 76
149 5 74 75 821
150 6 76 75 821
151 7 71 83 84
152 7 71 83 128
153 7 71 83 317
154 7 84 83 128
155 7 84 83 317
156 7 128 83 317
157 1 83 84 85
158 2 84 85 86
159 3 84 85 149
160 2 86 85 149
161 4 85 86 87
162 4 85 86 150
163 5 87 86 150
164 6 86 87 88
165 5 86 87 1257
166 6 88 87 1257
167 7 71 113 114
168 7 71 113 149
169 7 71 113 210
170 7 114 113 149
171 7 114 113 210
172 7 149 113 210
173 1 113 114 115
174 2 114 115 116
175 3 114 115 134
176 2 116 115 134
177 4 115 116 117
178 4 115 116 135
179 5 117 116 135
180 5 1711 117 116
181 6 1711 117 118
182 6 116 117 118
183 1 73 128 83
184 6 74 129 130
185 5 74 129 803
186 6 130 129 803
187 1 70 134 115
188 5 1700 135 116
189 6 1700 135 136
190 6 116 135 136
191 1 85 149 113
192 6 86 150 151
193 5 86 150 1255
194 6 151 150 1255
195 1 113 210 211
196 2 210 211 212
197 3 210 211 249
198 2 212 211 249
199 4 211 212 213
200 4 211 212 250
201 5 213 212 250
202 6 212 213 214
203 5 212 213 274
204 6 214 213 274
205 7 71 237 238
206 7 71 237 249
207 7 71 237 343
208 7 238 237 249
209 7 238 237 343
210 7 249 237 343
211 1 237 238 239
212 2 238 239 240
213 3 238 239 261
214 2 240 239 261
215 4 239 240 241
216 4 239 240 262
217 5 241 240 262
218 6 240 241 242
219 5 240 241 295
220 6 242 241 295
221 1 211 249 237
222 5 171 250 212
223 6 171 250 251
224 6 212 250 251
225 1 70 261 239
226 5 193 262 240
227 6 193 262 263
228 6 240 262 263
229 7 60 59 137
230 7 60 59 264
231 7 60 59 367
232 7 137 59 264
233 7 137 59 367
234 7 264 59 367
235 8 59 60 77
236 8 59 60 101
237 8 59 60 243
238 8 77 60 101
239 8 77 60 243
240 8 101 60 243
241 7 60 77 78
242 7 60 77 327
243 7 60 77 370
244 7 78 77 327
245 7 78 77 370
246 7 327 77 370
247 1 77 78 79
248 2 78 79 80
249 3 78 79 152
250 2 80 79 152
251 4 79 80 81
252 4 79 80 153
253 5 81 80 153
254 6 80 81 82
255 5 80 81 1259
256 6 82 81 1259
257 7 60 101 102
258 7 60 101 152
259 7 60 101 215
260 7 102 101 152
261 7 102 101 215
262 7 152 101 215
263 1 101 102 103
264 2 102 103 104
265 3 102 103 137
266 2 104 103 137
267 4 103 104 105
268 4 103 104 138
269 5 105 104 138
270 6 104 105 106
271 5 104 105 2119
272 6 106 105 2119
273 1 59 137 103
274 6 104 138 139
275 5 104 138 2115
276 6 139 138 2115
277 1 79 152 101
278 6 80 153 154
279 5 80 153 1251
280 6 154 153 1251
281 1 101 215 216
282 2 215 216 217
283 3 215 216 255
284 2 217 216 255
285 4 216 217 218
286 4 216 217 256
287 5 218 217 256
288 6 217 218 219
289 5 217 218 283
290 6 219 218 283
291 7 60 243 244
292 7 60 243 255
293 7 60 243 340
294 7 244 243 255
295 7 244 243 340
296 7 255 243 340
297 1 243 244 245
298 2 244 245 246
299 3 244 245 264
300 2 246 245 264
301 4 245 246 247
302 4 245 246 265
303 5 247 246 265
304 6 246 247 248
305 5 246 247 292
306 6 248 247 292
307 1 216 255 243
308 5 183 256 217
309 6 183 256 257
310 6 217 256 257
311 1 59 264 245
312 5 188 265 246
313 6 188 265 266
314 6 246 265 266
315 1 59 367 385
316 1 77 370 385
317 3 367 385 370
318 2 367 385 386
319 2 370 385 386
320 4 385 386 387
321 4 385 386 395
322 5 387 386 395
323 5 583 387 386
324 6 583 387 388
325 6 386 387 388
326 5 468 395 386
327 6 468 395 396
328 6 386 395 396
329 1 167 297 298
330 2 297 298 299
331 3 297 298 358
332 2 299 298 358
333 4 298 299 300
334 4 298 299 359
335 5 300 299 359
336 6 299 300 301
337 5 299 300 341
338 6 301 300 341
339 1 77 327 328
340 2 327 328 329
341 3 327 328 340
342 2 329 328 340
343 4 328 329 330
344 4 328 329 341
345 5 330 329 341
346 6 329 330 331
347 5 329 330 359
348 6 331 330 359
349 1 243 340 328
350 5 300 341 329
351 6 300 341 342
352 6 329 341 342
353 1 38 358 298
354 5 299 359 330
355 6 299 359 360
356 6 330 359 360
357 1 27 26 39
358 2 26 27 28
359 3 26 27 34
360 2 28 27 34
361 4 27 28 29
362 4 27 28 35
363 5 29 28 35
364 6 28 29 30
365 5 28 29 992
366 6 30 29 992
367 1 27 34 38
368 6 28 35 36
369 5 28 35 941
370 6 36 35 941
371 7 34 38 53
372 7 34 38 358
373 7 34 38 361
374 7 53 38 358
375 7 53 38 361
376 7 358 38 361
377 7 26 39 53
378 7 26 39 273
379 7 26 39 376
380 7 53 39 273
381 7 53 39 376
382 7 273 39 376
383 8 38 53 39
384 8 38 53 57
385 8 38 53 167
386 8 39 53 57
387 8 39 53 167
388 8 57 53 167
389 7 53 57 200
390 7 53 57 364
391 7 53 57 371
392 7 200 57 364
393 7 200 57 371
394 7 364 57 371
395 7 53 167 168
396 7 53 167 285
397 7 53 167 297
398 7 168 167 285
399 7 168 167 297
400 7 285 167 297
401 1 167 168 169
402 2 168 169 170
403 3 168 169 273
404 2 170 169 273
405 4 169 170 171
406 4 169 170 274
407 5 171 170 274
408 6 170 171 172
409 5 170 171 250
410 6 172 171 250
411 1 57 200 201
412 2 200 201 202
413 3 200 201 285
414 2 202 201 285
415 4 201 202 203
416 4 201 202 286
417 5 203 202 286
418 6 202 203 204
419 5 202 203 268
420 6 204 203 268
421 1 39 273 169
422 5 170 274 213
423 6 170 274 275
424 6 213 274 275
425 1 167 285 201
426 5 202 286 235
427 6 202 286 287
428 6 235 286 287
429 1 38 361 377
430 1 57 364 417
431 1 57 371 377
432 1 39 376 417
433 3 361 377 371
434 2 361 377 378
435 2 371 377 378
436 4 377 378 379
437 4 377 378 397
438 5 379 378 397
439 5 553 379 378
440 6 553 379 380
441 6 378 379 380
442 5 499 397 378
443 6 499 397 398
444 6 378 397 398
445 3 364 417 376
446 2 364 417 418
447 2 376 417 418
448 4 417 418 419
449 4 417 418 423
450 5 419 418 423
451 5 1834 419 418
452 6 1834 419 420
453 6 418 419 420
454 5 1801 423 418
455 6 1801 423 424
456 6 418 423 424
457 1 426 425 441
458 2 425 426 427
459 3 425 426 438
460 2 427 426 438
461 4 426 427 428
462 4 426 427 439
463 5 428 427 439
464 6 427 428 429
465 5 427 428 2255
466 6 429 428 2255
467 1 426 438 443
468 6 427 439 440
469 5 427 439 2237
470 6 440 439 2237
471 7 425 441 464
472 7 425 441 582
473 7 425 441 619
474 7 464 441 582
475 7 464 441 619
476 7 582 441 619
477 7 438 443 445
478 7 438 443 464
479 7 438 443 706
480 7 445 443 464
481 7 445 443 706
482 7 464 443 706
483 1 443 445 446
484 2 445 446 447
485 3 445 446 455
486 2 447 446 455
487 4 446 447 448
488 4 446 447 456
489 5 448 447 456
490 6 447 448 449
491 5 447 448 1419
492 6 449 448 1419
493 1 446 455 461
494 6 447 456 457
495 5 447 456 1371
496 6 457 456 1371
497 7 455 461 464
498 7 455 461 465
499 7 455 461 776
500 7 464 461 465
501 7 464 461 776
502 7 465 461 776
503 8 441 464 443
504 8 441 464 461
505 8 441 464 603
506 8 443 464 461
507 8 443 464 603
508 8 461 464 603
509 1 461 465 466
510 2 465 466 467
511 3 465 466 582
512 2 467 466 582
513 4 466 467 468
514 4 466 467 583
515 5 468 467 583
516 6 467 468 469
517 5 467 468 395
518 6 469 468 395
519 1 441 582 466
520 6 467 583 584
521 5 467 583 387
522 6 584 583 387
523 7 464 603 604
524 7 464 603 712
525 7 464 603 736
526 7 604 603 712
527 7 604 603 736
528 7 712 603 736
529 1 603 604 605
530 2 604 605 606
531 3 604 605 706
532 2 606 605 706
533 4 605 606 607
534 4 605 606 707
535 5 607 606 707
536 6 606 607 608
537 5 606 607 680
538 6 608 607 680
539 1 441 619 620
540 2 619 620 621
541 3 619 620 712
542 2 621 620 712
543 4 620 621 622
544 4 620 621 713
545 5 622 621 713
546 6 621 622 623
547 5 621 622 695
548 6 623 622 695
549 1 443 706 605
550 5 606 707 642
551 6 606 707 708
552 6 642 707 708
553 1 603 712 620
554 5 621 713 653
555 6 621 713 714
556 6 653 713 714
557 1 603 736 737
558 2 736 737 738
559 3 736 737 776
560 2 738 737 776
561 4 737 738 739
562 4 737 738 777
563 5 739 738 777
564 6 738 739 740
565 5 738 739 768
566 6 740 739 768
567 1 507 741 742
568 2 741 742 743
569 3 741 742 767
570 2 743 742 767
571 4 742 743 744
572 4 742 743 768
573 5 744 743 768
574 6 743 744 745
575 5 743 744 777
576 6 745 744 777
577 1 661 767 742
578 5 739 768 743
579 6 739 768 769
580 6 743 768 769
581 1 461 776 737
582 5 738 777 744
583 6 738 777 778
584 6 744 777 778
585 7 495 494 496
586 7 495 494 558
587 7 495 494 685
588 7 496 494 558
589 7 496 494 685
590 7 558 494 685
591 8 494 495 507
592 8 494 495 537
593 8 494 495 661
594 8 507 495 537
595 8 507 495 661
596 8 537 495 661
597 1 494 496 497
598 2 496 497 498
599 3 496 497 552
600 2 498 497 552
601 4 497 498 499
602 4 497 498 553
603 5 499 498 553
604 6 498 499 500
605 5 498 499 397
606 6 500 499 397
607 7 495 507 508
608 7 495 507 552
609 7 495 507 741
610 7 508 507 552
611 7 508 507 741
612 7 552 507 741
613 1 507 508 509
614 2 508 509 510
615 3 508 509 573
616 2 510 509 573
617 4 509 510 511
618 4 509 510 574
619 5 511 510 574
620 6 510 511 512
621 5 510 511 1681
622 6 512 511 1681
623 7 495 537 538
624 7 495 537 573
625 7 495 537 634
626 7 538 537 573
627 7 538 537 634
628 7 573 537 634
629 1 537 538 539
630 2 538 539 540
631 3 538 539 558
632 2 540 539 558
633 4 539 540 541
634 4 539 540 559
635 5 541 540 559
636 5 2135 541 540
637 6 2135 541 542
638 6 540 541 542
639 1 497 552 507
640 6 498 553 554
641 5 498 553 379
642 6 554 553 379
643 1 494 558 539
644 5 2124 559 540
645 6 2124 559 560
646 6 540 559 560
647 1 509 573 537
648 6 510 574 575
649 5 510 574 1679
650 6 575 574 1679
651 1 537 634 635
652 2 634 635 636
653 3 634 635 673
654 2 636 635 673
655 4 635 636 637
656 4 635 636 674
657 5 637 636 674
658 6 636 637 638
659 5 636 637 698
660 6 638 637 698
661 7 495 661 662
662 7 495 661 673
663 7 495 661 767
664 7 662 661 673
665 7 662 661 767
666 7 673 661 767
667 1 661 662 663
668 2 662 663 664
669 3 662 663 685
670 2 664 663 685
671 4 663 664 665
672 4 663 664 686
673 5 665 664 686
674 6 664 665 666
675 5 664 665 719
676 6 666 665 719
677 1 635 673 661
678 5 595 674 636
679 6 595 674 675
680 6 636 674 675
681 1 494 685 663
682 5 617 686 664
683 6 617 686 687
684 6 664 686 687
685 7 484 483 561
686 7 484 483 688
687 7 484 483 791
688 7 561 483 688
689 7 561 483 791
690 7 688 483 791
691 8 483 484 501
692 8 483 484 525
693 8 483 484 667
694 8 501 484 525
695 8 501 484 667
696 8 525 484 667
697 7 484 501 502
698 7 484 501 751
699 7 484 501 794
700 7 502 501 751
701 7 502 501 794
702 7 751 501 794
703 1 501 502 503
704 2 502 503 504
705 3 502 503 576
706 2 504 503 576
707 4 503 504 505
708 4 503 504 577
709 5 505 504 577
710 6 504 505 506
711 5 504 505 1683
712 6 506 505 1683
713 7 484 525 526
714 7 484 525 576
715 7 484 525 639
716 7 526 525 576
717 7 526 525 639
718 7 576 525 639
719 1 525 526 527
720 2 526 527 528
721 3 526 527 561
722 2 528 527 561
723 4 527 528 529
724 4 527 528 562
725 5 529 528 562
726 6 528 529 530
727 5 528 529 2543
728 6 530 529 2543
729 1 483 561 527
730 6 528 562 563
731 5 528 562 2539
732 6 563 562 2539
733 1 503 576 525
734 6 504 577 578
735 5 504 577 1675
736 6 578 577 1675
737 1 525 639 640
738 2 639 640 641
739 3 639 640 679
740 2 641 640 679
741 4 640 641 642
742 4 640 641 680
743 5 642 641 680
744 6 641 642 643
745 5 641 642 707
746 6 643 642 707
747 7 484 667 668
748 7 484 667 679
749 7 484 667 764
750 7 668 667 679
751 7 668 667 764
752 7 679 667 764
753 1 667 668 669
754 2 668 669 670
755 3 668 669 688
756 2 670 669 688
757 4 669 670 671
758 4 669 670 689
759 5 671 670 689
760 6 670 671 672
761 5 670 671 716
762 6 672 671 716
763 1 640 679 667
764 5 607 680 641
765 6 607 680 681
766 6 641 680 681
767 1 483 688 669
768 5 612 689 670
769 6 612 689 690
770 6 670 689 690
771 1 483 791 809
772 1 501 794 809
773 3 791 809 794
774 2 791 809 810
775 2 794 809 810
776 4 809 810 811
777 4 809 810 819
778 5 811 810 819
779 5 159 811 810
780 6 159 811 812
781 6 810 811 812
782 5 44 819 810
783 6 44 819 820
784 6 810 819 820
785 1 591 721 722
786 2 721 722 723
787 3 721 722 782
788 2 723 722 782
789 4 722 723 724
790 4 722 723 783
791 5 724 723 783
792 6 723 724 725
793 5 723 724 765
794 6 725 724 765
795 1 501 751 752
796 2 751 752 753
797 3 751 752 764
798 2 753 752 764
799 4 752 753 754
800 4 752 753 765
801 5 754 753 765
802 6 753 754 755
803 5 753 754 783
804 6 755 754 783
805 1 667 764 752
806 5 724 765 753
807 6 724 765 766
808 6 753 765 766
809 1 462 782 722
810 5 723 783 754
811 6 723 783 784
812 6 754 783 784
813 1 451 450 463
814 2 450 451 452
815 3 450 451 458
816 2 452 451 458
817 4 451 452 453
818 4 451 452 459
819 5 453 452 459
820 6 452 453 454
821 5 452 453 1416
822 6 454 453 1416
823 1 451 458 462
824 6 452 459 460
825 5 452 459 1365
826 6 460 459 1365
827 7 458 462 477
828 7 458 462 782
829 7 458 462 785
830 7 477 462 782
831 7 477 462 785
832 7 782 462 785
833 7 450 463 477
834 7 450 463 697
835 7 450 463 800
836 7 477 463 697
837 7 477 463 800
838 7 697 463 800
839 8 462 477 463
840 8 462 477 481
841 8 462 477 591
842 8 463 477 481
843 8 463 477 591
844 8 481 477 591
845 7 477 481 624
846 7 477 481 788
847 7 477 481 795
848 7 624 481 788
849 7 624 481 795
850 7 788 481 795
851 7 477 591 592
852 7 477 591 709
853 7 477 591 721
854 7 592 591 709
855 7 592 591 721
856 7 709 591 721
857 1 591 592 593
858 2 592 593 594
859 3 592 593 697
860 2 594 593 697
861 4 593 594 595
862 4 593 594 698
863 5 595 594 698
864 6 594 595 596
865 5 594 595 674
866 6 596 595 674
867 1 481 624 625
868 2 624 625 626
869 3 624 625 709
870 2 626 625 709
871 4 625 626 627
872 4 625 626 710
873 5 627 626 710
874 6 626 627 628
875 5 626 627 692
876 6 628 627 692
877 1 463 697 593
878 5 594 698 637
879 6 594 698 699
880 6 637 698 699
881 1 591 709 625
882 5 626 710 659
883 6 626 710 711
884 6 659 710 711
885 1 462 785 801
886 1 481 788 841
887 1 481 795 801
888 1 463 800 841
889 3 785 801 795
890 2 785 801 802
891 2 795 801 802
892 4 801 802 803
893 4 801 802 821
894 5 803 802 821
895 5 129 803 802
896 6 129 803 804
897 6 802 803 804
898 5 75 821 802
899 6 75 821 822
900 6 802 821 822
901 3 788 841 800
902 2 788 841 842
903 2 800 841 842
904 4 841 842 843
905 4 841 842 847
906 5 843 842 847
907 5 2258 843 842
908 6 2258 843 844
909 6 842 843 844
910 5 2225 847 842
911 6 2225 847 848
912 6 842 847 848
913 7 64 63 65
914 7 64 63 140
915 7 64 63 270
916 7 65 63 140
917 7 65 63 270
918 7 140 63 270
919 8 63 64 95
920 8 63 64 107
921 8 63 64 225
922 8 95 64 107
923 8 95 64 225
924 8 107 64 225
925 1 63 65 66
926 2 65 66 67
927 3 65 66 125
928 2 67 66 125
929 4 66 67 68
930 4 66 67 126
931 5 68 67 126
932 6 67 68 69
933 5 67 68 823
934 6 69 68 823
935 7 64 95 96
936 7 64 95 125
937 7 64 95 332
938 7 96 95 125
939 7 96 95 332
940 7 125 95 332
941 1 95 96 97
942 2 96 97 98
943 3 96 97 146
944 2 98 97 146
945 4 97 98 99
946 4 97 98 147
947 5 99 98 147
948 5 880 99 98
949 6 880 99 100
950 6 98 99 100
951 7 64 107 108
952 7 64 107 146
953 7 64 107 205
954 7 108 107 146
955 7 108 107 205
956 7 146 107 205
957 1 107 108 109
958 2 108 109 110
959 3 108 109 140
960 2 110 109 140
961 4 109 110 111
962 4 109 110 141
963 5 111 110 141
964 6 110 111 112
965 5 110 111 2117
966 6 112 111 2117
967 1 66 125 95
968 6 67 126 127
969 5 67 126 807
970 6 127 126 807
971 1 63 140 109
972 6 110 141 142
973 5 110 141 2111
974 6 142 141 2111
975 1 97 146 107
976 5 872 147 98
977 6 872 147 148
978 6 98 147 148
979 1 107 205 206
980 2 205 206 207
981 3 205 206 252
982 2 207 206 252
983 4 206 207 208
984 4 206 207 253
985 5 208 207 253
986 6 207 208 209
987 5 207 208 277
988 6 209 208 277
989 7 64 225 226
990 7 64 225 252
991 7 64 225 337
992 7 226 225 252
993 7 226 225 337
994 7 252 225 337
995 1 225 226 227
996 2 226 227 228
997 3 226 227 270
998 2 228 227 270
999 4 227 228 229
1000 4 227 228 271
1001 5 229 228 271
1002 6 228 229 230
1003 5 228 229 289
1004 6 230 229 289
1005 1 206 252 225
1006 5 165 253 207
1007 6 165 253 254
1008 6 207 253 254
1009 1 63 270 227
1010 5 198 271 228
1011 6 198 271 272
1012 6 228 271 272
1013 1 173 302 303
1014 2 302 303 304
1015 3 302 303 355
1016 2 304 303 355
1017 4 303 304 305
1018 4 303 304 356
1019 5 305 304 356
1020 6 304 305 306
1021 5 304 305 338
1022 6 306 305 338
1023 1 95 332 333
1024 2 332 333 334
1025 3 332 333 337
1026 2 334 333 337
1027 4 333 334 335
1028 4 333 334 338
1029 5 335 334 338
1030 6 334 335 336
1031 5 334 335 356
1032 6 336 335 356
1033 1 225 337 333
1034 5 305 338 334
1035 6 305 338 339
1036 6 334 338 339
1037 1 46 355 303
1038 5 304 356 335
1039 6 304 356 357
1040 6 335 356 357
1041 7 47 46 48
1042 7 47 46 355
1043 7 47 46 373
1044 7 48 46 355
1045 7 48 46 373
1046 7 355 46 373
1047 8 46 47 56
1048 8 46 47 58
1049 8 46 47 173
1050 8 56 47 58
1051 8 56 47 173
1052 8 58 47 173
1053 1 46 48 49
1054 2 48 49 50
1055 3 48 49 155
1056 2 50 49 155
1057 4 49 50 51
1058 4 49 50 156
1059 5 51 50 156
1060 6 50 51 52
1061 5 50 51 817
1062 6 52 51 817
1063 7 47 56 155
1064 7 47 56 190
1065 7 47 56 363
1066 7 155 56 190
1067 7 155 56 363
1068 7 190 56 363
1069 7 47 58 279
1070 7 47 58 366
1071 7 47 58 375
1072 7 279 58 366
1073 7 279 58 375
1074 7 366 58 375
1075 1 49 155 56
1076 6 50 156 157
1077 5 50 156 815
1078 6 157 156 815
1079 7 47 173 174
1080 7 47 173 294
1081 7 47 173 302
1082 7 174 173 294
1083 7 174 173 302
1084 7 294 173 302
1085 1 173 174 175
1086 2 174 175 176
1087 3 174 175 279
1088 2 176 175 279
1089 4 175 176 177
1090 4 175 176 280
1091 5 177 176 280
1092 6 176 177 178
1093 5 176 177 259
1094 6 178 177 259
1095 1 56 190 191
1096 2 190 191 192
1097 3 190 191 294
1098 2 192 191 294
1099 4 191 192 193
1100 4 191 192 295
1101 5 193 192 295
1102 6 192 193 194
1103 5 192 193 262
1104 6 194 193 262
1105 1 58 279 175
1106 5 176 280 223
1107 6 176 280 281
1108 6 223 280 281
1109 1 173 294 191
1110 5 192 295 241
1111 6 192 295 296
1112 6 241 295 296
1113 1 56 363 413
1114 1 58 366 405
1115 1 46 373 405
1116 1 58 375 413
1117 3 366 405 373
1118 2 366 405 406
1119 2 373 405 406
1120 4 405 406 407
1121 4 405 406 409
1122 5 407 406 409
1123 5 998 407 406
1124 6 998 407 408
1125 6 406 407 408
1126 5 935 409 406
1127 6 935 409 410
1128 6 406 409 410
1129 3 363 413 375
1130 2 363 413 414
1131 2 375 413 414
1132 4 413 414 415
1133 4 413 414 421
1134 5 415 414 421
1135 5 1837 415 414
1136 6 1837 415 416
1137 6 414 415 416
1138 5 1807 421 414
1139 6 1807 421 422
1140 6 414 421 422
1141 1 7 6 18
1142 2 6 7 8
1143 3 6 7 11
1144 2 8 7 11
1145 4 7 8 9
1146 4 7 8 12
1147 5 9 8 12
1148 6 8 9 10
1149 5 8 9 1828
1150 6 10 9 1828
1151 1 7 11 20
1152 6 8 12 13
1153 5 8 12 1819
1154 6 13 12 1819
1155 7 6 18 55
1156 7 6 18 185
1157 7 6 18 372
1158 7 55 18 185
1159 7 55 18 372
1160 7 185 18 372
1161 7 11 20 55
1162 7 11 20 276
1163 7 11 20 365
1164 7 55 20 276
1165 7 55 20 365
1166 7 276 20 365
1167 7 55 54 349
1168 7 55 54 362
1169 7 55 54 374
1170 7 349 54 362
1171 7 349 54 374
1172 7 362 54 374
1173 8 18 55 20
1174 8 18 55 54
1175 8 18 55 161
1176 8 20 55 54
1177 8 20 55 161
1178 8 54 55 161
1179 7 55 161 162
1180 7 55 161 291
1181 7 55 161 307
1182 7 162 161 291
1183 7 162 161 307
1184 7 291 161 307
1185 1 161 162 163
1186 2 162 163 164
1187 3 162 163 276
1188 2 164 163 276
1189 4 163 164 165
1190 4 163 164 277
1191 5 165 164 277
1192 6 164 165 166
1193 5 164 165 253
1194 6 166 165 253
1195 1 18 185 186
1196 2 185 186 187
1197 3 185 186 291
1198 2 187 186 291
1199 4 186 187 188
1200 4 186 187 292
1201 5 188 187 292
1202 6 187 188 189
1203 5 187 188 265
1204 6 189 188 265
1205 1 20 276 163
1206 5 164 277 208
1207 6 164 277 278
1208 6 208 277 278
1209 1 161 291 186
1210 5 187 292 247
1211 6 187 292 293
1212 6 247 292 293
1213 1 54 362 381
1214 1 20 365 401
1215 1 18 372 381
1216 1 54 374 401
1217 3 362 381 372
1218 2 362 381 382
1219 2 372 381 382
1220 4 381 382 383
1221 4 381 382 399
1222 5 383 382 399
1223 5 550 383 382
1224 6 550 383 384
1225 6 382 383 384
1226 5 492 399 382
1227 6 492 399 400
1228 6 382 399 400
1229 3 365 401 374
1230 2 365 401 402
1231 2 374 401 402
1232 4 401 402 403
1233 4 401 402 411
1234 5 403 402 411
1235 5 1001 403 402
1236 6 1001 403 404
1237 6 402 403 404
1238 5 929 411 402
1239 6 929 411 412
1240 6 402 411 412
1241 1 161 307 308
1242 2 307 308 309
1243 3 307 308 349
1244 2 309 308 349
1245 4 308 309 310
1246 4 308 309 350
1247 5 310 309 350
1248 6 309 310 311
1249 5 309 310 347
1250 6 311 310 347
1251 1 89 322 323
1252 2 322 323 324
1253 3 322 323 346
1254 2 324 323 346
1255 4 323 324 325
1256 4 323 324 347
1257 5 325 324 347
1258 6 324 325 326
1259 5 324 325 350
1260 6 326 325 350
1261 1 231 346 323
1262 5 310 347 324
1263 6 310 347 348
1264 6 324 347 348
1265 1 54 349 308
1266 5 309 350 325
1267 6 309 350 351
1268 6 325 350 351
1269 7 62 61 131
1270 7 62 61 267
1271 7 62 61 368
1272 7 131 61 267
1273 7 131 61 368
1274 7 267 61 368
1275 8 61 62 89
1276 8 61 62 119
1277 8 61 62 231
1278 8 89 62 119
1279 8 89 62 231
1280 8 119 62 231
1281 7 62 89 90
1282 7 62 89 322
1283 7 62 89 369
1284 7 90 89 322
1285 7 90 89 369
1286 7 322 89 369
1287 1 89 90 91
1288 2 90 91 92
1289 3 90 91 143
1290 2 92 91 143
1291 4 91 92 93
1292 4 91 92 144
1293 5 93 92 144
1294 5 883 93 92
1295 6 883 93 94
1296 6 92 93 94
1297 7 62 119 120
1298 7 62 119 143
1299 7 62 119 220
1300 7 120 119 143
1301 7 120 119 220
1302 7 143 119 220
1303 1 119 120 121
1304 2 120 121 122
1305 3 120 121 131
1306 2 122 121 131
1307 4 121 122 123
1308 4 121 122 132
1309 5 123 122 132
1310 5 1708 123 122
1311 6 1708 123 124
1312 6 122 123 124
1313 1 61 131 121
1314 5 1705 132 122
1315 6 1705 132 133
1316 6 122 132 133
1317 1 91 143 119
1318 5 877 144 92
1319 6 877 144 145
1320 6 92 144 145
1321 1 119 220 221
1322 2 220 221 222
1323 3 220 221 258
1324 2 222 221 258
1325 4 221 222 223
1326 4 221 222 259
1327 5 223 222 259
1328 6 222 223 224
1329 5 222 223 280
1330 6 224 223 280
1331 7 62 231 232
1332 7 62 231 258
1333 7 62 231 346
1334 7 232 231 258
1335 7 232 231 346
1336 7 258 231 346
1337 1 231 232 233
1338 2 232 233 234
1339 3 232 233 267
1340 2 234 233 267
1341 4 233 234 235
1342 4 233 234 268
1343 5 235 234 268
1344 6 234 235 236
1345 5 234 235 286
1346 6 236 235 286
1347 1 221 258 231
1348 5 177 259 222
1349 6 177 259 260
1350 6 222 259 260
1351 1 61 267 233
1352 5 203 268 234
1353 6 203 268 269
1354 6 234 268 269
1355 1 61 368 389
1356 1 89 369 389
1357 3 368 389 369
1358 2 368 389 390
1359 2 369 389 390
1360 4 389 390 391
1361 4 389 390 393
1362 5 391 390 393
1363 5 580 391 390
1364 6 580 391 392
1365 6 390 391 392
1366 5 475 393 390
1367 6 475 393 394
1368 6 390 393 394
1369 7 488 487 489
1370 7 488 487 564
1371 7 488 487 694
1372 7 489 487 564
1373 7 489 487 694
1374 7 564 487 694
1375 8 487 488 519
1376 8 487 488 531
1377 8 487 488 649
1378 8 519 488 531
1379 8 519 488 649
1380 8 531 488 649
1381 1 487 489 490
1382 2 489 490 491
1383 3 489 490 549
1384 2 491 490 549
1385 4 490 491 492
1386 4 490 491 550
1387 5 492 491 550
1388 6 491 492 493
1389 5 491 492 399
1390 6 493 492 399
1391 7 488 519 520
1392 7 488 519 549
1393 7 488 519 756
1394 7 520 519 549
1395 7 520 519 756
1396 7 549 519 756
1397 1 519 520 521
1398 2 520 521 522
1399 3 520 521 570
1400 2 522 521 570
1401 4 521 522 523
1402 4 521 522 571
1403 5 523 522 571
1404 5 1304 523 522
1405 6 1304 523 524
1406 6 522 523 524
1407 7 488 531 532
1408 7 488 531 570
1409 7 488 531 629
1410 7 532 531 570
1411 7 532 531 629
1412 7 570 531 629
1413 1 531 532 533
1414 2 532 533 534
1415 3 532 533 564
1416 2 534 533 564
1417 4 533 534 535
1418 4 533 534 565
1419 5 535 534 565
1420 6 534 535 536
1421 5 534 535 2541
1422 6 536 535 2541
1423 1 490 549 519
1424 6 491 550 551
1425 5 491 550 383
1426 6 551 550 383
1427 1 487 564 533
1428 6 534 565 566
1429 5 534 565 2535
1430 6 566 565 2535
1431 1 521 570 531
1432 5 1296 571 522
1433 6 1296 571 572
1434 6 522 571 572
1435 1 531 629 630
1436 2 629 630 631
1437 3 629 630 676
1438 2 631 630 676
1439 4 630 631 632
1440 4 630 631 677
1441 5 632 631 677
1442 6 631 632 633
1443 5 631 632 701
1444 6 633 632 701
1445 7 488 649 650
1446 7 488 649 676
1447 7 488 649 761
1448 7 650 649 676
1449 7 650 649 761
1450 7 676 649 761
1451 1 649 650 651
1452 2 650 651 652
1453 3 650 651 694
1454 2 652 651 694
1455 4 651 652 653
1456 4 651 652 695
1457 5 653 652 695
1458 6 652 653 654
1459 5 652 653 713
1460 6 654 653 713
1461 1 630 676 649
1462 5 589 677 631
1463 6 589 677 678
1464 6 631 677 678
1465 1 487 694 651
1466 5 622 695 652
1467 6 622 695 696
1468 6 652 695 696
1469 1 597 726 727
1470 2 726 727 728
1471 3 726 727 779
1472 2 728 727 779
1473 4 727 728 729
1474 4 727 728 780
1475 5 729 728 780
1476 6 728 729 730
1477 5 728 729 762
1478 6 730 729 762
1479 1 519 756 757
1480 2 756 757 758
1481 3 756 757 761
1482 2 758 757 761
1483 4 757 758 759
1484 4 757 758 762
1485 5 759 758 762
1486 6 758 759 760
1487 5 758 759 780
1488 6 760 759 780
1489 1 649 761 757
1490 5 729 762 758
1491 6 729 762 763
1492 6 758 762 763
1493 1 470 779 727
1494 5 728 780 759
1495 6 728 780 781
1496 6 759 780 781
1497 7 471 470 472
1498 7 471 470 779
1499 7 471 470 797
1500 7 472 470 779
1501 7 472 470 797
1502 7 779 470 797
1503 8 470 471 480
1504 8 470 471 482
1505 8 470 471 597
1506 8 480 471 482
1507 8 480 471 597
1508 8 482 471 597
1509 1 470 472 473
1510 2 472 473 474
1511 3 472 473 579
1512 2 474 473 579
1513 4 473 474 475
1514 4 473 474 580
1515 5 475 474 580
1516 6 474 475 476
1517 5 474 475 393
1518 6 476 475 393
1519 7 471 480 579
1520 7 471 480 614
1521 7 471 480 787
1522 7 579 480 614
1523 7 579 480 787
1524 7 614 480 787
1525 7 471 482 703
1526 7 471 482 790
1527 7 471 482 799
1528 7 703 482 790
1529 7 703 482 799
1530 7 790 482 799
1531 1 473 579 480
1532 6 474 580 581
1533 5 474 580 391
1534 6 581 580 391
1535 7 471 597 598
1536 7 471 597 718
1537 7 471 597 726
1538 7 598 597 718
1539 7 598 597 726
1540 7 718 597 726
1541 1 597 598 599
1542 2 598 599 600
1543 3 598 599 703
1544 2 600 599 703
1545 4 599 600 601
1546 4 599 600 704
1547 5 601 600 704
1548 6 600 601 602
1549 5 600 601 683
1550 6 602 601 683
1551 1 480 614 615
1552 2 614 615 616
1553 3 614 615 718
1554 2 616 615 718
1555 4 615 616 617
1556 4 615 616 719
1557 5 617 616 719
1558 6 616 617 618
1559 5 616 617 686
1560 6 618 617 686
1561 1 482 703 599
1562 5 600 704 647
1563 6 600 704 705
1564 6 647 704 705
1565 1 597 718 615
1566 5 616 719 665
1567 6 616 719 720
1568 6 665 719 720
1569 1 480 787 837
1570 1 482 790 829
1571 1 470 797 829
1572 1 482 799 837
1573 3 790 829 797
1574 2 790 829 830
1575 2 797 829 830
1576 4 829 830 831
1577 4 829 830 833
1578 5 831 830 833
1579 5 1422 831 830
1580 6 1422 831 832
1581 6 830 831 832
1582 5 1359 833 830
1583 6 1359 833 834
1584 6 830 833 834
1585 3 787 837 799
1586 2 787 837 838
1587 2 799 837 838
1588 4 837 838 839
1589 4 837 838 845
1590 5 839 838 845
1591 5 2261 839 838
1592 6 2261 839 840
1593 6 838 839 840
1594 5 2231 845 838
1595 6 2231 845 846
1596 6 838 845 846
1597 1 431 430 442
1598 2 430 431 432
1599 3 430 431 435
1600 2 432 431 435
1601 4 431 432 433
1602 4 431 432 436
1603 5 433 432 436
1604 6 432 433 434
1605 5 432 433 2252
1606 6 434 433 2252
1607 1 431 435 444
1608 6 432 436 437
1609 5 432 436 2243
1610 6 437 436 2243
1611 7 430 442 479
1612 7 430 442 609
1613 7 430 442 796
1614 7 479 442 609
1615 7 479 442 796
1616 7 609 442 796
1617 7 435 444 479
1618 7 435 444 700
1619 7 435 444 789
1620 7 479 444 700
1621 7 479 444 789
1622 7 700 444 789
1623 7 479 478 773
1624 7 479 478 786
1625 7 479 478 798
1626 7 773 478 786
1627 7 773 478 798
1628 7 786 478 798
1629 8 442 479 444
1630 8 442 479 478
1631 8 442 479 585
1632 8 444 479 478
1633 8 444 479 585
1634 8 478 479 585
1635 7 479 585 586
1636 7 479 585 715
1637 7 479 585 731
1638 7 586 585 715
1639 7 586 585 731
1640 7 715 585 731
1641 1 585 586 587
1642 2 586 587 588
1643 3 586 587 700
1644 2 588 587 700
1645 4 587 588 589
1646 4 587 588 701
1647 5 589 588 701
1648 6 588 589 590
1649 5 588 589 677
1650 6 590 589 677
1651 1 442 609 610
1652 2 609 610 611
1653 3 609 610 715
1654 2 611 610 715
1655 4 610 611 612
1656 4 610 611 716
1657 5 612 611 716
1658 6 611 612 613
1659 5 611 612 689
1660 6 613 612 689
1661 1 444 700 587
1662 5 588 701 632
1663 6 588 701 702
1664 6 632 701 702
1665 1 585 715 610
1666 5 611 716 671
1667 6 611 716 717
1668 6 671 716 717
1669 1 478 786 805
1670 1 444 789 825
1671 1 442 796 805
1672 1 478 798 825
1673 3 786 805 796
1674 2 786 805 806
1675 2 796 805 806
1676 4 805 806 807
1677 4 805 806 823
1678 5 807 806 823
1679 5 126 807 806
1680 6 126 807 808
1681 6 806 807 808
1682 5 68 823 806
1683 6 68 823 824
1684 6 806 823 824
1685 3 789 825 798
1686 2 789 825 826
1687 2 798 825 826
1688 4 825 826 827
1689 4 825 826 835
1690 5 827 826 835
1691 5 1425 827 826
1692 6 1425 827 828
1693 6 826 827 828
1694 5 1353 835 826
1695 6 1353 835 836
1696 6 826 835 836
1697 1 585 731 732
1698 2 731 732 733
1699 3 731 732 773
1700 2 733 732 773
1701 4 732 733 734
1702 4 732 733 774
1703 5 734 733 774
1704 6 733 734 735
1705 5 733 734 771
1706 6 735 734 771
1707 1 513 746 747
1708 2 746 747 748
1709 3 746 747 770
1710 2 748 747 770
1711 4 747 748 749
1712 4 747 748 771
1713 5 749 748 771
1714 6 748 749 750
1715 5 748 749 774
1716 6 750 749 774
1717 1 655 770 747
1718 5 734 771 748
1719 6 734 771 772
1720 6 748 771 772
1721 1 478 773 732
1722 5 733 774 749
1723 6 733 774 775
1724 6 749 774 775
1725 7 486 485 555
1726 7 486 485 691
1727 7 486 485 792
1728 7 555 485 691
1729 7 555 485 792
1730 7 691 485 792
1731 8 485 486 513
1732 8 485 486 543
1733 8 485 486 655
1734 8 513 486 543
1735 8 513 486 655
1736 8 543 486 655
1737 7 486 513 514
1738 7 486 513 746
1739 7 486 513 793
1740 7 514 513 746
1741 7 514 513 793
1742 7 746 513 793
1743 1 513 514 515
1744 2 514 515 516
1745 3 514 515 567
1746 2 516 515 567
1747 4 515 516 517
1748 4 515 516 568
1749 5 517 516 568
1750 5 1307 517 516
1751 6 1307 517 518
1752 6 516 517 518
1753 7 486 543 544
1754 7 486 543 567
1755 7 486 543 644
1756 7 544 543 567
1757 7 544 543 644
1758 7 567 543 644
1759 1 543 544 545
1760 2 544 545 546
1761 3 544 545 555
1762 2 546 545 555
1763 4 545 546 547
1764 4 545 546 556
1765 5 547 546 556
1766 5 2132 547 546
1767 6 2132 547 548
1768 6 546 547 548
1769 1 485 555 545
1770 5 2129 556 546
1771 6 2129 556 557
1772 6 546 556 557
1773 1 515 567 543
1774 5 1301 568 516
1775 6 1301 568 569
1776 6 516 568 569
1777 1 543 644 645
1778 2 644 645 646
1779 3 644 645 682
1780 2 646 645 682
1781 4 645 646 647
1782 4 645 646 683
1783 5 647 646 683
1784 6 646 647 648
1785 5 646 647 704
1786 6 648 647 704
1787 7 486 655 656
1788 7 486 655 682
1789 7 486 655 770
1790 7 656 655 682
1791 7 656 655 770
1792 7 682 655 770
1793 1 655 656 657
1794 2 656 657 658
1795 3 656 657 691
1796 2 658 657 691
1797 4 657 658 659
1798 4 657 658 692
1799 5 659 658 692
1800 6 658 659 660
1801 5 658 659 710
1802 6 660 659 710
1803 1 645 682 655
1804 5 601 683 646
1805 6 601 683 684
1806 6 646 683 684
1807 1 485 691 657
1808 5 627 692 658
1809 6 627 692 693
1810 6 658 692 693
1811 1 485 792 813
1812 1 513 793 813
1813 3 792 813 793
1814 2 792 813 814
1815 2 793 813 814
1816 4 813 814 815
1817 4 813 814 817
1818 5 815 814 817
1819 5 156 815 814
1820 6 156 815 816
1821 6 814 815 816
1822 5 51 817 814
1823 6 51 817 818
1824 6 814 817 818
1825 1 850 849 865
1826 2 849 850 851
1827 3 849 850 862
1828 2 851 850 862
1829 4 850 851 852
1830 4 850 851 863
1831 5 852 851 863
1832 6 851 852 853
1833 5 851 852 2679
1834 6 853 852 2679
1835 1 850 862 867
1836 6 851 863 864
1837 5 851 863 2661
1838 6 864 863 2661
1839 7 849 865 888
1840 7 849 865 1006
1841 7 849 865 1043
1842 7 888 865 1006
1843 7 888 865 1043
1844 7 1006 865 1043
1845 7 862 867 869
1846 7 862 867 888
1847 7 862 867 1130
1848 7 869 867 888
1849 7 869 867 1130
1850 7 888 867 1130
1851 1 867 869 870
1852 2 869 870 871
1853 3 869 870 879
1854 2 871 870 879
1855 4 870 871 872
1856 4 870 871 880
1857 5 872 871 880
1858 6 871 872 873
1859 5 871 872 147
1860 6 873 872 147
1861 1 870 879 885
1862 6 871 880 881
1863 5 871 880 99
1864 6 881 880 99
1865 7 879 885 888
1866 7 879 885 889
1867 7 879 885 1200
1868 7 888 885 889
1869 7 888 885 1200
1870 7 889 885 1200
1871 8 865 888 867
1872 8 865 888 885
1873 8 865 888 1027
1874 8 867 888 885
1875 8 867 888 1027
1876 8 885 888 1027
1877 1 885 889 890
1878 2 889 890 891
1879 3 889 890 1006
1880 2 891 890 1006
1881 4 890 891 892
1882 4 890 891 1007
1883 5 892 891 1007
1884 6 891 892 893
1885 5 891 892 1667
1886 6 893 892 1667
1887 1 865 1006 890
1888 6 891 1007 1008
1889 5 891 1007 1659
1890 6 1008 1007 1659
1891 7 888 1027 1028
1892 7 888 1027 1136
1893 7 888 1027 1160
1894 7 1028 1027 1136
1895 7 1028 1027 1160
1896 7 1136 1027 1160
1897 1 1027 1028 1029
1898 2 1028 1029 1030
1899 3 1028 1029 1130
1900 2 1030 1029 1130
1901 4 1029 1030 1031
1902 4 1029 1030 1131
1903 5 1031 1030 1131
1904 6 1030 1031 1032
1905 5 1030 1031 1104
1906 6 1032 1031 1104
1907 1 865 1043 1044
1908 2 1043 1044 1045
1909 3 1043 1044 1136
1910 2 1045 1044 1136
1911 4 1044 1045 1046
1912 4 1044 1045 1137
1913 5 1046 1045 1137
1914 6 1045 1046 1047
1915 5 1045 1046 1119
1916 6 1047 1046 1119
1917 1 867 1130 1029
1918 5 1030 1131 1066
1919 6 1030 1131 1132
1920 6 1066 1131 1132
1921 1 1027 1136 1044
1922 5 1045 1137 1077
1923 6 1045 1137 1138
1924 6 1077 1137 1138
1925 1 1027 1160 1161
1926 2 1160 1161 1162
1927 3 1160 1161 1200
1928 2 1162 1161 1200
1929 4 1161 1162 1163
1930 4 1161 1162 1201
1931 5 1163 1162 1201
1932 6 1162 1163 1164
1933 5 1162 1163 1192
1934 6 1164 1163 1192
1935 1 931 1165 1166
1936 2 1165 1166 1167
1937 3 1165 1166 1191
1938 2 1167 1166 1191
1939 4 1166 1167 1168
1940 4 1166 1167 1192
1941 5 1168 1167 1192
1942 6 1167 1168 1169
1943 5 1167 1168 1201
1944 6 1169 1168 1201
1945 1 1085 1191 1166
1946 5 1163 1192 1167
1947 6 1163 1192 1193
1948 6 1167 1192 1193
1949 1 885 1200 1161
1950 5 1162 1201 1168
1951 6 1162 1201 1202
1952 6 1168 1201 1202
1953 7 919 918 920
1954 7 919 918 982
1955 7 919 918 1109
1956 7 920 918 982
1957 7 920 918 1109
1958 7 982 918 1109
1959 8 918 919 931
1960 8 918 919 961
1961 8 918 919 1085
1962 8 931 919 961
1963 8 931 919 1085
1964 8 961 919 1085
1965 1 918 920 921
1966 2 920 921 922
1967 3 920 921 976
1968 2 922 921 976
1969 4 921 922 923
1970 4 921 922 977
1971 5 923 922 977
1972 6 922 923 924
1973 5 922 923 1669
1974 6 924 923 1669
1975 7 919 931 932
1976 7 919 931 976
1977 7 919 931 1165
1978 7 932 931 976
1979 7 932 931 1165
1980 7 976 931 1165
1981 1 931 932 933
1982 2 932 933 934
1983 3 932 933 997
1984 2 934 933 997
1985 4 933 934 935
1986 4 933 934 998
1987 5 935 934 998
1988 6 934 935 936
1989 5 934 935 409
1990 6 936 935 409
1991 7 919 961 962
1992 7 919 961 997
1993 7 919 961 1058
1994 7 962 961 997
1995 7 962 961 1058
1996 7 997 961 1058
1997 1 961 962 963
1998 2 962 963 964
1999 3 962 963 982
2000 2 964 963 982
2001 4 963 964 965
2002 4 963 964 983
2003 5 965 964 983
2004 5 2559 965 964
2005 6 2559 965 966
2006 6 964 965 966
2007 1 921 976 931
2008 6 922 977 978
2009 5 922 977 1651
2010 6 978 977 1651
2011 1 918 982 963
2012 5 2548 983 964
2013 6 2548 983 984
2014 6 964 983 984
2015 1 933 997 961
2016 6 934 998 999
2017 5 934 998 407
2018 6 999 998 407
2019 1 961 1058 1059
2020 2 1058 1059 1060
2021 3 1058 1059 1097
2022 2 1060 1059 1097
2023 4 1059 1060 1061
2024 4 1059 1060 1098
2025 5 1061 1060 1098
2026 6 1060 1061 1062
2027 5 1060 1061 1122
2028 6 1062 1061 1122
2029 7 919 1085 1086
2030 7 919 1085 1097
2031 7 919 1085 1191
2032 7 1086 1085 1097
2033 7 1086 1085 1191
2034 7 1097 1085 1191
2035 1 1085 1086 1087
2036 2 1086 1087 1088
2037 3 1086 1087 1109
2038 2 1088 1087 1109
2039 4 1087 1088 1089
2040 4 1087 1088 1110
2041 5 1089 1088 1110
2042 6 1088 1089 1090
2043 5 1088 1089 1143
2044 6 1090 1089 1143
2045 1 1059 1097 1085
2046 5 1019 1098 1060
2047 6 1019 1098 1099
2048 6 1060 1098 1099
2049 1 918 1109 1087
2050 5 1041 1110 1088
2051 6 1041 1110 1111
2052 6 1088 1110 1111
2053 7 908 907 985
2054 7 908 907 1112
2055 7 908 907 1215
2056 7 985 907 1112
2057 7 985 907 1215
2058 7 1112 907 1215
2059 8 907 908 925
2060 8 907 908 949
2061 8 907 908 1091
2062 8 925 908 949
2063 8 925 908 1091
2064 8 949 908 1091
2065 7 908 925 926
2066 7 908 925 1175
2067 7 908 925 1218
2068 7 926 925 1175
2069 7 926 925 1218
2070 7 1175 925 1218
2071 1 925 926 927
2072 2 926 927 928
2073 3 926 927 1000
2074 2 928 927 1000
2075 4 927 928 929
2076 4 927 928 1001
2077 5 929 928 1001
2078 6 928 929 930
2079 5 928 929 411
2080 6 930 929 411
2081 7 908 949 950
2082 7 908 949 1000
2083 7 908 949 1063
2084 7 950 949 1000
2085 7 950 949 1063
2086 7 1000 949 1063
2087 1 949 950 951
2088 2 950 951 952
2089 3 950 951 985
2090 2 952 951 985
2091 4 951 952 953
2092 4 951 952 986
2093 5 953 952 986
2094 6 952 953 954
2095 5 952 953 2967
2096 6 954 953 2967
2097 1 907 985 951
2098 6 952 986 987
2099 5 952 986 2963
2100 6 987 986 2963
2101 1 927 1000 949
2102 6 928 1001 1002
2103 5 928 1001 403
2104 6 1002 1001 403
2105 1 949 1063 1064
2106 2 1063 1064 1065
2107 3 1063 1064 1103
2108 2 1065 1064 1103
2109 4 1064 1065 1066
2110 4 1064 1065 1104
2111 5 1066 1065 1104
2112 6 1065 1066 1067
2113 5 1065 1066 1131
2114 6 1067 1066 1131
2115 7 908 1091 1092
2116 7 908 1091 1103
2117 7 908 1091 1188
2118 7 1092 1091 1103
2119 7 1092 1091 1188
2120 7 1103 1091 1188
2121 1 1091 1092 1093
2122 2 1092 1093 1094
2123 3 1092 1093 1112
2124 2 1094 1093 1112
2125 4 1093 1094 1095
2126 4 1093 1094 1113
2127 5 1095 1094 1113
2128 6 1094 1095 1096
2129 5 1094 1095 1140
2130 6 1096 1095 1140
2131 1 1064 1103 1091
2132 5 1031 1104 1065
2133 6 1031 1104 1105
2134 6 1065 1104 1105
2135 1 907 1112 1093
2136 5 1036 1113 1094
2137 6 1036 1113 1114
2138 6 1094 1113 1114
2139 1 907 1215 1233
2140 1 925 1218 1233
2141 3 1215 1233 1218
2142 2 1215 1233 1234
2143 2 1218 1233 1234
2144 4 1233 1234 1235
2145 4 1233 1234 1243
2146 5 1235 1234 1243
2147 5 1431 1235 1234
2148 6 1431 1235 1236
2149 6 1234 1235 1236
2150 5 1316 1243 1234
2151 6 1316 1243 1244
2152 6 1234 1243 1244
2153 1 1015 1145 1146
2154 2 1145 1146 1147
2155 3 1145 1146 1206
2156 2 1147 1146 1206
2157 4 1146 1147 1148
2158 4 1146 1147 1207
2159 5 1148 1147 1207
2160 6 1147 1148 1149
2161 5 1147 1148 1189
2162 6 1149 1148 1189
2163 1 925 1175 1176
2164 2 1175 1176 1177
2165 3 1175 1176 1188
2166 2 1177 1176 1188
2167 4 1176 1177 1178
2168 4 1176 1177 1189
2169 5 1178 1177 1189
2170 6 1177 1178 1179
2171 5 1177 1178 1207
2172 6 1179 1178 1207
2173 1 1091 1188 1176
2174 5 1148 1189 1177
2175 6 1148 1189 1190
2176 6 1177 1189 1190
2177 1 886 1206 1146
2178 5 1147 1207 1178
2179 6 1147 1207 1208
2180 6 1178 1207 1208
2181 1 875 874 887
2182 2 874 875 876
2183 3 874 875 882
2184 2 876 875 882
2185 4 875 876 877
2186 4 875 876 883
2187 5 877 876 883
2188 6 876 877 878
2189 5 876 877 144
2190 6 878 877 144
2191 1 875 882 886
2192 6 876 883 884
2193 5 876 883 93
2194 6 884 883 93
2195 7 882 886 901
2196 7 882 886 1206
2197 7 882 886 1209
2198 7 901 886 1206
2199 7 901 886 1209
2200 7 1206 886 1209
2201 7 874 887 901
2202 7 874 887 1121
2203 7 874 887 1224
2204 7 901 887 1121
2205 7 901 887 1224
2206 7 1121 887 1224
2207 8 886 901 887
2208 8 886 901 905
2209 8 886 901 1015
2210 8 887 901 905
2211 8 887 901 1015
2212 8 905 901 1015
2213 7 901 905 1048
2214 7 901 905 1212
2215 7 901 905 1219
2216 7 1048 905 1212
2217 7 1048 905 1219
2218 7 1212 905 1219
2219 7 901 1015 1016
2220 7 901 1015 1133
2221 7 901 1015 1145
2222 7 1016 1015 1133
2223 7 1016 1015 1145
2224 7 1133 1015 1145
2225 1 1015 1016 1017
2226 2 1016 1017 1018
2227 3 1016 1017 1121
2228 2 1018 1017 1121
2229 4 1017 1018 1019
2230 4 1017 1018 1122
2231 5 1019 1018 1122
2232 6 1018 1019 1020
2233 5 1018 1019 1098
2234 6 1020 1019 1098
2235 1 905 1048 1049
2236 2 1048 1049 1050
2237 3 1048 1049 1133
2238 2 1050 1049 1133
2239 4 1049 1050 1051
2240 4 1049 1050 1134
2241 5 1051 1050 1134
2242 6 1050 1051 1052
2243 5 1050 1051 1116
2244 6 1052 1051 1116
2245 1 887 1121 1017
2246 5 1018 1122 1061
2247 6 1018 1122 1123
2248 6 1061 1122 1123
2249 1 1015 1133 1049
2250 5 1050 1134 1083
2251 6 1050 1134 1135
2252 6 1083 1134 1135
2253 1 886 1209 1225
2254 1 905 1212 1265
2255 1 905 1219 1225
2256 1 887 1224 1265
2257 3 1209 1225 1219
2258 2 1209 1225 1226
2259 2 1219 1225 1226
2260 4 1225 1226 1227
2261 4 1225 1226 1245
2262 5 1227 1226 1245
2263 5 1401 1227 1226
2264 6 1401 1227 1228
2265 6 1226 1227 1228
2266 5 1347 1245 1226
2267 6 1347 1245 1246
2268 6 1226 1245 1246
2269 3 1212 1265 1224
2270 2 1212 1265 1266
2271 2 1224 1265 1266
2272 4 1265 1266 1267
2273 4 1265 1266 1271
2274 5 1267 1266 1271
2275 5 2682 1267 1266
2276 6 2682 1267 1268
2277 6 1266 1267 1268
2278 5 2649 1271 1266
2279 6 2649 1271 1272
2280 6 1266 1271 1272
2281 1 1274 1273 1289
2282 2 1273 1274 1275
2283 3 1273 1274 1286
2284 2 1275 1274 1286
2285 4 1274 1275 1276
2286 4 1274 1275 1287
2287 5 1276 1275 1287
2288 6 1275 1276 1277
2289 5 1275 1276 3103
2290 6 1277 1276 3103
2291 1 1274 1286 1291
2292 6 1275 1287 1288
2293 5 1275 1287 3085
2294 6 1288 1287 3085
2295 7 1273 1289 1312
2296 7 1273 1289 1430
2297 7 1273 1289 1467
2298 7 1312 1289 1430
2299 7 1312 1289 1467
2300 7 1430 1289 1467
2301 7 1286 1291 1293
2302 7 1286 1291 1312
2303 7 1286 1291 1554
2304 7 1293 1291 1312
2305 7 1293 1291 1554
2306 7 1312 1291 1554
2307 1 1291 1293 1294
2308 2 1293 1294 1295
2309 3 1293 1294 1303
2310 2 1295 1294 1303
2311 4 1294 1295 1296
2312 4 1294 1295 1304
2313 5 1296 1295 1304
2314 6 1295 1296 1297
2315 5 1295 1296 571
2316 6 1297 1296 571
2317 1 1294 1303 1309
2318 6 1295 1304 1305
2319 5 1295 1304 523
2320 6 1305 1304 523
2321 7 1303 1309 1312
2322 7 1303 1309 1313
2323 7 1303 1309 1624
2324 7 1312 1309 1313
2325 7 1312 1309 1624
2326 7 1313 1309 1624
2327 8 1289 1312 1291
2328 8 1289 1312 1309
2329 8 1289 1312 1451
2330 8 1291 1312 1309
2331 8 1291 1312 1451
2332 8 1309 1312 1451
2333 1 1309 1313 1314
2334 2 1313 1314 1315
2335 3 1313 1314 1430
2336 2 1315 1314 1430
2337 4 1314 1315 1316
2338 4 1314 1315 1431
2339 5 1316 1315 1431
2340 6 1315 1316 1317
2341 5 1315 1316 1243
2342 6 1317 1316 1243
2343 1 1289 1430 1314
2344 6 1315 1431 1432
2345 5 1315 1431 1235
2346 6 1432 1431 1235
2347 7 1312 1451 1452
2348 7 1312 1451 1560
2349 7 1312 1451 1584
2350 7 1452 1451 1560
2351 7 1452 1451 1584
2352 7 1560 1451 1584
2353 1 1451 1452 1453
2354 2 1452 1453 1454
2355 3 1452 1453 1554
2356 2 1454 1453 1554
2357 4 1453 1454 1455
2358 4 1453 1454 1555
2359 5 1455 1454 1555
2360 6 1454 1455 1456
2361 5 1454 1455 1528
2362 6 1456 1455 1528
2363 1 1289 1467 1468
2364 2 1467 1468 1469
2365 3 1467 1468 1560
2366 2 1469 1468 1560
2367 4 1468 1469 1470
2368 4 1468 1469 1561
2369 5 1470 1469 1561
2370 6 1469 1470 1471
2371 5 1469 1470 1543
2372 6 1471 1470 1543
2373 1 1291 1554 1453
2374 5 1454 1555 1490
2375 6 1454 1555 1556
2376 6 1490 1555 1556
2377 1 1451 1560 1468
2378 5 1469 1561 1501
2379 6 1469 1561 1562
2380 6 1501 1561 1562
2381 1 1451 1584 1585
2382 2 1584 1585 1586
2383 3 1584 1585 1624
2384 2 1586 1585 1624
2385 4 1585 1586 1587
2386 4 1585 1586 1625
2387 5 1587 1586 1625
2388 6 1586 1587 1588
2389 5 1586 1587 1616
2390 6 1588 1587 1616
2391 1 1355 1589 1590
2392 2 1589 1590 1591
2393 3 1589 1590 1615
2394 2 1591 1590 1615
2395 4 1590 1591 1592
2396 4 1590 1591 1616
2397 5 1592 1591 1616
2398 6 1591 1592 1593
2399 5 1591 1592 1625
2400 6 1593 1592 1625
2401 1 1509 1615 1590
2402 5 1587 1616 1591
2403 6 1587 1616 1617
2404 6 1591 1616 1617
2405 1 1309 1624 1585
2406 5 1586 1625 1592
2407 6 1586 1625 1626
2408 6 1592 1625 1626
2409 7 1343 1342 1344
2410 7 1343 1342 1406
2411 7 1343 1342 1533
2412 7 1344 1342 1406
2413 7 1344 1342 1533
2414 7 1406 1342 1533
2415 8 1342 1343 1355
2416 8 1342 1343 1385
2417 8 1342 1343 1509
2418 8 1355 1343 1385
2419 8 1355 1343 1509
2420 8 1385 1343 1509
2421 1 1342 1344 1345
2422 2 1344 1345 1346
2423 3 1344 1345 1400
2424 2 1346 1345 1400
2425 4 1345 1346 1347
2426 4 1345 1346 1401
2427 5 1347 1346 1401
2428 6 1346 1347 1348
2429 5 1346 1347 1245
2430 6 1348 1347 1245
2431 7 1343 1355 1356
2432 7 1343 1355 1400
2433 7 1343 1355 1589
2434 7 1356 1355 1400
2435 7 1356 1355 1589
2436 7 1400 1355 1589
2437 1 1355 1356 1357
2438 2 1356 1357 1358
2439 3 1356 1357 1421
2440 2 1358 1357 1421
2441 4 1357 1358 1359
2442 4 1357 1358 1422
2443 5 1359 1358 1422
2444 6 1358 1359 1360
2445 5 1358 1359 833
2446 6 1360 1359 833
2447 7 1343 1385 1386
2448 7 1343 1385 1421
2449 7 1343 1385 1482
2450 7 1386 1385 1421
2451 7 1386 1385 1482
2452 7 1421 1385 1482
2453 1 1385 1386 1387
2454 2 1386 1387 1388
2455 3 1386 1387 1406
2456 2 1388 1387 1406
2457 4 1387 1388 1389
2458 4 1387 1388 1407
2459 5 1389 1388 1407
2460 5 2983 1389 1388
2461 6 2983 1389 1390
2462 6 1388 1389 1390
2463 1 1345 1400 1355
2464 6 1346 1401 1402
2465 5 1346 1401 1227
2466 6 1402 1401 1227
2467 1 1342 1406 1387
2468 5 2972 1407 1388
2469 6 2972 1407 1408
2470 6 1388 1407 1408
2471 1 1357 1421 1385
2472 6 1358 1422 1423
2473 5 1358 1422 831
2474 6 1423 1422 831
2475 1 1385 1482 1483
2476 2 1482 1483 1484
2477 3 1482 1483 1521
2478 2 1484 1483 1521
2479 4 1483 1484 1485
2480 4 1483 1484 1522
2481 5 1485 1484 1522
2482 6 1484 1485 1486
2483 5 1484 1485 1546
2484 6 1486 1485 1546
2485 7 1343 1509 1510
2486 7 1343 1509 1521
2487 7 1343 1509 1615
2488 7 1510 1509 1521
2489 7 1510 1509 1615
2490 7 1521 1509 1615
2491 1 1509 1510 1511
2492 2 1510 1511 1512
2493 3 1510 1511 1533
2494 2 1512 1511 1533
2495 4 1511 1512 1513
2496 4 1511 1512 1534
2497 5 1513 1512 1534
2498 6 1512 1513 1514
2499 5 1512 1513 1567
2500 6 1514 1513 1567
2501 1 1483 1521 1509
2502 5 1443 1522 1484
2503 6 1443 1522 1523
2504 6 1484 1522 1523
2505 1 1342 1533 1511
2506 5 1465 1534 1512
2507 6 1465 1534 1535
2508 6 1512 1534 1535
2509 7 1332 1331 1409
2510 7 1332 1331 1536
2511 7 1332 1331 1639
2512 7 1409 1331 1536
2513 7 1409 1331 1639
2514 7 1536 1331 1639
2515 8 1331 1332 1349
2516 8 1331 1332 1373
2517 8 1331 1332 1515
2518 8 1349 1332 1373
2519 8 1349 1332 1515
2520 8 1373 1332 1515
2521 7 1332 1349 1350
2522 7 1332 1349 1599
2523 7 1332 1349 1642
2524 7 1350 1349 1599
2525 7 1350 1349 1642
2526 7 1599 1349 1642
2527 1 1349 1350 1351
2528 2 1350 1351 1352
2529 3 1350 1351 1424
2530 2 1352 1351 1424
2531 4 1351 1352 1353
2532 4 1351 1352 1425
2533 5 1353 1352 1425
2534 6 1352 1353 1354
2535 5 1352 1353 835
2536 6 1354 1353 835
2537 7 1332 1373 1374
2538 7 1332 1373 1424
2539 7 1332 1373 1487
2540 7 1374 1373 1424
2541 7 1374 1373 1487
2542 7 1424 1373 1487
2543 1 1373 1374 1375
2544 2 1374 1375 1376
2545 3 1374 1375 1409
2546 2 1376 1375 1409
2547 4 1375 1376 1377
2548 4 1375 1376 1410
2549 5 1377 1376 1410
2550 6 1376 1377 1378
2551 5 1376 1377 3391
2552 6 1378 1377 3391
2553 1 1331 1409 1375
2554 6 1376 1410 1411
2555 5 1376 1410 3387
2556 6 1411 1410 3387
2557 1 1351 1424 1373
2558 6 1352 1425 1426
2559 5 1352 1425 827
2560 6 1426 1425 827
2561 1 1373 1487 1488
2562 2 1487 1488 1489
2563 3 1487 1488 1527
2564 2 1489 1488 1527
2565 4 1488 1489 1490
2566 4 1488 1489 1528
2567 5 1490 1489 1528
2568 6 1489 1490 1491
2569 5 1489 1490 1555
2570 6 1491 1490 1555
2571 7 1332 1515 1516
2572 7 1332 1515 1527
2573 7 1332 1515 1612
2574 7 1516 1515 1527
2575 7 1516 1515 1612
2576 7 1527 1515 1612
2577 1 1515 1516 1517
2578 2 1516 1517 1518
2579 3 1516 1517 1536
2580 2 1518 1517 1536
2581 4 1517 1518 1519
2582 4 1517 1518 1537
2583 5 1519 1518 1537
2584 6 1518 1519 1520
2585 5 1518 1519 1564
2586 6 1520 1519 1564
2587 1 1488 1527 1515
2588 5 1455 1528 1489
2589 6 1455 1528 1529
2590 6 1489 1528 1529
2591 1 1331 1536 1517
2592 5 1460 1537 1518
2593 6 1460 1537 1538
2594 6 1518 1537 1538
2595 1 1331 1639 1657
2596 1 1349 1642 1657
2597 3 1639 1657 1642
2598 2 1639 1657 1658
2599 2 1642 1657 1658
2600 4 1657 1658 1659
2601 4 1657 1658 1667
2602 5 1659 1658 1667
2603 5 1007 1659 1658
2604 6 1007 1659 1660
2605 6 1658 1659 1660
2606 5 892 1667 1658
2607 6 892 1667 1668
2608 6 1658 1667 1668
2609 1 1439 1569 1570
2610 2 1569 1570 1571
2611 3 1569 1570 1630
2612 2 1571 1570 1630
2613 4 1570 1571 1572
2614 4 1570 1571 1631
2615 5 1572 1571 1631
2616 6 1571 1572 1573
2617 5 1571 1572 1613
2618 6 1573 1572 1613
2619 1 1349 1599 1600
2620 2 1599 1600 1601
2621 3 1599 1600 1612
2622 2 1601 1600 1612
2623 4 1600 1601 1602
2624 4 1600 1601 1613
2625 5 1602 1601 1613
2626 6 1601 1602 1603
2627 5 1601 1602 1631
2628 6 1603 1602 1631
2629 1 1515 1612 1600
2630 5 1572 1613 1601
2631 6 1572 1613 1614
2632 6 1601 1613 1614
2633 1 1310 1630 1570
2634 5 1571 1631 1602
2635 6 1571 1631 1632
2636 6 1602 1631 1632
2637 1 1299 1298 1311
2638 2 1298 1299 1300
2639 3 1298 1299 1306
2640 2 1300 1299 1306
2641 4 1299 1300 1301
2642 4 1299 1300 1307
2643 5 1301 1300 1307
2644 6 1300 1301 1302
2645 5 1300 1301 568
2646 6 1302 1301 568
2647 1 1299 1306 1310
2648 6 1300 1307 1308
2649 5 1300 1307 517
2650 6 1308 1307 517
2651 7 1306 1310 1325
2652 7 1306 1310 1630
2653 7 1306 1310 1633
2654 7 1325 1310 1630
2655 7 1325 1310 1633
2656 7 1630 1310 1633
2657 7 1298 1311 1325
2658 7 1298 1311 1545
2659 7 1298 1311 1648
2660 7 1325 1311 1545
2661 7 1325 1311 1648
2662 7 1545 1311 1648
2663 8 1310 1325 1311
2664 8 1310 1325 1329
2665 8 1310 1325 1439
2666 8 1311 1325 1329
2667 8 1311 1325 1439
2668 8 1329 1325 1439
2669 7 1325 1329 1472
2670 7 1325 1329 1636
2671 7 1325 1329 1643
2672 7 1472 1329 1636
2673 7 1472 1329 1643
2674 7 1636 1329 1643
2675 7 1325 1439 1440
2676 7 1325 1439 1557
2677 7 1325 1439 1569
2678 7 1440 1439 1557
2679 7 1440 1439 1569
2680 7 1557 1439 1569
2681 1 1439 1440 1441
2682 2 1440 1441 1442
2683 3 1440 1441 1545
2684 2 1442 1441 1545
2685 4 1441 1442 1443
2686 4 1441 1442 1546
2687 5 1443 1442 1546
2688 6 1442 1443 1444
2689 5 1442 1443 1522
2690 6 1444 1443 1522
2691 1 1329 1472 1473
2692 2 1472 1473 1474
2693 3 1472 1473 1557
2694 2 1474 1473 1557
2695 4 1473 1474 1475
2696 4 1473 1474 1558
2697 5 1475 1474 1558
2698 6 1474 1475 1476
2699 5 1474 1475 1540
2700 6 1476 1475 1540
2701 1 1311 1545 1441
2702 5 1442 1546 1485
2703 6 1442 1546 1547
2704 6 1485 1546 1547
2705 1 1439 1557 1473
2706 5 1474 1558 1507
2707 6 1474 1558 1559
2708 6 1507 1558 1559
2709 1 1310 1633 1649
2710 1 1329 1636 1689
2711 1 1329 1643 1649
2712 1 1311 1648 1689
2713 3 1633 1649 1643
2714 2 1633 1649 1650
2715 2 1643 1649 1650
2716 4 1649 1650 1651
2717 4 1649 1650 1669
2718 5 1651 1650 1669
2719 5 977 1651 1650
2720 6 977 1651 1652
2721 6 1650 1651 1652
2722 5 923 1669 1650
2723 6 923 1669 1670
2724 6 1650 1669 1670
2725 3 1636 1689 1648
2726 2 1636 1689 1690
2727 2 1648 1689 1690
2728 4 1689 1690 1691
2729 4 1689 1690 1695
2730 5 1691 1690 1695
2731 5 3106 1691 1690
2732 6 3106 1691 1692
2733 6 1690 1691 1692
2734 5 3073 1695 1690
2735 6 3073 1695 1696
2736 6 1690 1695 1696
2737 7 912 911 913
2738 7 912 911 988
2739 7 912 911 1118
2740 7 913 911 988
2741 7 913 911 1118
2742 7 988 911 1118
2743 8 911 912 943
2744 8 911 912 955
2745 8 911 912 1073
2746 8 943 912 955
2747 8 943 912 1073
2748 8 955 912 1073
2749 1 911 913 914
2750 2 913 914 915
2751 3 913 914 973
2752 2 915 914 973
2753 4 914 915 916
2754 4 914 915 974
2755 5 916 915 974
2756 6 915 916 917
2757 5 915 916 1671
2758 6 917 916 1671
2759 7 912 943 944
2760 7 912 943 973
2761 7 912 943 1180
2762 7 944 943 973
2763 7 944 943 1180
2764 7 973 943 1180
2765 1 943 944 945
2766 2 944 945 946
2767 3 944 945 994
2768 2 946 945 994
2769 4 945 946 947
2770 4 945 946 995
2771 5 947 946 995
2772 5 32 947 946
2773 6 32 947 948
2774 6 946 947 948
2775 7 912 955 956
2776 7 912 955 994
2777 7 912 955 1053
2778 7 956 955 994
2779 7 956 955 1053
2780 7 994 955 1053
2781 1 955 956 957
2782 2 956 957 958
2783 3 956 957 988
2784 2 958 957 988
2785 4 957 958 959
2786 4 957 958 989
2787 5 959 958 989
2788 6 958 959 960
2789 5 958 959 2965
2790 6 960 959 2965
2791 1 914 973 943
2792 6 915 974 975
2793 5 915 974 1655
2794 6 975 974 1655
2795 1 911 988 957
2796 6 958 989 990
2797 5 958 989 2959
2798 6 990 989 2959
2799 1 945 994 955
2800 5 24 995 946
2801 6 24 995 996
2802 6 946 995 996
2803 1 955 1053 1054
2804 2 1053 1054 1055
2805 3 1053 1054 1100
2806 2 1055 1054 1100
2807 4 1054 1055 1056
2808 4 1054 1055 1101
2809 5 1056 1055 1101
2810 6 1055 1056 1057
2811 5 1055 1056 1125
2812 6 1057 1056 1125
2813 7 912 1073 1074
2814 7 912 1073 1100
2815 7 912 1073 1185
2816 7 1074 1073 1100
2817 7 1074 1073 1185
2818 7 1100 1073 1185
2819 1 1073 1074 1075
2820 2 1074 1075 1076
2821 3 1074 1075 1118
2822 2 1076 1075 1118
2823 4 1075 1076 1077
2824 4 1075 1076 1119
2825 5 1077 1076 1119
2826 6 1076 1077 1078
2827 5 1076 1077 1137
2828 6 1078 1077 1137
2829 1 1054 1100 1073
2830 5 1013 1101 1055
2831 6 1013 1101 1102
2832 6 1055 1101 1102
2833 1 911 1118 1075
2834 5 1046 1119 1076
2835 6 1046 1119 1120
2836 6 1076 1119 1120
2837 1 1021 1150 1151
2838 2 1150 1151 1152
2839 3 1150 1151 1203
2840 2 1152 1151 1203
2841 4 1151 1152 1153
2842 4 1151 1152 1204
2843 5 1153 1152 1204
2844 6 1152 1153 1154
2845 5 1152 1153 1186
2846 6 1154 1153 1186
2847 1 943 1180 1181
2848 2 1180 1181 1182
2849 3 1180 1181 1185
2850 2 1182 1181 1185
2851 4 1181 1182 1183
2852 4 1181 1182 1186
2853 5 1183 1182 1186
2854 6 1182 1183 1184
2855 5 1182 1183 1204
2856 6 1184 1183 1204
2857 1 1073 1185 1181
2858 5 1153 1186 1182
2859 6 1153 1186 1187
2860 6 1182 1186 1187
2861 1 894 1203 1151
2862 5 1152 1204 1183
2863 6 1152 1204 1205
2864 6 1183 1204 1205
2865 7 895 894 896
2866 7 895 894 1203
2867 7 895 894 1221
2868 7 896 894 1203
2869 7 896 894 1221
2870 7 1203 894 1221
2871 8 894 895 904
2872 8 894 895 906
2873 8 894 895 1021
2874 8 904 895 906
2875 8 904 895 1021
2876 8 906 895 1021
2877 1 894 896 897
2878 2 896 897 898
2879 3 896 897 1003
2880 2 898 897 1003
2881 4 897 898 899
2882 4 897 898 1004
2883 5 899 898 1004
2884 6 898 899 900
2885 5 898 899 1665
2886 6 900 899 1665
2887 7 895 904 1003
2888 7 895 904 1038
2889 7 895 904 1211
2890 7 1003 904 1038
2891 7 1003 904 1211
2892 7 1038 904 1211
2893 7 895 906 1127
2894 7 895 906 1214
2895 7 895 906 1223
2896 7 1127 906 1214
2897 7 1127 906 1223
2898 7 1214 906 1223
2899 1 897 1003 904
2900 6 898 1004 1005
2901 5 898 1004 1663
2902 6 1005 1004 1663
2903 7 895 1021 1022
2904 7 895 1021 1142
2905 7 895 1021 1150
2906 7 1022 1021 1142
2907 7 1022 1021 1150
2908 7 1142 1021 1150
2909 1 1021 1022 1023
2910 2 1022 1023 1024
2911 3 1022 1023 1127
2912 2 1024 1023 1127
2913 4 1023 1024 1025
2914 4 1023 1024 1128
2915 5 1025 1024 1128
2916 6 1024 1025 1026
2917 5 1024 1025 1107
2918 6 1026 1025 1107
2919 1 904 1038 1039
2920 2 1038 1039 1040
2921 3 1038 1039 1142
2922 2 1040 1039 1142
2923 4 1039 1040 1041
2924 4 1039 1040 1143
2925 5 1041 1040 1143
2926 6 1040 1041 1042
2927 5 1040 1041 1110
2928 6 1042 1041 1110
2929 1 906 1127 1023
2930 5 1024 1128 1071
2931 6 1024 1128 1129
2932 6 1071 1128 1129
2933 1 1021 1142 1039
2934 5 1040 1143 1089
2935 6 1040 1143 1144
2936 6 1089 1143 1144
2937 1 904 1211 1261
2938 1 906 1214 1253
2939 1 894 1221 1253
2940 1 906 1223 1261
2941 3 1214 1253 1221
2942 2 1214 1253 1254
2943 2 1221 1253 1254
2944 4 1253 1254 1255
2945 4 1253 1254 1257
2946 5 1255 1254 1257
2947 5 150 1255 1254
2948 6 150 1255 1256
2949 6 1254 1255 1256
2950 5 87 1257 1254
2951 6 87 1257 1258
2952 6 1254 1257 1258
2953 3 1211 1261 1223
2954 2 1211 1261 1262
2955 2 1223 1261 1262
2956 4 1261 1262 1263
2957 4 1261 1262 1269
2958 5 1263 1262 1269
2959 5 2685 1263 1262
2960 6 2685 1263 1264
2961 6 1262 1263 1264
2962 5 2655 1269 1262
2963 6 2655 1269 1270
2964 6 1262 1269 1270
2965 1 855 854 866
2966 2 854 855 856
2967 3 854 855 859
2968 2 856 855 859
2969 4 855 856 857
2970 4 855 856 860
2971 5 857 856 860
2972 6 856 857 858
2973 5 856 857 2676
2974 6 858 857 2676
2975 1 855 859 868
2976 6 856 860 861
2977 5 856 860 2667
2978 6 861 860 2667
2979 7 854 866 903
2980 7 854 866 1033
2981 7 854 866 1220
2982 7 903 866 1033
2983 7 903 866 1220
2984 7 1033 866 1220
2985 7 859 868 903
2986 7 859 868 1124
2987 7 859 868 1213
2988 7 903 868 1124
2989 7 903 868 1213
2990 7 1124 868 1213
2991 7 903 902 1197
2992 7 903 902 1210
2993 7 903 902 1222
2994 7 1197 902 1210
2995 7 1197 902 1222
2996 7 1210 902 1222
2997 8 866 903 868
2998 8 866 903 902
2999 8 866 903 1009
3000 8 868 903 902
3001 8 868 903 1009
3002 8 902 903 1009
3003 7 903 1009 1010
3004 7 903 1009 1139
3005 7 903 1009 1155
3006 7 1010 1009 1139
3007 7 1010 1009 1155
3008 7 1139 1009 1155
3009 1 1009 1010 1011
3010 2 1010 1011 1012
3011 3 1010 1011 1124
3012 2 1012 1011 1124
3013 4 1011 1012 1013
3014 4 1011 1012 1125
3015 5 1013 1012 1125
3016 6 1012 1013 1014
3017 5 1012 1013 1101
3018 6 1014 1013 1101
3019 1 866 1033 1034
3020 2 1033 1034 1035
3021 3 1033 1034 1139
3022 2 1035 1034 1139
3023 4 1034 1035 1036
3024 4 1034 1035 1140
3025 5 1036 1035 1140
3026 6 1035 1036 1037
3027 5 1035 1036 1113
3028 6 1037 1036 1113
3029 1 868 1124 1011
3030 5 1012 1125 1056
3031 6 1012 1125 1126
3032 6 1056 1125 1126
3033 1 1009 1139 1034
3034 5 1035 1140 1095
3035 6 1035 1140 1141
3036 6 1095 1140 1141
3037 1 902 1210 1229
3038 1 868 1213 1249
3039 1 866 1220 1229
3040 1 902 1222 1249
3041 3 1210 1229 1220
3042 2 1210 1229 1230
3043 2 1220 1229 1230
3044 4 1229 1230 1231
3045 4 1229 1230 1247
3046 5 1231 1230 1247
3047 5 1398 1231 1230
3048 6 1398 1231 1232
3049 6 1230 1231 1232
3050 5 1340 1247 1230
3051 6 1340 1247 1248
3052 6 1230 1247 1248
3053 3 1213 1249 1222
3054 2 1213 1249 1250
3055 2 1222 1249 1250
3056 4 1249 1250 1251
3057 4 1249 1250 1259
3058 5 1251 1250 1259
3059 5 153 1251 1250
3060 6 153 1251 1252
3061 6 1250 1251 1252
3062 5 81 1259 1250
3063 6 81 1259 1260
3064 6 1250 1259 1260
3065 1 1009 1155 1156
3066 2 1155 1156 1157
3067 3 1155 1156 1197
3068 2 1157 1156 1197
3069 4 1156 1157 1158
3070 4 1156 1157 1198
3071 5 1158 1157 1198
3072 6 1157 1158 1159
3073 5 1157 1158 1195
3074 6 1159 1158 1195
3075 1 937 1170 1171
3076 2 1170 1171 1172
3077 3 1170 1171 1194
3078 2 1172 1171 1194
3079 4 1171 1172 1173
3080 4 1171 1172 1195
3081 5 1173 1172 1195
3082 6 1172 1173 1174
3083 5 1172 1173 1198
3084 6 1174 1173 1198
3085 1 1079 1194 1171
3086 5 1158 1195 1172
3087 6 1158 1195 1196
3088 6 1172 1195 1196
3089 1 902 1197 1156
3090 5 1157 1198 1173
3091 6 1157 1198 1199
3092 6 1173 1198 1199
3093 7 910 909 979
3094 7 910 909 1115
3095 7 910 909 1216
3096 7 979 909 1115
3097 7 979 909 1216
3098 7 1115 909 1216
3099 8 909 910 937
3100 8 909 910 967
3101 8 909 910 1079
3102 8 937 910 967
3103 8 937 910 1079
3104 8 967 910 1079
3105 7 910 937 938
3106 7 910 937 1170
3107 7 910 937 1217
3108 7 938 937 1170
3109 7 938 937 1217
3110 7 1170 937 1217
3111 1 937 938 939
3112 2 938 939 940
3113 3 938 939 991
3114 2 940 939 991
3115 4 939 940 941
3116 4 939 940 992
3117 5 941 940 992
3118 5 35 941 940
3119 6 35 941 942
3120 6 940 941 942
3121 7 910 967 968
3122 7 910 967 991
3123 7 910 967 1068
3124 7 968 967 991
3125 7 968 967 1068
3126 7 991 967 1068
3127 1 967 968 969
3128 2 968 969 970
3129 3 968 969 979
3130 2 970 969 979
3131 4 969 970 971
3132 4 969 970 980
3133 5 971 970 980
3134 5 2556 971 970
3135 6 2556 971 972
3136 6 970 971 972
3137 1 909 979 969
3138 5 2553 980 970
3139 6 2553 980 981
3140 6 970 980 981
3141 1 939 991 967
3142 5 29 992 940
3143 6 29 992 993
3144 6 940 992 993
3145 1 967 1068 1069
3146 2 1068 1069 1070
3147 3 1068 1069 1106
3148 2 1070 1069 1106
3149 4 1069 1070 1071
3150 4 1069 1070 1107
3151 5 1071 1070 1107
3152 6 1070 1071 1072
3153 5 1070 1071 1128
3154 6 1072 1071 1128
3155 7 910 1079 1080
3156 7 910 1079 1106
3157 7 910 1079 1194
3158 7 1080 1079 1106
3159 7 1080 1079 1194
3160 7 1106 1079 1194
3161 1 1079 1080 1081
3162 2 1080 1081 1082
3163 3 1080 1081 1115
3164 2 1082 1081 1115
3165 4 1081 1082 1083
3166 4 1081 1082 1116
3167 5 1083 1082 1116
3168 6 1082 1083 1084
3169 5 1082 1083 1134
3170 6 1084 1083 1134
3171 1 1069 1106 1079
3172 5 1025 1107 1070
3173 6 1025 1107 1108
3174 6 1070 1107 1108
3175 1 909 1115 1081
3176 5 1051 1116 1082
3177 6 1051 1116 1117
3178 6 1082 1116 1117
3179 1 909 1216 1237
3180 1 937 1217 1237
3181 3 1216 1237 1217
3182 2 1216 1237 1238
3183 2 1217 1237 1238
3184 4 1237 1238 1239
3185 4 1237 1238 1241
3186 5 1239 1238 1241
3187 5 1428 1239 1238
3188 6 1428 1239 1240
3189 6 1238 1239 1240
3190 5 1323 1241 1238
3191 6 1323 1241 1242
3192 6 1238 1241 1242
3193 7 1336 1335 1337
3194 7 1336 1335 1412
3195 7 1336 1335 1542
3196 7 1337 1335 1412
3197 7 1337 1335 1542
3198 7 1412 1335 1542
3199 8 1335 1336 1367
3200 8 1335 1336 1379
3201 8 1335 1336 1497
3202 8 1367 1336 1379
3203 8 1367 1336 1497
3204 8 1379 1336 1497
3205 1 1335 1337 1338
3206 2 1337 1338 1339
3207 3 1337 1338 1397
3208 2 1339 1338 1397
3209 4 1338 1339 1340
3210 4 1338 1339 1398
3211 5 1340 1339 1398
3212 6 1339 1340 1341
3213 5 1339 1340 1247
3214 6 1341 1340 1247
3215 7 1336 1367 1368
3216 7 1336 1367 1397
3217 7 1336 1367 1604
3218 7 1368 1367 1397
3219 7 1368 1367 1604
3220 7 1397 1367 1604
3221 1 1367 1368 1369
3222 2 1368 1369 1370
3223 3 1368 1369 1418
3224 2 1370 1369 1418
3225 4 1369 1370 1371
3226 4 1369 1370 1419
3227 5 1371 1370 1419
3228 5 456 1371 1370
3229 6 456 1371 1372
3230 6 1370 1371 1372
3231 7 1336 1379 1380
3232 7 1336 1379 1418
3233 7 1336 1379 1477
3234 7 1380 1379 1418
3235 7 1380 1379 1477
3236 7 1418 1379 1477
3237 1 1379 1380 1381
3238 2 1380 1381 1382
3239 3 1380 1381 1412
3240 2 1382 1381 1412
3241 4 1381 1382 1383
3242 4 1381 1382 1413
3243 5 1383 1382 1413
3244 6 1382 1383 1384
3245 5 1382 1383 3389
3246 6 1384 1383 3389
3247 1 1338 1397 1367
3248 6 1339 1398 1399
3249 5 1339 1398 1231
3250 6 1399 1398 1231
3251 1 1335 1412 1381
3252 6 1382 1413 1414
3253 5 1382 1413 3383
3254 6 1414 1413 3383
3255 1 1369 1418 1379
3256 5 448 1419 1370
3257 6 448 1419 1420
3258 6 1370 1419 1420
3259 1 1379 1477 1478
3260 2 1477 1478 1479
3261 3 1477 1478 1524
3262 2 1479 1478 1524
3263 4 1478 1479 1480
3264 4 1478 1479 1525
3265 5 1480 1479 1525
3266 6 1479 1480 1481
3267 5 1479 1480 1549
3268 6 1481 1480 1549
3269 7 1336 1497 1498
3270 7 1336 1497 1524
3271 7 1336 1497 1609
3272 7 1498 1497 1524
3273 7 1498 1497 1609
3274 7 1524 1497 1609
3275 1 1497 1498 1499
3276 2 1498 1499 1500
3277 3 1498 1499 1542
3278 2 1500 1499 1542
3279 4 1499 1500 1501
3280 4 1499 1500 1543
3281 5 1501 1500 1543
3282 6 1500 1501 1502
3283 5 1500 1501 1561
3284 6 1502 1501 1561
3285 1 1478 1524 1497
3286 5 1437 1525 1479
3287 6 1437 1525 1526
3288 6 1479 1525 1526
3289 1 1335 1542 1499
3290 5 1470 1543 1500
3291 6 1470 1543 1544
3292 6 1500 1543 1544
3293 1 1445 1574 1575
3294 2 1574 1575 1576
3295 3 1574 1575 1627
3296 2 1576 1575 1627
3297 4 1575 1576 1577
3298 4 1575 1576 1628
3299 5 1577 1576 1628
3300 6 1576 1577 1578
3301 5 1576 1577 1610
3302 6 1578 1577 1610
3303 1 1367 1604 1605
3304 2 1604 1605 1606
3305 3 1604 1605 1609
3306 2 1606 1605 1609
3307 4 1605 1606 1607
3308 4 1605 1606 1610
3309 5 1607 1606 1610
3310 6 1606 1607 1608
3311 5 1606 1607 1628
3312 6 1608 1607 1628
3313 1 1497 1609 1605
3314 5 1577 1610 1606
3315 6 1577 1610 1611
3316 6 1606 1610 1611
3317 1 1318 1627 1575
3318 5 1576 1628 1607
3319 6 1576 1628 1629
3320 6 1607 1628 1629
3321 7 1319 1318 1320
3322 7 1319 1318 1627
3323 7 1319 1318 1645
3324 7 1320 1318 1627
3325 7 1320 1318 1645
3326 7 1627 1318 1645
3327 8 1318 1319 1328
3328 8 1318 1319 1330
3329 8 1318 1319 1445
3330 8 1328 1319 1330
3331 8 1328 1319 1445
3332 8 1330 1319 1445
3333 1 1318 1320 1321
3334 2 1320 1321 1322
3335 3 1320 1321 1427
3336 2 1322 1321 1427
3337 4 1321 1322 1323
3338 4 1321 1322 1428
3339 5 1323 1322 1428
3340 6 1322 1323 1324
3341 5 1322 1323 1241
3342 6 1324 1323 1241
3343 7 1319 1328 1427
3344 7 1319 1328 1462
3345 7 1319 1328 1635
3346 7 1427 1328 1462
3347 7 1427 1328 1635
3348 7 1462 1328 1635
3349 7 1319 1330 1551
3350 7 1319 1330 1638
3351 7 1319 1330 1647
3352 7 1551 1330 1638
3353 7 1551 1330 1647
3354 7 1638 1330 1647
3355 1 1321 1427 1328
3356 6 1322 1428 1429
3357 5 1322 1428 1239
3358 6 1429 1428 1239
3359 7 1319 1445 1446
3360 7 1319 1445 1566
3361 7 1319 1445 1574
3362 7 1446 1445 1566
3363 7 1446 1445 1574
3364 7 1566 1445 1574
3365 1 1445 1446 1447
3366 2 1446 1447 1448
3367 3 1446 1447 1551
3368 2 1448 1447 1551
3369 4 1447 1448 1449
3370 4 1447 1448 1552
3371 5 1449 1448 1552
3372 6 1448 1449 1450
3373 5 1448 1449 1531
3374 6 1450 1449 1531
3375 1 1328 1462 1463
3376 2 1462 1463 1464
3377 3 1462 1463 1566
3378 2 1464 1463 1566
3379 4 1463 1464 1465
3380 4 1463 1464 1567
3381 5 1465 1464 1567
3382 6 1464 1465 1466
3383 5 1464 1465 1534
3384 6 1466 1465 1534
3385 1 1330 1551 1447
3386 5 1448 1552 1495
3387 6 1448 1552 1553
3388 6 1495 1552 1553
3389 1 1445 1566 1463
3390 5 1464 1567 1513
3391 6 1464 1567 1568
3392 6 1513 1567 1568
3393 1 1328 1635 1685
3394 1 1330 1638 1677
3395 1 1318 1645 1677
3396 1 1330 1647 1685
3397 3 1638 1677 1645
3398 2 1638 1677 1678
3399 2 1645 1677 1678
3400 4 1677 1678 1679
3401 4 1677 1678 1681
3402 5 1679 1678 1681
3403 5 574 1679 1678
3404 6 574 1679 1680
3405 6 1678 1679 1680
3406 5 511 1681 1678
3407 6 511 1681 1682
3408 6 1678 1681 1682
3409 3 1635 1685 1647
3410 2 1635 1685 1686
3411 2 1647 1685 1686
3412 4 1685 1686 1687
3413 4 1685 1686 1693
3414 5 1687 1686 1693
3415 5 3109 1687 1686
3416 6 3109 1687 1688
3417 6 1686 1687 1688
3418 5 3079 1693 1686
3419 6 3079 1693 1694
3420 6 1686 1693 1694
3421 1 1279 1278 1290
3422 2 1278 1279 1280
3423 3 1278 1279 1283
3424 2 1280 1279 1283
3425 4 1279 1280 1281
3426 4 1279 1280 1284
3427 5 1281 1280 1284
3428 6 1280 1281 1282
3429 5 1280 1281 3100
3430 6 1282 1281 3100
3431 1 1279 1283 1292
3432 6 1280 1284 1285
3433 5 1280 1284 3091
3434 6 1285 1284 3091
3435 7 1278 1290 1327
3436 7 1278 1290 1457
3437 7 1278 1290 1644
3438 7 1327 1290 1457
3439 7 1327 1290 1644
3440 7 1457 1290 1644
3441 7 1283 1292 1327
3442 7 1283 1292 1548
3443 7 1283 1292 1637
3444 7 1327 1292 1548
3445 7 1327 1292 1637
3446 7 1548 1292 1637
3447 7 1327 1326 1621
3448 7 1327 1326 1634
3449 7 1327 1326 1646
3450 7 1621 1326 1634
3451 7 1621 1326 1646
3452 7 1634 1326 1646
3453 8 1290 1327 1292
3454 8 1290 1327 1326
3455 8 1290 1327 1433
3456 8 1292 1327 1326
3457 8 1292 1327 1433
3458 8 1326 1327 1433
3459 7 1327 1433 1434
3460 7 1327 1433 1563
3461 7 1327 1433 1579
3462 7 1434 1433 1563
3463 7 1434 1433 1579
3464 7 1563 1433 1579
3465 1 1433 1434 1435
3466 2 1434 1435 1436
3467 3 1434 1435 1548
3468 2 1436 1435 1548
3469 4 1435 1436 1437
3470 4 1435 1436 1549
3471 5 1437 1436 1549
3472 6 1436 1437 1438
3473 5 1436 1437 1525
3474 6 1438 1437 1525
3475 1 1290 1457 1458
3476 2 1457 1458 1459
3477 3 1457 1458 1563
3478 2 1459 1458 1563
3479 4 1458 1459 1460
3480 4 1458 1459 1564
3481 5 1460 1459 1564
3482 6 1459 1460 1461
3483 5 1459 1460 1537
3484 6 1461 1460 1537
3485 1 1292 1548 1435
3486 5 1436 1549 1480
3487 6 1436 1549 1550
3488 6 1480 1549 1550
3489 1 1433 1563 1458
3490 5 1459 1564 1519
3491 6 1459 1564 1565
3492 6 1519 1564 1565
3493 1 1326 1634 1653
3494 1 1292 1637 1673
3495 1 1290 1644 1653
3496 1 1326 1646 1673
3497 3 1634 1653 1644
3498 2 1634 1653 1654
3499 2 1644 1653 1654
3500 4 1653 1654 1655
3501 4 1653 1654 1671
3502 5 1655 1654 1671
3503 5 974 1655 1654
3504 6 974 1655 1656
3505 6 1654 1655 1656
3506 5 916 1671 1654
3507 6 916 1671 1672
3508 6 1654 1671 1672
3509 3 1637 1673 1646
3510 2 1637 1673 1674
3511 2 1646 1673 1674
3512 4 1673 1674 1675
3513 4 1673 1674 1683
3514 5 1675 1674 1683
3515 5 577 1675 1674
3516 6 577 1675 1676
3517 6 1674 1675 1676
3518 5 505 1683 1674
3519 6 505 1683 1684
3520 6 1674 1683 1684
3521 1 1433 1579 1580
3522 2 1579 1580 1581
3523 3 1579 1580 1621
3524 2 1581 1580 1621
3525 4 1580 1581 1582
3526 4 1580 1581 1622
3527 5 1582 1581 1622
3528 6 1581 1582 1583
3529 5 1581 1582 1619
3530 6 1583 1582 1619
3531 1 1361 1594 1595
3532 2 1594 1595 1596
3533 3 1594 1595 1618
3534 2 1596 1595 1618
3535 4 1595 1596 1597
3536 4 1595 1596 1619
3537 5 1597 1596 1619
3538 6 1596 1597 1598
3539 5 1596 1597 1622
3540 6 1598 1597 1622
3541 1 1503 1618 1595
3542 5 1582 1619 1596
3543 6 1582 1619 1620
3544 6 1596 1619 1620
3545 1 1326 1621 1580
3546 5 1581 1622 1597
3547 6 1581 1622 1623
3548 6 1597 1622 1623
3549 7 1334 1333 1403
3550 7 1334 1333 1539
3551 7 1334 1333 1640
3552 7 1403 1333 1539
3553 7 1403 1333 1640
3554 7 1539 1333 1640
3555 8 1333 1334 1361
3556 8 1333 1334 1391
3557 8 1333 1334 1503
3558 8 1361 1334 1391
3559 8 1361 1334 1503
3560 8 1391 1334 1503
3561 7 1334 1361 1362
3562 7 1334 1361 1594
3563 7 1334 1361 1641
3564 7 1362 1361 1594
3565 7 1362 1361 1641
3566 7 1594 1361 1641
3567 1 1361 1362 1363
3568 2 1362 1363 1364
3569 3 1362 1363 1415
3570 2 1364 1363 1415
3571 4 1363 1364 1365
3572 4 1363 1364 1416
3573 5 1365 1364 1416
3574 5 459 1365 1364
3575 6 459 1365 1366
3576 6 1364 1365 1366
3577 7 1334 1391 1392
3578 7 1334 1391 1415
3579 7 1334 1391 1492
3580 7 1392 1391 1415
3581 7 1392 1391 1492
3582 7 1415 1391 1492
3583 1 1391 1392 1393
3584 2 1392 1393 1394
3585 3 1392 1393 1403
3586 2 1394 1393 1403
3587 4 1393 1394 1395
3588 4 1393 1394 1404
3589 5 1395 1394 1404
3590 5 2980 1395 1394
3591 6 2980 1395 1396
3592 6 1394 1395 1396
3593 1 1333 1403 1393
3594 5 2977 1404 1394
3595 6 2977 1404 1405
3596 6 1394 1404 1405
3597 1 1363 1415 1391
3598 5 453 1416 1364
3599 6 453 1416 1417
3600 6 1364 1416 1417
3601 1 1391 1492 1493
3602 2 1492 1493 1494
3603 3 1492 1493 1530
3604 2 1494 1493 1530
3605 4 1493 1494 1495
3606 4 1493 1494 1531
3607 5 1495 1494 1531
3608 6 1494 1495 1496
3609 5 1494 1495 1552
3610 6 1496 1495 1552
3611 7 1334 1503 1504
3612 7 1334 1503 1530
3613 7 1334 1503 1618
3614 7 1504 1503 1530
3615 7 1504 1503 1618
3616 7 1530 1503 1618
3617 1 1503 1504 1505
3618 2 1504 1505 1506
3619 3 1504 1505 1539
3620 2 1506 1505 1539
3621 4 1505 1506 1507
3622 4 1505 1506 1540
3623 5 1507 1506 1540
3624 6 1506 1507 1508
3625 5 1506 1507 1558
3626 6 1508 1507 1558
3627 1 1493 1530 1503
3628 5 1449 1531 1494
3629 6 1449 1531 1532
3630 6 1494 1531 1532
3631 1 1333 1539 1505
3632 5 1475 1540 1506
3633 6 1475 1540 1541
3634 6 1506 1540 1541
3635 1 1333 1640 1661
3636 1 1361 1641 1661
3637 3 1640 1661 1641
3638 2 1640 1661 1662
3639 2 1641 1661 1662
3640 4 1661 1662 1663
3641 4 1661 1662 1665
3642 5 1663 1662 1665
3643 5 1004 1663 1662
3644 6 1004 1663 1664
3645 6 1662 1663 1664
3646 5 899 1665 1662
3647 6 899 1665 1666
3648 6 1662 1665 1666
3649 1 1698 1697 1713
3650 2 1697 1698 1699
3651 3 1697 1698 1710
3652 2 1699 1698 1710
3653 4 1698 1699 1700
3654 4 1698 1699 1711
3655 5 1700 1699 1711
3656 6 1699 1700 1701
3657 5 1699 1700 135
3658 6 1701 1700 135
3659 1 1698 1710 1715
3660 6 1699 1711 1712
3661 5 1699 1711 117
3662 6 1712 1711 117
3663 7 1697 1713 1736
3664 7 1697 1713 1854
3665 7 1697 1713 1891
3666 7 1736 1713 1854
3667 7 1736 1713 1891
3668 7 1854 1713 1891
3669 7 1710 1715 1717
3670 7 1710 1715 1736
3671 7 1710 1715 1978
3672 7 1717 1715 1736
3673 7 1717 1715 1978
3674 7 1736 1715 1978
3675 1 1715 1717 1718
3676 2 1717 1718 1719
3677 3 1717 1718 1727
3678 2 1719 1718 1727
3679 4 1718 1719 1720
3680 4 1718 1719 1728
3681 5 1720 1719 1728
3682 6 1719 1720 1721
3683 5 1719 1720 2691
3684 6 1721 1720 2691
3685 1 1718 1727 1733
3686 6 1719 1728 1729
3687 5 1719 1728 2643
3688 6 1729 1728 2643
3689 7 1727 1733 1736
3690 7 1727 1733 1737
3691 7 1727 1733 2048
3692 7 1736 1733 1737
3693 7 1736 1733 2048
3694 7 1737 1733 2048
3695 8 1713 1736 1715
3696 8 1713 1736 1733
3697 8 1713 1736 1875
3698 8 1715 1736 1733
3699 8 1715 1736 1875
3700 8 1733 1736 1875
3701 1 1733 1737 1738
3702 2 1737 1738 1739
3703 3 1737 1738 1854
3704 2 1739 1738 1854
3705 4 1738 1739 1740
3706 4 1738 1739 1855
3707 5 1740 1739 1855
3708 6 1739 1740 1741
3709 5 1739 1740 2515
3710 6 1741 1740 2515
3711 1 1713 1854 1738
3712 6 1739 1855 1856
3713 5 1739 1855 2507
3714 6 1856 1855 2507
3715 7 1736 1875 1876
3716 7 1736 1875 1984
3717 7 1736 1875 2008
3718 7 1876 1875 1984
3719 7 1876 1875 2008
3720 7 1984 1875 2008
3721 1 1875 1876 1877
3722 2 1876 1877 1878
3723 3 1876 1877 1978
3724 2 1878 1877 1978
3725 4 1877 1878 1879
3726 4 1877 1878 1979
3727 5 1879 1878 1979
3728 6 1878 1879 1880
3729 5 1878 1879 1952
3730 6 1880 1879 1952
3731 1 1713 1891 1892
3732 2 1891 1892 1893
3733 3 1891 1892 1984
3734 2 1893 1892 1984
3735 4 1892 1893 1894
3736 4 1892 1893 1985
3737 5 1894 1893 1985
3738 6 1893 1894 1895
3739 5 1893 1894 1967
3740 6 1895 1894 1967
3741 1 1715 1978 1877
3742 5 1878 1979 1914
3743 6 1878 1979 1980
3744 6 1914 1979 1980
3745 1 1875 1984 1892
3746 5 1893 1985 1925
3747 6 1893 1985 1986
3748 6 1925 1985 1986
3749 1 1875 2008 2009
3750 2 2008 2009 2010
3751 3 2008 2009 2048
3752 2 2010 2009 2048
3753 4 2009 2010 2011
3754 4 2009 2010 2049
3755 5 2011 2010 2049
3756 6 2010 2011 2012
3757 5 2010 2011 2040
3758 6 2012 2011 2040
3759 1 1779 2013 2014
3760 2 2013 2014 2015
3761 3 2013 2014 2039
3762 2 2015 2014 2039
3763 4 2014 2015 2016
3764 4 2014 2015 2040
3765 5 2016 2015 2040
3766 6 2015 2016 2017
3767 5 2015 2016 2049
3768 6 2017 2016 2049
3769 1 1933 2039 2014
3770 5 2011 2040 2015
3771 6 2011 2040 2041
3772 6 2015 2040 2041
3773 1 1733 2048 2009
3774 5 2010 2049 2016
3775 6 2010 2049 2050
3776 6 2016 2049 2050
3777 7 1767 1766 1768
3778 7 1767 1766 1830
3779 7 1767 1766 1957
3780 7 1768 1766 1830
3781 7 1768 1766 1957
3782 7 1830 1766 1957
3783 8 1766 1767 1779
3784 8 1766 1767 1809
3785 8 1766 1767 1933
3786 8 1779 1767 1809
3787 8 1779 1767 1933
3788 8 1809 1767 1933
3789 1 1766 1768 1769
3790 2 1768 1769 1770
3791 3 1768 1769 1824
3792 2 1770 1769 1824
3793 4 1769 1770 1771
3794 4 1769 1770 1825
3795 5 1771 1770 1825
3796 6 1770 1771 1772
3797 5 1770 1771 2517
3798 6 1772 1771 2517
3799 7 1767 1779 1780
3800 7 1767 1779 1824
3801 7 1767 1779 2013
3802 7 1780 1779 1824
3803 7 1780 1779 2013
3804 7 1824 1779 2013
3805 1 1779 1780 1781
3806 2 1780 1781 1782
3807 3 1780 1781 1845
3808 2 1782 1781 1845
3809 4 1781 1782 1783
3810 4 1781 1782 1846
3811 5 1783 1782 1846
3812 6 1782 1783 1784
3813 5 1782 1783 2953
3814 6 1784 1783 2953
3815 7 1767 1809 1810
3816 7 1767 1809 1845
3817 7 1767 1809 1906
3818 7 1810 1809 1845
3819 7 1810 1809 1906
3820 7 1845 1809 1906
3821 1 1809 1810 1811
3822 2 1810 1811 1812
3823 3 1810 1811 1830
3824 2 1812 1811 1830
3825 4 1811 1812 1813
3826 4 1811 1812 1831
3827 5 1813 1812 1831
3828 5 15 1813 1812
3829 6 15 1813 1814
3830 6 1812 1813 1814
3831 1 1769 1824 1779
3832 6 1770 1825 1826
3833 5 1770 1825 2499
3834 6 1826 1825 2499
3835 1 1766 1830 1811
3836 5 4 1831 1812
3837 6 4 1831 1832
3838 6 1812 1831 1832
3839 1 1781 1845 1809
3840 6 1782 1846 1847
3841 5 1782 1846 2951
3842 6 1847 1846 2951
3843 1 1809 1906 1907
3844 2 1906 1907 1908
3845 3 1906 1907 1945
3846 2 1908 1907 1945
3847 4 1907 1908 1909
3848 4 1907 1908 1946
3849 5 1909 1908 1946
3850 6 1908 1909 1910
3851 5 1908 1909 1970
3852 6 1910 1909 1970
3853 7 1767 1933 1934
3854 7 1767 1933 1945
3855 7 1767 1933 2039
3856 7 1934 1933 1945
3857 7 1934 1933 2039
3858 7 1945 1933 2039
3859 1 1933 1934 1935
3860 2 1934 1935 1936
3861 3 1934 1935 1957
3862 2 1936 1935 1957
3863 4 1935 1936 1937
3864 4 1935 1936 1958
3865 5 1937 1936 1958
3866 6 1936 1937 1938
3867 5 1936 1937 1991
3868 6 1938 1937 1991
3869 1 1907 1945 1933
3870 5 1867 1946 1908
3871 6 1867 1946 1947
3872 6 1908 1946 1947
3873 1 1766 1957 1935
3874 5 1889 1958 1936
3875 6 1889 1958 1959
3876 6 1936 1958 1959
3877 7 1756 1755 1833
3878 7 1756 1755 1960
3879 7 1756 1755 2063
3880 7 1833 1755 1960
3881 7 1833 1755 2063
3882 7 1960 1755 2063
3883 8 1755 1756 1773
3884 8 1755 1756 1797
3885 8 1755 1756 1939
3886 8 1773 1756 1797
3887 8 1773 1756 1939
3888 8 1797 1756 1939
3889 7 1756 1773 1774
3890 7 1756 1773 2023
3891 7 1756 1773 2066
3892 7 1774 1773 2023
3893 7 1774 1773 2066
3894 7 2023 1773 2066
3895 1 1773 1774 1775
3896 2 1774 1775 1776
3897 3 1774 1775 1848
3898 2 1776 1775 1848
3899 4 1775 1776 1777
3900 4 1775 1776 1849
3901 5 1777 1776 1849
3902 6 1776 1777 1778
3903 5 1776 1777 2955
3904 6 1778 1777 2955
3905 7 1756 1797 1798
3906 7 1756 1797 1848
3907 7 1756 1797 1911
3908 7 1798 1797 1848
3909 7 1798 1797 1911
3910 7 1848 1797 1911
3911 1 1797 1798 1799
3912 2 1798 1799 1800
3913 3 1798 1799 1833
3914 2 1800 1799 1833
3915 4 1799 1800 1801
3916 4 1799 1800 1834
3917 5 1801 1800 1834
3918 6 1800 1801 1802
3919 5 1800 1801 423
3920 6 1802 1801 423
3921 1 1755 1833 1799
3922 6 1800 1834 1835
3923 5 1800 1834 419
3924 6 1835 1834 419
3925 1 1775 1848 1797
3926 6 1776 1849 1850
3927 5 1776 1849 2947
3928 6 1850 1849 2947
3929 1 1797 1911 1912
3930 2 1911 1912 1913
3931 3 1911 1912 1951
3932 2 1913 1912 1951
3933 4 1912 1913 1914
3934 4 1912 1913 1952
3935 5 1914 1913 1952
3936 6 1913 1914 1915
3937 5 1913 1914 1979
3938 6 1915 1914 1979
3939 7 1756 1939 1940
3940 7 1756 1939 1951
3941 7 1756 1939 2036
3942 7 1940 1939 1951
3943 7 1940 1939 2036
3944 7 1951 1939 2036
3945 1 1939 1940 1941
3946 2 1940 1941 1942
3947 3 1940 1941 1960
3948 2 1942 1941 1960
3949 4 1941 1942 1943
3950 4 1941 1942 1961
3951 5 1943 1942 1961
3952 6 1942 1943 1944
3953 5 1942 1943 1988
3954 6 1944 1943 1988
3955 1 1912 1951 1939
3956 5 1879 1952 1913
3957 6 1879 1952 1953
3958 6 1913 1952 1953
3959 1 1755 1960 1941
3960 5 1884 1961 1942
3961 6 1884 1961 1962
3962 6 1942 1961 1962
3963 1 1755 2063 2081
3964 1 1773 2066 2081
3965 3 2063 2081 2066
3966 2 2063 2081 2082
3967 2 2066 2081 2082
3968 4 2081 2082 2083
3969 4 2081 2082 2091
3970 5 2083 2082 2091
3971 5 2279 2083 2082
3972 6 2279 2083 2084
3973 6 2082 2083 2084
3974 5 2164 2091 2082
3975 6 2164 2091 2092
3976 6 2082 2091 2092
3977 1 1863 1993 1994
3978 2 1993 1994 1995
3979 3 1993 1994 2054
3980 2 1995 1994 2054
3981 4 1994 1995 1996
3982 4 1994 1995 2055
3983 5 1996 1995 2055
3984 6 1995 1996 1997
3985 5 1995 1996 2037
3986 6 1997 1996 2037
3987 1 1773 2023 2024
3988 2 2023 2024 2025
3989 3 2023 2024 2036
3990 2 2025 2024 2036
3991 4 2024 2025 2026
3992 4 2024 2025 2037
3993 5 2026 2025 2037
3994 6 2025 2026 2027
3995 5 2025 2026 2055
3996 6 2027 2026 2055
3997 1 1939 2036 2024
3998 5 1996 2037 2025
3999 6 1996 2037 2038
4000 6 2025 2037 2038
4001 1 1734 2054 1994
4002 5 1995 2055 2026
4003 6 1995 2055 2056
4004 6 2026 2055 2056
4005 1 1723 1722 1735
4006 2 1722 1723 1724
4007 3 1722 1723 1730
4008 2 1724 1723 1730
4009 4 1723 1724 1725
4010 4 1723 1724 1731
4011 5 1725 1724 1731
4012 6 1724 1725 1726
4013 5 1724 1725 2688
4014 6 1726 1725 2688
4015 1 1723 1730 1734
4016 6 1724 1731 1732
4017 5 1724 1731 2637
4018 6 1732 1731 2637
4019 7 1730 1734 1749
4020 7 1730 1734 2054
4021 7 1730 1734 2057
4022 7 1749 1734 2054
4023 7 1749 1734 2057
4024 7 2054 1734 2057
4025 7 1722 1735 1749
4026 7 1722 1735 1969
4027 7 1722 1735 2072
4028 7 1749 1735 1969
4029 7 1749 1735 2072
4030 7 1969 1735 2072
4031 8 1734 1749 1735
4032 8 1734 1749 1753
4033 8 1734 1749 1863
4034 8 1735 1749 1753
4035 8 1735 1749 1863
4036 8 1753 1749 1863
4037 7 1749 1753 1896
4038 7 1749 1753 2060
4039 7 1749 1753 2067
4040 7 1896 1753 2060
4041 7 1896 1753 2067
4042 7 2060 1753 2067
4043 7 1749 1863 1864
4044 7 1749 1863 1981
4045 7 1749 1863 1993
4046 7 1864 1863 1981
4047 7 1864 1863 1993
4048 7 1981 1863 1993
4049 1 1863 1864 1865
4050 2 1864 1865 1866
4051 3 1864 1865 1969
4052 2 1866 1865 1969
4053 4 1865 1866 1867
4054 4 1865 1866 1970
4055 5 1867 1866 1970
4056 6 1866 1867 1868
4057 5 1866 1867 1946
4058 6 1868 1867 1946
4059 1 1753 1896 1897
4060 2 1896 1897 1898
4061 3 1896 1897 1981
4062 2 1898 1897 1981
4063 4 1897 1898 1899
4064 4 1897 1898 1982
4065 5 1899 1898 1982
4066 6 1898 1899 1900
4067 5 1898 1899 1964
4068 6 1900 1899 1964
4069 1 1735 1969 1865
4070 5 1866 1970 1909
4071 6 1866 1970 1971
4072 6 1909 1970 1971
4073 1 1863 1981 1897
4074 5 1898 1982 1931
4075 6 1898 1982 1983
4076 6 1931 1982 1983
4077 1 1734 2057 2073
4078 1 1753 2060 2113
4079 1 1753 2067 2073
4080 1 1735 2072 2113
4081 3 2057 2073 2067
4082 2 2057 2073 2074
4083 2 2067 2073 2074
4084 4 2073 2074 2075
4085 4 2073 2074 2093
4086 5 2075 2074 2093
4087 5 2249 2075 2074
4088 6 2249 2075 2076
4089 6 2074 2075 2076
4090 5 2195 2093 2074
4091 6 2195 2093 2094
4092 6 2074 2093 2094
4093 3 2060 2113 2072
4094 2 2060 2113 2114
4095 2 2072 2113 2114
4096 4 2113 2114 2115
4097 4 2113 2114 2119
4098 5 2115 2114 2119
4099 5 138 2115 2114
4100 6 138 2115 2116
4101 6 2114 2115 2116
4102 5 105 2119 2114
4103 6 105 2119 2120
4104 6 2114 2119 2120
4105 1 2122 2121 2137
4106 2 2121 2122 2123
4107 3 2121 2122 2134
4108 2 2123 2122 2134
4109 4 2122 2123 2124
4110 4 2122 2123 2135
4111 5 2124 2123 2135
4112 6 2123 2124 2125
4113 5 2123 2124 559
4114 6 2125 2124 559
4115 1 2122 2134 2139
4116 6 2123 2135 2136
4117 5 2123 2135 541
4118 6 2136 2135 541
4119 7 2121 2137 2160
4120 7 2121 2137 2278
4121 7 2121 2137 2315
4122 7 2160 2137 2278
4123 7 2160 2137 2315
4124 7 2278 2137 2315
4125 7 2134 2139 2141
4126 7 2134 2139 2160
4127 7 2134 2139 2402
4128 7 2141 2139 2160
4129 7 2141 2139 2402
4130 7 2160 2139 2402
4131 1 2139 2141 2142
4132 2 2141 2142 2143
4133 3 2141 2142 2151
4134 2 2143 2142 2151
4135 4 2142 2143 2144
4136 4 2142 2143 2152
4137 5 2144 2143 2152
4138 6 2143 2144 2145
4139 5 2143 2144 3115
4140 6 2145 2144 3115
4141 1 2142 2151 2157
4142 6 2143 2152 2153
4143 5 2143 2152 3067
4144 6 2153 2152 3067
4145 7 2151 2157 2160
4146 7 2151 2157 2161
4147 7 2151 2157 2472
4148 7 2160 2157 2161
4149 7 2160 2157 2472
4150 7 2161 2157 2472
4151 8 2137 2160 2139
4152 8 2137 2160 2157
4153 8 2137 2160 2299
4154 8 2139 2160 2157
4155 8 2139 2160 2299
4156 8 2157 2160 2299
4157 1 2157 2161 2162
4158 2 2161 2162 2163
4159 3 2161 2162 2278
4160 2 2163 2162 2278
4161 4 2162 2163 2164
4162 4 2162 2163 2279
4163 5 2164 2163 2279
4164 6 2163 2164 2165
4165 5 2163 2164 2091
4166 6 2165 2164 2091
4167 1 2137 2278 2162
4168 6 2163 2279 2280
4169 5 2163 2279 2083
4170 6 2280 2279 2083
4171 7 2160 2299 2300
4172 7 2160 2299 2408
4173 7 2160 2299 2432
4174 7 2300 2299 2408
4175 7 2300 2299 2432
4176 7 2408 2299 2432
4177 1 2299 2300 2301
4178 2 2300 2301 2302
4179 3 2300 2301 2402
4180 2 2302 2301 2402
4181 4 2301 2302 2303
4182 4 2301 2302 2403
4183 5 2303 2302 2403
4184 6 2302 2303 2304
4185 5 2302 2303 2376
4186 6 2304 2303 2376
4187 1 2137 2315 2316
4188 2 2315 2316 2317
4189 3 2315 2316 2408
4190 2 2317 2316 2408
4191 4 2316 2317 2318
4192 4 2316 2317 2409
4193 5 2318 2317 2409
4194 6 2317 2318 2319
4195 5 2317 2318 2391
4196 6 2319 2318 2391
4197 1 2139 2402 2301
4198 5 2302 2403 2338
4199 6 2302 2403 2404
4200 6 2338 2403 2404
4201 1 2299 2408 2316
4202 5 2317 2409 2349
4203 6 2317 2409 2410
4204 6 2349 2409 2410
4205 1 2299 2432 2433
4206 2 2432 2433 2434
4207 3 2432 2433 2472
4208 2 2434 2433 2472
4209 4 2433 2434 2435
4210 4 2433 2434 2473
4211 5 2435 2434 2473
4212 6 2434 2435 2436
4213 5 2434 2435 2464
4214 6 2436 2435 2464
4215 1 2203 2437 2438
4216 2 2437 2438 2439
4217 3 2437 2438 2463
4218 2 2439 2438 2463
4219 4 2438 2439 2440
4220 4 2438 2439 2464
4221 5 2440 2439 2464
4222 6 2439 2440 2441
4223 5 2439 2440 2473
4224 6 2441 2440 2473
4225 1 2357 2463 2438
4226 5 2435 2464 2439
4227 6 2435 2464 2465
4228 6 2439 2464 2465
4229 1 2157 2472 2433
4230 5 2434 2473 2440
4231 6 2434 2473 2474
4232 6 2440 2473 2474
4233 7 2191 2190 2192
4234 7 2191 2190 2254
4235 7 2191 2190 2381
4236 7 2192 2190 2254
4237 7 2192 2190 2381
4238 7 2254 2190 2381
4239 8 2190 2191 2203
4240 8 2190 2191 2233
4241 8 2190 2191 2357
4242 8 2203 2191 2233
4243 8 2203 2191 2357
4244 8 2233 2191 2357
4245 1 2190 2192 2193
4246 2 2192 2193 2194
4247 3 2192 2193 2248
4248 2 2194 2193 2248
4249 4 2193 2194 2195
4250 4 2193 2194 2249
4251 5 2195 2194 2249
4252 6 2194 2195 2196
4253 5 2194 2195 2093
4254 6 2196 2195 2093
4255 7 2191 2203 2204
4256 7 2191 2203 2248
4257 7 2191 2203 2437
4258 7 2204 2203 2248
4259 7 2204 2203 2437
4260 7 2248 2203 2437
4261 1 2203 2204 2205
4262 2 2204 2205 2206
4263 3 2204 2205 2269
4264 2 2206 2205 2269
4265 4 2205 2206 2207
4266 4 2205 2206 2270
4267 5 2207 2206 2270
4268 6 2206 2207 2208
4269 5 2206 2207 3377
4270 6 2208 2207 3377
4271 7 2191 2233 2234
4272 7 2191 2233 2269
4273 7 2191 2233 2330
4274 7 2234 2233 2269
4275 7 2234 2233 2330
4276 7 2269 2233 2330
4277 1 2233 2234 2235
4278 2 2234 2235 2236
4279 3 2234 2235 2254
4280 2 2236 2235 2254
4281 4 2235 2236 2237
4282 4 2235 2236 2255
4283 5 2237 2236 2255
4284 5 439 2237 2236
4285 6 439 2237 2238
4286 6 2236 2237 2238
4287 1 2193 2248 2203
4288 6 2194 2249 2250
4289 5 2194 2249 2075
4290 6 2250 2249 2075
4291 1 2190 2254 2235
4292 5 428 2255 2236
4293 6 428 2255 2256
4294 6 2236 2255 2256
4295 1 2205 2269 2233
4296 6 2206 2270 2271
4297 5 2206 2270 3375
4298 6 2271 2270 3375
4299 1 2233 2330 2331
4300 2 2330 2331 2332
4301 3 2330 2331 2369
4302 2 2332 2331 2369
4303 4 2331 2332 2333
4304 4 2331 2332 2370
4305 5 2333 2332 2370
4306 6 2332 2333 2334
4307 5 2332 2333 2394
4308 6 2334 2333 2394
4309 7 2191 2357 2358
4310 7 2191 2357 2369
4311 7 2191 2357 2463
4312 7 2358 2357 2369
4313 7 2358 2357 2463
4314 7 2369 2357 2463
4315 1 2357 2358 2359
4316 2 2358 2359 2360
4317 3 2358 2359 2381
4318 2 2360 2359 2381
4319 4 2359 2360 2361
4320 4 2359 2360 2382
4321 5 2361 2360 2382
4322 6 2360 2361 2362
4323 5 2360 2361 2415
4324 6 2362 2361 2415
4325 1 2331 2369 2357
4326 5 2291 2370 2332
4327 6 2291 2370 2371
4328 6 2332 2370 2371
4329 1 2190 2381 2359
4330 5 2313 2382 2360
4331 6 2313 2382 2383
4332 6 2360 2382 2383
4333 7 2180 2179 2257
4334 7 2180 2179 2384
4335 7 2180 2179 2487
4336 7 2257 2179 2384
4337 7 2257 2179 2487
4338 7 2384 2179 2487
4339 8 2179 2180 2197
4340 8 2179 2180 2221
4341 8 2179 2180 2363
4342 8 2197 2180 2221
4343 8 2197 2180 2363
4344 8 2221 2180 2363
4345 7 2180 2197 2198
4346 7 2180 2197 2447
4347 7 2180 2197 2490
4348 7 2198 2197 2447
4349 7 2198 2197 2490
4350 7 2447 2197 2490
4351 1 2197 2198 2199
4352 2 2198 2199 2200
4353 3 2198 2199 2272
4354 2 2200 2199 2272
4355 4 2199 2200 2201
4356 4 2199 2200 2273
4357 5 2201 2200 2273
4358 6 2200 2201 2202
4359 5 2200 2201 3379
4360 6 2202 2201 3379
4361 7 2180 2221 2222
4362 7 2180 2221 2272
4363 7 2180 2221 2335
4364 7 2222 2221 2272
4365 7 2222 2221 2335
4366 7 2272 2221 2335
4367 1 2221 2222 2223
4368 2 2222 2223 2224
4369 3 2222 2223 2257
4370 2 2224 2223 2257
4371 4 2223 2224 2225
4372 4 2223 2224 2258
4373 5 2225 2224 2258
4374 6 2224 2225 2226
4375 5 2224 2225 847
4376 6 2226 2225 847
4377 1 2179 2257 2223
4378 6 2224 2258 2259
4379 5 2224 2258 843
4380 6 2259 2258 843
4381 1 2199 2272 2221
4382 6 2200 2273 2274
4383 5 2200 2273 3371
4384 6 2274 2273 3371
4385 1 2221 2335 2336
4386 2 2335 2336 2337
4387 3 2335 2336 2375
4388 2 2337 2336 2375
4389 4 2336 2337 2338
4390 4 2336 2337 2376
4391 5 2338 2337 2376
4392 6 2337 2338 2339
4393 5 2337 2338 2403
4394 6 2339 2338 2403
4395 7 2180 2363 2364
4396 7 2180 2363 2375
4397 7 2180 2363 2460
4398 7 2364 2363 2375
4399 7 2364 2363 2460
4400 7 2375 2363 2460
4401 1 2363 2364 2365
4402 2 2364 2365 2366
4403 3 2364 2365 2384
4404 2 2366 2365 2384
4405 4 2365 2366 2367
4406 4 2365 2366 2385
4407 5 2367 2366 2385
4408 6 2366 2367 2368
4409 5 2366 2367 2412
4410 6 2368 2367 2412
4411 1 2336 2375 2363
4412 5 2303 2376 2337
4413 6 2303 2376 2377
4414 6 2337 2376 2377
4415 1 2179 2384 2365
4416 5 2308 2385 2366
4417 6 2308 2385 2386
4418 6 2366 2385 2386
4419 1 2179 2487 2505
4420 1 2197 2490 2505
4421 3 2487 2505 2490
4422 2 2487 2505 2506
4423 2 2490 2505 2506
4424 4 2505 2506 2507
4425 4 2505 2506 2515
4426 5 2507 2506 2515
4427 5 1855 2507 2506
4428 6 1855 2507 2508
4429 6 2506 2507 2508
4430 5 1740 2515 2506
4431 6 1740 2515 2516
4432 6 2506 2515 2516
4433 1 2287 2417 2418
4434 2 2417 2418 2419
4435 3 2417 2418 2478
4436 2 2419 2418 2478
4437 4 2418 2419 2420
4438 4 2418 2419 2479
4439 5 2420 2419 2479
4440 6 2419 2420 2421
4441 5 2419 2420 2461
4442 6 2421 2420 2461
4443 1 2197 2447 2448
4444 2 2447 2448 2449
4445 3 2447 2448 2460
4446 2 2449 2448 2460
4447 4 2448 2449 2450
4448 4 2448 2449 2461
4449 5 2450 2449 2461
4450 6 2449 2450 2451
4451 5 2449 2450 2479
4452 6 2451 2450 2479
4453 1 2363 2460 2448
4454 5 2420 2461 2449
4455 6 2420 2461 2462
4456 6 2449 2461 2462
4457 1 2158 2478 2418
4458 5 2419 2479 2450
4459 6 2419 2479 2480
4460 6 2450 2479 2480
4461 1 2147 2146 2159
4462 2 2146 2147 2148
4463 3 2146 2147 2154
4464 2 2148 2147 2154
4465 4 2147 2148 2149
4466 4 2147 2148 2155
4467 5 2149 2148 2155
4468 6 2148 2149 2150
4469 5 2148 2149 3112
4470 6 2150 2149 3112
4471 1 2147 2154 2158
4472 6 2148 2155 2156
4473 5 2148 2155 3061
4474 6 2156 2155 3061
4475 7 2154 2158 2173
4476 7 2154 2158 2478
4477 7 2154 2158 2481
4478 7 2173 2158 2478
4479 7 2173 2158 2481
4480 7 2478 2158 2481
4481 7 2146 2159 2173
4482 7 2146 2159 2393
4483 7 2146 2159 2496
4484 7 2173 2159 2393
4485 7 2173 2159 2496
4486 7 2393 2159 2496
4487 8 2158 2173 2159
4488 8 2158 2173 2177
4489 8 2158 2173 2287
4490 8 2159 2173 2177
4491 8 2159 2173 2287
4492 8 2177 2173 2287
4493 7 2173 2177 2320
4494 7 2173 2177 2484
4495 7 2173 2177 2491
4496 7 2320 2177 2484
4497 7 2320 2177 2491
4498 7 2484 2177 2491
4499 7 2173 2287 2288
4500 7 2173 2287 2405
4501 7 2173 2287 2417
4502 7 2288 2287 2405
4503 7 2288 2287 2417
4504 7 2405 2287 2417
4505 1 2287 2288 2289
4506 2 2288 2289 2290
4507 3 2288 2289 2393
4508 2 2290 2289 2393
4509 4 2289 2290 2291
4510 4 2289 2290 2394
4511 5 2291 2290 2394
4512 6 2290 2291 2292
4513 5 2290 2291 2370
4514 6 2292 2291 2370
4515 1 2177 2320 2321
4516 2 2320 2321 2322
4517 3 2320 2321 2405
4518 2 2322 2321 2405
4519 4 2321 2322 2323
4520 4 2321 2322 2406
4521 5 2323 2322 2406
4522 6 2322 2323 2324
4523 5 2322 2323 2388
4524 6 2324 2323 2388
4525 1 2159 2393 2289
4526 5 2290 2394 2333
4527 6 2290 2394 2395
4528 6 2333 2394 2395
4529 1 2287 2405 2321
4530 5 2322 2406 2355
4531 6 2322 2406 2407
4532 6 2355 2406 2407
4533 1 2158 2481 2497
4534 1 2177 2484 2537
4535 1 2177 2491 2497
4536 1 2159 2496 2537
4537 3 2481 2497 2491
4538 2 2481 2497 2498
4539 2 2491 2497 2498
4540 4 2497 2498 2499
4541 4 2497 2498 2517
4542 5 2499 2498 2517
4543 5 1825 2499 2498
4544 6 1825 2499 2500
4545 6 2498 2499 2500
4546 5 1771 2517 2498
4547 6 1771 2517 2518
4548 6 2498 2517 2518
4549 3 2484 2537 2496
4550 2 2484 2537 2538
4551 2 2496 2537 2538
4552 4 2537 2538 2539
4553 4 2537 2538 2543
4554 5 2539 2538 2543
4555 5 562 2539 2538
4556 6 562 2539 2540
4557 6 2538 2539 2540
4558 5 529 2543 2538
4559 6 529 2543 2544
4560 6 2538 2543 2544
4561 7 1760 1759 1761
4562 7 1760 1759 1836
4563 7 1760 1759 1966
4564 7 1761 1759 1836
4565 7 1761 1759 1966
4566 7 1836 1759 1966
4567 8 1759 1760 1791
4568 8 1759 1760 1803
4569 8 1759 1760 1921
4570 8 1791 1760 1803
4571 8 1791 1760 1921
4572 8 1803 1760 1921
4573 1 1759 1761 1762
4574 2 1761 1762 1763
4575 3 1761 1762 1821
4576 2 1763 1762 1821
4577 4 1762 1763 1764
4578 4 1762 1763 1822
4579 5 1764 1763 1822
4580 6 1763 1764 1765
4581 5 1763 1764 2519
4582 6 1765 1764 2519
4583 7 1760 1791 1792
4584 7 1760 1791 1821
4585 7 1760 1791 2028
4586 7 1792 1791 1821
4587 7 1792 1791 2028
4588 7 1821 1791 2028
4589 1 1791 1792 1793
4590 2 1792 1793 1794
4591 3 1792 1793 1842
4592 2 1794 1793 1842
4593 4 1793 1794 1795
4594 4 1793 1794 1843
4595 5 1795 1794 1843
4596 5 2576 1795 1794
4597 6 2576 1795 1796
4598 6 1794 1795 1796
4599 7 1760 1803 1804
4600 7 1760 1803 1842
4601 7 1760 1803 1901
4602 7 1804 1803 1842
4603 7 1804 1803 1901
4604 7 1842 1803 1901
4605 1 1803 1804 1805
4606 2 1804 1805 1806
4607 3 1804 1805 1836
4608 2 1806 1805 1836
4609 4 1805 1806 1807
4610 4 1805 1806 1837
4611 5 1807 1806 1837
4612 6 1806 1807 1808
4613 5 1806 1807 421
4614 6 1808 1807 421
4615 1 1762 1821 1791
4616 6 1763 1822 1823
4617 5 1763 1822 2503
4618 6 1823 1822 2503
4619 1 1759 1836 1805
4620 6 1806 1837 1838
4621 5 1806 1837 415
4622 6 1838 1837 415
4623 1 1793 1842 1803
4624 5 2568 1843 1794
4625 6 2568 1843 1844
4626 6 1794 1843 1844
4627 1 1803 1901 1902
4628 2 1901 1902 1903
4629 3 1901 1902 1948
4630 2 1903 1902 1948
4631 4 1902 1903 1904
4632 4 1902 1903 1949
4633 5 1904 1903 1949
4634 6 1903 1904 1905
4635 5 1903 1904 1973
4636 6 1905 1904 1973
4637 7 1760 1921 1922
4638 7 1760 1921 1948
4639 7 1760 1921 2033
4640 7 1922 1921 1948
4641 7 1922 1921 2033
4642 7 1948 1921 2033
4643 1 1921 1922 1923
4644 2 1922 1923 1924
4645 3 1922 1923 1966
4646 2 1924 1923 1966
4647 4 1923 1924 1925
4648 4 1923 1924 1967
4649 5 1925 1924 1967
4650 6 1924 1925 1926
4651 5 1924 1925 1985
4652 6 1926 1925 1985
4653 1 1902 1948 1921
4654 5 1861 1949 1903
4655 6 1861 1949 1950
4656 6 1903 1949 1950
4657 1 1759 1966 1923
4658 5 1894 1967 1924
4659 6 1894 1967 1968
4660 6 1924 1967 1968
4661 1 1869 1998 1999
4662 2 1998 1999 2000
4663 3 1998 1999 2051
4664 2 2000 1999 2051
4665 4 1999 2000 2001
4666 4 1999 2000 2052
4667 5 2001 2000 2052
4668 6 2000 2001 2002
4669 5 2000 2001 2034
4670 6 2002 2001 2034
4671 1 1791 2028 2029
4672 2 2028 2029 2030
4673 3 2028 2029 2033
4674 2 2030 2029 2033
4675 4 2029 2030 2031
4676 4 2029 2030 2034
4677 5 2031 2030 2034
4678 6 2030 2031 2032
4679 5 2030 2031 2052
4680 6 2032 2031 2052
4681 1 1921 2033 2029
4682 5 2001 2034 2030
4683 6 2001 2034 2035
4684 6 2030 2034 2035
4685 1 1742 2051 1999
4686 5 2000 2052 2031
4687 6 2000 2052 2053
4688 6 2031 2052 2053
4689 7 1743 1742 1744
4690 7 1743 1742 2051
4691 7 1743 1742 2069
4692 7 1744 1742 2051
4693 7 1744 1742 2069
4694 7 2051 1742 2069
4695 8 1742 1743 1752
4696 8 1742 1743 1754
4697 8 1742 1743 1869
4698 8 1752 1743 1754
4699 8 1752 1743 1869
4700 8 1754 1743 1869
4701 1 1742 1744 1745
4702 2 1744 1745 1746
4703 3 1744 1745 1851
4704 2 1746 1745 1851
4705 4 1745 1746 1747
4706 4 1745 1746 1852
4707 5 1747 1746 1852
4708 6 1746 1747 1748
4709 5 1746 1747 2513
4710 6 1748 1747 2513
4711 7 1743 1752 1851
4712 7 1743 1752 1886
4713 7 1743 1752 2059
4714 7 1851 1752 1886
4715 7 1851 1752 2059
4716 7 1886 1752 2059
4717 7 1743 1754 1975
4718 7 1743 1754 2062
4719 7 1743 1754 2071
4720 7 1975 1754 2062
4721 7 1975 1754 2071
4722 7 2062 1754 2071
4723 1 1745 1851 1752
4724 6 1746 1852 1853
4725 5 1746 1852 2511
4726 6 1853 1852 2511
4727 7 1743 1869 1870
4728 7 1743 1869 1990
4729 7 1743 1869 1998
4730 7 1870 1869 1990
4731 7 1870 1869 1998
4732 7 1990 1869 1998
4733 1 1869 1870 1871
4734 2 1870 1871 1872
4735 3 1870 1871 1975
4736 2 1872 1871 1975
4737 4 1871 1872 1873
4738 4 1871 1872 1976
4739 5 1873 1872 1976
4740 6 1872 1873 1874
4741 5 1872 1873 1955
4742 6 1874 1873 1955
4743 1 1752 1886 1887
4744 2 1886 1887 1888
4745 3 1886 1887 1990
4746 2 1888 1887 1990
4747 4 1887 1888 1889
4748 4 1887 1888 1991
4749 5 1889 1888 1991
4750 6 1888 1889 1890
4751 5 1888 1889 1958
4752 6 1890 1889 1958
4753 1 1754 1975 1871
4754 5 1872 1976 1919
4755 6 1872 1976 1977
4756 6 1919 1976 1977
4757 1 1869 1990 1887
4758 5 1888 1991 1937
4759 6 1888 1991 1992
4760 6 1937 1991 1992
4761 1 1752 2059 2109
4762 1 1754 2062 2101
4763 1 1742 2069 2101
4764 1 1754 2071 2109
4765 3 2062 2101 2069
4766 2 2062 2101 2102
4767 2 2069 2101 2102
4768 4 2101 2102 2103
4769 4 2101 2102 2105
4770 5 2103 2102 2105
4771 5 2694 2103 2102
4772 6 2694 2103 2104
4773 6 2102 2103 2104
4774 5 2631 2105 2102
4775 6 2631 2105 2106
4776 6 2102 2105 2106
4777 3 2059 2109 2071
4778 2 2059 2109 2110
4779 2 2071 2109 2110
4780 4 2109 2110 2111
4781 4 2109 2110 2117
4782 5 2111 2110 2117
4783 5 141 2111 2110
4784 6 141 2111 2112
4785 6 2110 2111 2112
4786 5 111 2117 2110
4787 6 111 2117 2118
4788 6 2110 2117 2118
4789 1 1703 1702 1714
4790 2 1702 1703 1704
4791 3 1702 1703 1707
4792 2 1704 1703 1707
4793 4 1703 1704 1705
4794 4 1703 1704 1708
4795 5 1705 1704 1708
4796 6 1704 1705 1706
4797 5 1704 1705 132
4798 6 1706 1705 132
4799 1 1703 1707 1716
4800 6 1704 1708 1709
4801 5 1704 1708 123
4802 6 1709 1708 123
4803 7 1702 1714 1751
4804 7 1702 1714 1881
4805 7 1702 1714 2068
4806 7 1751 1714 1881
4807 7 1751 1714 2068
4808 7 1881 1714 2068
4809 7 1707 1716 1751
4810 7 1707 1716 1972
4811 7 1707 1716 2061
4812 7 1751 1716 1972
4813 7 1751 1716 2061
4814 7 1972 1716 2061
4815 7 1751 1750 2045
4816 7 1751 1750 2058
4817 7 1751 1750 2070
4818 7 2045 1750 2058
4819 7 2045 1750 2070
4820 7 2058 1750 2070
4821 8 1714 1751 1716
4822 8 1714 1751 1750
4823 8 1714 1751 1857
4824 8 1716 1751 1750
4825 8 1716 1751 1857
4826 8 1750 1751 1857
4827 7 1751 1857 1858
4828 7 1751 1857 1987
4829 7 1751 1857 2003
4830 7 1858 1857 1987
4831 7 1858 1857 2003
4832 7 1987 1857 2003
4833 1 1857 1858 1859
4834 2 1858 1859 1860
4835 3 1858 1859 1972
4836 2 1860 1859 1972
4837 4 1859 1860 1861
4838 4 1859 1860 1973
4839 5 1861 1860 1973
4840 6 1860 1861 1862
4841 5 1860 1861 1949
4842 6 1862 1861 1949
4843 1 1714 1881 1882
4844 2 1881 1882 1883
4845 3 1881 1882 1987
4846 2 1883 1882 1987
4847 4 1882 1883 1884
4848 4 1882 1883 1988
4849 5 1884 1883 1988
4850 6 1883 1884 1885
4851 5 1883 1884 1961
4852 6 1885 1884 1961
4853 1 1716 1972 1859
4854 5 1860 1973 1904
4855 6 1860 1973 1974
4856 6 1904 1973 1974
4857 1 1857 1987 1882
4858 5 1883 1988 1943
4859 6 1883 1988 1989
4860 6 1943 1988 1989
4861 1 1750 2058 2077
4862 1 1716 2061 2097
4863 1 1714 2068 2077
4864 1 1750 2070 2097
4865 3 2058 2077 2068
4866 2 2058 2077 2078
4867 2 2068 2077 2078
4868 4 2077 2078 2079
4869 4 2077 2078 2095
4870 5 2079 2078 2095
4871 5 2246 2079 2078
4872 6 2246 2079 2080
4873 6 2078 2079 2080
4874 5 2188 2095 2078
4875 6 2188 2095 2096
4876 6 2078 2095 2096
4877 3 2061 2097 2070
4878 2 2061 2097 2098
4879 2 2070 2097 2098
4880 4 2097 2098 2099
4881 4 2097 2098 2107
4882 5 2099 2098 2107
4883 5 2697 2099 2098
4884 6 2697 2099 2100
4885 6 2098 2099 2100
4886 5 2625 2107 2098
4887 6 2625 2107 2108
4888 6 2098 2107 2108
4889 1 1857 2003 2004
4890 2 2003 2004 2005
4891 3 2003 2004 2045
4892 2 2005 2004 2045
4893 4 2004 2005 2006
4894 4 2004 2005 2046
4895 5 2006 2005 2046
4896 6 2005 2006 2007
4897 5 2005 2006 2043
4898 6 2007 2006 2043
4899 1 1785 2018 2019
4900 2 2018 2019 2020
4901 3 2018 2019 2042
4902 2 2020 2019 2042
4903 4 2019 2020 2021
4904 4 2019 2020 2043
4905 5 2021 2020 2043
4906 6 2020 2021 2022
4907 5 2020 2021 2046
4908 6 2022 2021 2046
4909 1 1927 2042 2019
4910 5 2006 2043 2020
4911 6 2006 2043 2044
4912 6 2020 2043 2044
4913 1 1750 2045 2004
4914 5 2005 2046 2021
4915 6 2005 2046 2047
4916 6 2021 2046 2047
4917 7 1758 1757 1827
4918 7 1758 1757 1963
4919 7 1758 1757 2064
4920 7 1827 1757 1963
4921 7 1827 1757 2064
4922 7 1963 1757 2064
4923 8 1757 1758 1785
4924 8 1757 1758 1815
4925 8 1757 1758 1927
4926 8 1785 1758 1815
4927 8 1785 1758 1927
4928 8 1815 1758 1927
4929 7 1758 1785 1786
4930 7 1758 1785 2018
4931 7 1758 1785 2065
4932 7 1786 1785 2018
4933 7 1786 1785 2065
4934 7 2018 1785 2065
4935 1 1785 1786 1787
4936 2 1786 1787 1788
4937 3 1786 1787 1839
4938 2 1788 1787 1839
4939 4 1787 1788 1789
4940 4 1787 1788 1840
4941 5 1789 1788 1840
4942 5 2579 1789 1788
4943 6 2579 1789 1790
4944 6 1788 1789 1790
4945 7 1758 1815 1816
4946 7 1758 1815 1839
4947 7 1758 1815 1916
4948 7 1816 1815 1839
4949 7 1816 1815 1916
4950 7 1839 1815 1916
4951 1 1815 1816 1817
4952 2 1816 1817 1818
4953 3 1816 1817 1827
4954 2 1818 1817 1827
4955 4 1817 1818 1819
4956 4 1817 1818 1828
4957 5 1819 1818 1828
4958 5 12 1819 1818
4959 6 12 1819 1820
4960 6 1818 1819 1820
4961 1 1757 1827 1817
4962 5 9 1828 1818
4963 6 9 1828 1829
4964 6 1818 1828 1829
4965 1 1787 1839 1815
4966 5 2573 1840 1788
4967 6 2573 1840 1841
4968 6 1788 1840 1841
4969 1 1815 1916 1917
4970 2 1916 1917 1918
4971 3 1916 1917 1954
4972 2 1918 1917 1954
4973 4 1917 1918 1919
4974 4 1917 1918 1955
4975 5 1919 1918 1955
4976 6 1918 1919 1920
4977 5 1918 1919 1976
4978 6 1920 1919 1976
4979 7 1758 1927 1928
4980 7 1758 1927 1954
4981 7 1758 1927 2042
4982 7 1928 1927 1954
4983 7 1928 1927 2042
4984 7 1954 1927 2042
4985 1 1927 1928 1929
4986 2 1928 1929 1930
4987 3 1928 1929 1963
4988 2 1930 1929 1963
4989 4 1929 1930 1931
4990 4 1929 1930 1964
4991 5 1931 1930 1964
4992 6 1930 1931 1932
4993 5 1930 1931 1982
4994 6 1932 1931 1982
4995 1 1917 1954 1927
4996 5 1873 1955 1918
4997 6 1873 1955 1956
4998 6 1918 1955 1956
4999 1 1757 1963 1929
5000 5 1899 1964 1930
5001 6 1899 1964 1965
5002 6 1930 1964 1965
5003 1 1757 2064 2085
5004 1 1785 2065 2085
5005 3 2064 2085 2065
5006 2 2064 2085 2086
5007 2 2065 2085 2086
5008 4 2085 2086 2087
5009 4 2085 2086 2089
5010 5 2087 2086 2089
5011 5 2276 2087 2086
5012 6 2276 2087 2088
5013 6 2086 2087 2088
5014 5 2171 2089 2086
5015 6 2171 2089 2090
5016 6 2086 2089 2090
5017 7 2184 2183 2185
5018 7 2184 2183 2260
5019 7 2184 2183 2390
5020 7 2185 2183 2260
5021 7 2185 2183 2390
5022 7 2260 2183 2390
5023 8 2183 2184 2215
5024 8 2183 2184 2227
5025 8 2183 2184 2345
5026 8 2215 2184 2227
5027 8 2215 2184 2345
5028 8 2227 2184 2345
5029 1 2183 2185 2186
5030 2 2185 2186 2187
5031 3 2185 2186 2245
5032 2 2187 2186 2245
5033 4 2186 2187 2188
5034 4 2186 2187 2246
5035 5 2188 2187 2246
5036 6 2187 2188 2189
5037 5 2187 2188 2095
5038 6 2189 2188 2095
5039 7 2184 2215 2216
5040 7 2184 2215 2245
5041 7 2184 2215 2452
5042 7 2216 2215 2245
5043 7 2216 2215 2452
5044 7 2245 2215 2452
5045 1 2215 2216 2217
5046 2 2216 2217 2218
5047 3 2216 2217 2266
5048 2 2218 2217 2266
5049 4 2217 2218 2219
5050 4 2217 2218 2267
5051 5 2219 2218 2267
5052 5 3000 2219 2218
5053 6 3000 2219 2220
5054 6 2218 2219 2220
5055 7 2184 2227 2228
5056 7 2184 2227 2266
5057 7 2184 2227 2325
5058 7 2228 2227 2266
5059 7 2228 2227 2325
5060 7 2266 2227 2325
5061 1 2227 2228 2229
5062 2 2228 2229 2230
5063 3 2228 2229 2260
5064 2 2230 2229 2260
5065 4 2229 2230 2231
5066 4 2229 2230 2261
5067 5 2231 2230 2261
5068 6 2230 2231 2232
5069 5 2230 2231 845
5070 6 2232 2231 845
5071 1 2186 2245 2215
5072 6 2187 2246 2247
5073 5 2187 2246 2079
5074 6 2247 2246 2079
5075 1 2183 2260 2229
5076 6 2230 2261 2262
5077 5 2230 2261 839
5078 6 2262 2261 839
5079 1 2217 2266 2227
5080 5 2992 2267 2218
5081 6 2992 2267 2268
5082 6 2218 2267 2268
5083 1 2227 2325 2326
5084 2 2325 2326 2327
5085 3 2325 2326 2372
5086 2 2327 2326 2372
5087 4 2326 2327 2328
5088 4 2326 2327 2373
5089 5 2328 2327 2373
5090 6 2327 2328 2329
5091 5 2327 2328 2397
5092 6 2329 2328 2397
5093 7 2184 2345 2346
5094 7 2184 2345 2372
5095 7 2184 2345 2457
5096 7 2346 2345 2372
5097 7 2346 2345 2457
5098 7 2372 2345 2457
5099 1 2345 2346 2347
5100 2 2346 2347 2348
5101 3 2346 2347 2390
5102 2 2348 2347 2390
5103 4 2347 2348 2349
5104 4 2347 2348 2391
5105 5 2349 2348 2391
5106 6 2348 2349 2350
5107 5 2348 2349 2409
5108 6 2350 2349 2409
5109 1 2326 2372 2345
5110 5 2285 2373 2327
5111 6 2285 2373 2374
5112 6 2327 2373 2374
5113 1 2183 2390 2347
5114 5 2318 2391 2348
5115 6 2318 2391 2392
5116 6 2348 2391 2392
5117 1 2293 2422 2423
5118 2 2422 2423 2424
5119 3 2422 2423 2475
5120 2 2424 2423 2475
5121 4 2423 2424 2425
5122 4 2423 2424 2476
5123 5 2425 2424 2476
5124 6 2424 2425 2426
5125 5 2424 2425 2458
5126 6 2426 2425 2458
5127 1 2215 2452 2453
5128 2 2452 2453 2454
5129 3 2452 2453 2457
5130 2 2454 2453 2457
5131 4 2453 2454 2455
5132 4 2453 2454 2458
5133 5 2455 2454 2458
5134 6 2454 2455 2456
5135 5 2454 2455 2476
5136 6 2456 2455 2476
5137 1 2345 2457 2453
5138 5 2425 2458 2454
5139 6 2425 2458 2459
5140 6 2454 2458 2459
5141 1 2166 2475 2423
5142 5 2424 2476 2455
5143 6 2424 2476 2477
5144 6 2455 2476 2477
5145 7 2167 2166 2168
5146 7 2167 2166 2475
5147 7 2167 2166 2493
5148 7 2168 2166 2475
5149 7 2168 2166 2493
5150 7 2475 2166 2493
5151 8 2166 2167 2176
5152 8 2166 2167 2178
5153 8 2166 2167 2293
5154 8 2176 2167 2178
5155 8 2176 2167 2293
5156 8 2178 2167 2293
5157 1 2166 2168 2169
5158 2 2168 2169 2170
5159 3 2168 2169 2275
5160 2 2170 2169 2275
5161 4 2169 2170 2171
5162 4 2169 2170 2276
5163 5 2171 2170 2276
5164 6 2170 2171 2172
5165 5 2170 2171 2089
5166 6 2172 2171 2089
5167 7 2167 2176 2275
5168 7 2167 2176 2310
5169 7 2167 2176 2483
5170 7 2275 2176 2310
5171 7 2275 2176 2483
5172 7 2310 2176 2483
5173 7 2167 2178 2399
5174 7 2167 2178 2486
5175 7 2167 2178 2495
5176 7 2399 2178 2486
5177 7 2399 2178 2495
5178 7 2486 2178 2495
5179 1 2169 2275 2176
5180 6 2170 2276 2277
5181 5 2170 2276 2087
5182 6 2277 2276 2087
5183 7 2167 2293 2294
5184 7 2167 2293 2414
5185 7 2167 2293 2422
5186 7 2294 2293 2414
5187 7 2294 2293 2422
5188 7 2414 2293 2422
5189 1 2293 2294 2295
5190 2 2294 2295 2296
5191 3 2294 2295 2399
5192 2 2296 2295 2399
5193 4 2295 2296 2297
5194 4 2295 2296 2400
5195 5 2297 2296 2400
5196 6 2296 2297 2298
5197 5 2296 2297 2379
5198 6 2298 2297 2379
5199 1 2176 2310 2311
5200 2 2310 2311 2312
5201 3 2310 2311 2414
5202 2 2312 2311 2414
5203 4 2311 2312 2313
5204 4 2311 2312 2415
5205 5 2313 2312 2415
5206 6 2312 2313 2314
5207 5 2312 2313 2382
5208 6 2314 2313 2382
5209 1 2178 2399 2295
5210 5 2296 2400 2343
5211 6 2296 2400 2401
5212 6 2343 2400 2401
5213 1 2293 2414 2311
5214 5 2312 2415 2361
5215 6 2312 2415 2416
5216 6 2361 2415 2416
5217 1 2176 2483 2533
5218 1 2178 2486 2525
5219 1 2166 2493 2525
5220 1 2178 2495 2533
5221 3 2486 2525 2493
5222 2 2486 2525 2526
5223 2 2493 2525 2526
5224 4 2525 2526 2527
5225 4 2525 2526 2529
5226 5 2527 2526 2529
5227 5 3118 2527 2526
5228 6 3118 2527 2528
5229 6 2526 2527 2528
5230 5 3055 2529 2526
5231 6 3055 2529 2530
5232 6 2526 2529 2530
5233 3 2483 2533 2495
5234 2 2483 2533 2534
5235 2 2495 2533 2534
5236 4 2533 2534 2535
5237 4 2533 2534 2541
5238 5 2535 2534 2541
5239 5 565 2535 2534
5240 6 565 2535 2536
5241 6 2534 2535 2536
5242 5 535 2541 2534
5243 6 535 2541 2542
5244 6 2534 2541 2542
5245 1 2127 2126 2138
5246 2 2126 2127 2128
5247 3 2126 2127 2131
5248 2 2128 2127 2131
5249 4 2127 2128 2129
5250 4 2127 2128 2132
5251 5 2129 2128 2132
5252 6 2128 2129 2130
5253 5 2128 2129 556
5254 6 2130 2129 556
5255 1 2127 2131 2140
5256 6 2128 2132 2133
5257 5 2128 2132 547
5258 6 2133 2132 547
5259 7 2126 2138 2175
5260 7 2126 2138 2305
5261 7 2126 2138 2492
5262 7 2175 2138 2305
5263 7 2175 2138 2492
5264 7 2305 2138 2492
5265 7 2131 2140 2175
5266 7 2131 2140 2396
5267 7 2131 2140 2485
5268 7 2175 2140 2396
5269 7 2175 2140 2485
5270 7 2396 2140 2485
5271 7 2175 2174 2469
5272 7 2175 2174 2482
5273 7 2175 2174 2494
5274 7 2469 2174 2482
5275 7 2469 2174 2494
5276 7 2482 2174 2494
5277 8 2138 2175 2140
5278 8 2138 2175 2174
5279 8 2138 2175 2281
5280 8 2140 2175 2174
5281 8 2140 2175 2281
5282 8 2174 2175 2281
5283 7 2175 2281 2282
5284 7 2175 2281 2411
5285 7 2175 2281 2427
5286 7 2282 2281 2411
5287 7 2282 2281 2427
5288 7 2411 2281 2427
5289 1 2281 2282 2283
5290 2 2282 2283 2284
5291 3 2282 2283 2396
5292 2 2284 2283 2396
5293 4 2283 2284 2285
5294 4 2283 2284 2397
5295 5 2285 2284 2397
5296 6 2284 2285 2286
5297 5 2284 2285 2373
5298 6 2286 2285 2373
5299 1 2138 2305 2306
5300 2 2305 2306 2307
5301 3 2305 2306 2411
5302 2 2307 2306 2411
5303 4 2306 2307 2308
5304 4 2306 2307 2412
5305 5 2308 2307 2412
5306 6 2307 2308 2309
5307 5 2307 2308 2385
5308 6 2309 2308 2385
5309 1 2140 2396 2283
5310 5 2284 2397 2328
5311 6 2284 2397 2398
5312 6 2328 2397 2398
5313 1 2281 2411 2306
5314 5 2307 2412 2367
5315 6 2307 2412 2413
5316 6 2367 2412 2413
5317 1 2174 2482 2501
5318 1 2140 2485 2521
5319 1 2138 2492 2501
5320 1 2174 2494 2521
5321 3 2482 2501 2492
5322 2 2482 2501 2502
5323 2 2492 2501 2502
5324 4 2501 2502 2503
5325 4 2501 2502 2519
5326 5 2503 2502 2519
5327 5 1822 2503 2502
5328 6 1822 2503 2504
5329 6 2502 2503 2504
5330 5 1764 2519 2502
5331 6 1764 2519 2520
5332 6 2502 2519 2520
5333 3 2485 2521 2494
5334 2 2485 2521 2522
5335 2 2494 2521 2522
5336 4 2521 2522 2523
5337 4 2521 2522 2531
5338 5 2523 2522 2531
5339 5 3121 2523 2522
5340 6 3121 2523 2524
5341 6 2522 2523 2524
5342 5 3049 2531 2522
5343 6 3049 2531 2532
5344 6 2522 2531 2532
5345 1 2281 2427 2428
5346 2 2427 2428 2429
5347 3 2427 2428 2469
5348 2 2429 2428 2469
5349 4 2428 2429 2430
5350 4 2428 2429 2470
5351 5 2430 2429 2470
5352 6 2429 2430 2431
5353 5 2429 2430 2467
5354 6 2431 2430 2467
5355 1 2209 2442 2443
5356 2 2442 2443 2444
5357 3 2442 2443 2466
5358 2 2444 2443 2466
5359 4 2443 2444 2445
5360 4 2443 2444 2467
5361 5 2445 2444 2467
5362 6 2444 2445 2446
5363 5 2444 2445 2470
5364 6 2446 2445 2470
5365 1 2351 2466 2443
5366 5 2430 2467 2444
5367 6 2430 2467 2468
5368 6 2444 2467 2468
5369 1 2174 2469 2428
5370 5 2429 2470 2445
5371 6 2429 2470 2471
5372 6 2445 2470 2471
5373 7 2182 2181 2251
5374 7 2182 2181 2387
5375 7 2182 2181 2488
5376 7 2251 2181 2387
5377 7 2251 2181 2488
5378 7 2387 2181 2488
5379 8 2181 2182 2209
5380 8 2181 2182 2239
5381 8 2181 2182 2351
5382 8 2209 2182 2239
5383 8 2209 2182 2351
5384 8 2239 2182 2351
5385 7 2182 2209 2210
5386 7 2182 2209 2442
5387 7 2182 2209 2489
5388 7 2210 2209 2442
5389 7 2210 2209 2489
5390 7 2442 2209 2489
5391 1 2209 2210 2211
5392 2 2210 2211 2212
5393 3 2210 2211 2263
5394 2 2212 2211 2263
5395 4 2211 2212 2213
5396 4 2211 2212 2264
5397 5 2213 2212 2264
5398 5 3003 2213 2212
5399 6 3003 2213 2214
5400 6 2212 2213 2214
5401 7 2182 2239 2240
5402 7 2182 2239 2263
5403 7 2182 2239 2340
5404 7 2240 2239 2263
5405 7 2240 2239 2340
5406 7 2263 2239 2340
5407 1 2239 2240 2241
5408 2 2240 2241 2242
5409 3 2240 2241 2251
5410 2 2242 2241 2251
5411 4 2241 2242 2243
5412 4 2241 2242 2252
5413 5 2243 2242 2252
5414 5 436 2243 2242
5415 6 436 2243 2244
5416 6 2242 2243 2244
5417 1 2181 2251 2241
5418 5 433 2252 2242
5419 6 433 2252 2253
5420 6 2242 2252 2253
5421 1 2211 2263 2239
5422 5 2997 2264 2212
5423 6 2997 2264 2265
5424 6 2212 2264 2265
5425 1 2239 2340 2341
5426 2 2340 2341 2342
5427 3 2340 2341 2378
5428 2 2342 2341 2378
5429 4 2341 2342 2343
5430 4 2341 2342 2379
5431 5 2343 2342 2379
5432 6 2342 2343 2344
5433 5 2342 2343 2400
5434 6 2344 2343 2400
5435 7 2182 2351 2352
5436 7 2182 2351 2378
5437 7 2182 2351 2466
5438 7 2352 2351 2378
5439 7 2352 2351 2466
5440 7 2378 2351 2466
5441 1 2351 2352 2353
5442 2 2352 2353 2354
5443 3 2352 2353 2387
5444 2 2354 2353 2387
5445 4 2353 2354 2355
5446 4 2353 2354 2388
5447 5 2355 2354 2388
5448 6 2354 2355 2356
5449 5 2354 2355 2406
5450 6 2356 2355 2406
5451 1 2341 2378 2351
5452 5 2297 2379 2342
5453 6 2297 2379 2380
5454 6 2342 2379 2380
5455 1 2181 2387 2353
5456 5 2323 2388 2354
5457 6 2323 2388 2389
5458 6 2354 2388 2389
5459 1 2181 2488 2509
5460 1 2209 2489 2509
5461 3 2488 2509 2489
5462 2 2488 2509 2510
5463 2 2489 2509 2510
5464 4 2509 2510 2511
5465 4 2509 2510 2513
5466 5 2511 2510 2513
5467 5 1852 2511 2510
5468 6 1852 2511 2512
5469 6 2510 2511 2512
5470 5 1747 2513 2510
5471 6 1747 2513 2514
5472 6 2510 2513 2514
5473 1 2546 2545 2561
5474 2 2545 2546 2547
5475 3 2545 2546 2558
5476 2 2547 2546 2558
5477 4 2546 2547 2548
5478 4 2546 2547 2559
5479 5 2548 2547 2559
5480 6 2547 2548 2549
5481 5 2547 2548 983
5482 6 2549 2548 983
5483 1 2546 2558 2563
5484 6 2547 2559 2560
5485 5 2547 2559 965
5486 6 2560 2559 965
5487 7 2545 2561 2584
5488 7 2545 2561 2702
5489 7 2545 2561 2739
5490 7 2584 2561 2702
5491 7 2584 2561 2739
5492 7 2702 2561 2739
5493 7 2558 2563 2565
5494 7 2558 2563 2584
5495 7 2558 2563 2826
5496 7 2565 2563 2584
5497 7 2565 2563 2826
5498 7 2584 2563 2826
5499 1 2563 2565 2566
5500 2 2565 2566 2567
5501 3 2565 2566 2575
5502 2 2567 2566 2575
5503 4 2566 2567 2568
5504 4 2566 2567 2576
5505 5 2568 2567 2576
5506 6 2567 2568 2569
5507 5 2567 2568 1843
5508 6 2569 2568 1843
5509 1 2566 2575 2581
5510 6 2567 2576 2577
5511 5 2567 2576 1795
5512 6 2577 2576 1795
5513 7 2575 2581 2584
5514 7 2575 2581 2585
5515 7 2575 2581 2896
5516 7 2584 2581 2585
5517 7 2584 2581 2896
5518 7 2585 2581 2896
5519 8 2561 2584 2563
5520 8 2561 2584 2581
5521 8 2561 2584 2723
5522 8 2563 2584 2581
5523 8 2563 2584 2723
5524 8 2581 2584 2723
5525 1 2581 2585 2586
5526 2 2585 2586 2587
5527 3 2585 2586 2702
5528 2 2587 2586 2702
5529 4 2586 2587 2588
5530 4 2586 2587 2703
5531 5 2588 2587 2703
5532 6 2587 2588 2589
5533 5 2587 2588 3363
5534 6 2589 2588 3363
5535 1 2561 2702 2586
5536 6 2587 2703 2704
5537 5 2587 2703 3355
5538 6 2704 2703 3355
5539 7 2584 2723 2724
5540 7 2584 2723 2832
5541 7 2584 2723 2856
5542 7 2724 2723 2832
5543 7 2724 2723 2856
5544 7 2832 2723 2856
5545 1 2723 2724 2725
5546 2 2724 2725 2726
5547 3 2724 2725 2826
5548 2 2726 2725 2826
5549 4 2725 2726 2727
5550 4 2725 2726 2827
5551 5 2727 2726 2827
5552 6 2726 2727 2728
5553 5 2726 2727 2800
5554 6 2728 2727 2800
5555 1 2561 2739 2740
5556 2 2739 2740 2741
5557 3 2739 2740 2832
5558 2 2741 2740 2832
5559 4 2740 2741 2742
5560 4 2740 2741 2833
5561 5 2742 2741 2833
5562 6 2741 2742 2743
5563 5 2741 2742 2815
5564 6 2743 2742 2815
5565 1 2563 2826 2725
5566 5 2726 2827 2762
5567 6 2726 2827 2828
5568 6 2762 2827 2828
5569 1 2723 2832 2740
5570 5 2741 2833 2773
5571 6 2741 2833 2834
5572 6 2773 2833 2834
5573 1 2723 2856 2857
5574 2 2856 2857 2858
5575 3 2856 2857 2896
5576 2 2858 2857 2896
5577 4 2857 2858 2859
5578 4 2857 2858 2897
5579 5 2859 2858 2897
5580 6 2858 2859 2860
5581 5 2858 2859 2888
5582 6 2860 2859 2888
5583 1 2627 2861 2862
5584 2 2861 2862 2863
5585 3 2861 2862 2887
5586 2 2863 2862 2887
5587 4 2862 2863 2864
5588 4 2862 2863 2888
5589 5 2864 2863 2888
5590 6 2863 2864 2865
5591 5 2863 2864 2897
5592 6 2865 2864 2897
5593 1 2781 2887 2862
5594 5 2859 2888 2863
5595 6 2859 2888 2889
5596 6 2863 2888 2889
5597 1 2581 2896 2857
5598 5 2858 2897 2864
5599 6 2858 2897 2898
5600 6 2864 2897 2898
5601 7 2615 2614 2616
5602 7 2615 2614 2678
5603 7 2615 2614 2805
5604 7 2616 2614 2678
5605 7 2616 2614 2805
5606 7 2678 2614 2805
5607 8 2614 2615 2627
5608 8 2614 2615 2657
5609 8 2614 2615 2781
5610 8 2627 2615 2657
5611 8 2627 2615 2781
5612 8 2657 2615 2781
5613 1 2614 2616 2617
5614 2 2616 2617 2618
5615 3 2616 2617 2672
5616 2 2618 2617 2672
5617 4 2617 2618 2619
5618 4 2617 2618 2673
5619 5 2619 2618 2673
5620 6 2618 2619 2620
5621 5 2618 2619 3365
5622 6 2620 2619 3365
5623 7 2615 2627 2628
5624 7 2615 2627 2672
5625 7 2615 2627 2861
5626 7 2628 2627 2672
5627 7 2628 2627 2861
5628 7 2672 2627 2861
5629 1 2627 2628 2629
5630 2 2628 2629 2630
5631 3 2628 2629 2693
5632 2 2630 2629 2693
5633 4 2629 2630 2631
5634 4 2629 2630 2694
5635 5 2631 2630 2694
5636 6 2630 2631 2632
5637 5 2630 2631 2105
5638 6 2632 2631 2105
5639 7 2615 2657 2658
5640 7 2615 2657 2693
5641 7 2615 2657 2754
5642 7 2658 2657 2693
5643 7 2658 2657 2754
5644 7 2693 2657 2754
5645 1 2657 2658 2659
5646 2 2658 2659 2660
5647 3 2658 2659 2678
5648 2 2660 2659 2678
5649 4 2659 2660 2661
5650 4 2659 2660 2679
5651 5 2661 2660 2679
5652 5 863 2661 2660
5653 6 863 2661 2662
5654 6 2660 2661 2662
5655 1 2617 2672 2627
5656 6 2618 2673 2674
5657 5 2618 2673 3347
5658 6 2674 2673 3347
5659 1 2614 2678 2659
5660 5 852 2679 2660
5661 6 852 2679 2680
5662 6 2660 2679 2680
5663 1 2629 2693 2657
5664 6 2630 2694 2695
5665 5 2630 2694 2103
5666 6 2695 2694 2103
5667 1 2657 2754 2755
5668 2 2754 2755 2756
5669 3 2754 2755 2793
5670 2 2756 2755 2793
5671 4 2755 2756 2757
5672 4 2755 2756 2794
5673 5 2757 2756 2794
5674 6 2756 2757 2758
5675 5 2756 2757 2818
5676 6 2758 2757 2818
5677 7 2615 2781 2782
5678 7 2615 2781 2793
5679 7 2615 2781 2887
5680 7 2782 2781 2793
5681 7 2782 2781 2887
5682 7 2793 2781 2887
5683 1 2781 2782 2783
5684 2 2782 2783 2784
5685 3 2782 2783 2805
5686 2 2784 2783 2805
5687 4 2783 2784 2785
5688 4 2783 2784 2806
5689 5 2785 2784 2806
5690 6 2784 2785 2786
5691 5 2784 2785 2839
5692 6 2786 2785 2839
5693 1 2755 2793 2781
5694 5 2715 2794 2756
5695 6 2715 2794 2795
5696 6 2756 2794 2795
5697 1 2614 2805 2783
5698 5 2737 2806 2784
5699 6 2737 2806 2807
5700 6 2784 2806 2807
5701 7 2604 2603 2681
5702 7 2604 2603 2808
5703 7 2604 2603 2911
5704 7 2681 2603 2808
5705 7 2681 2603 2911
5706 7 2808 2603 2911
5707 8 2603 2604 2621
5708 8 2603 2604 2645
5709 8 2603 2604 2787
5710 8 2621 2604 2645
5711 8 2621 2604 2787
5712 8 2645 2604 2787
5713 7 2604 2621 2622
5714 7 2604 2621 2871
5715 7 2604 2621 2914
5716 7 2622 2621 2871
5717 7 2622 2621 2914
5718 7 2871 2621 2914
5719 1 2621 2622 2623
5720 2 2622 2623 2624
5721 3 2622 2623 2696
5722 2 2624 2623 2696
5723 4 2623 2624 2625
5724 4 2623 2624 2697
5725 5 2625 2624 2697
5726 6 2624 2625 2626
5727 5 2624 2625 2107
5728 6 2626 2625 2107
5729 7 2604 2645 2646
5730 7 2604 2645 2696
5731 7 2604 2645 2759
5732 7 2646 2645 2696
5733 7 2646 2645 2759
5734 7 2696 2645 2759
5735 1 2645 2646 2647
5736 2 2646 2647 2648
5737 3 2646 2647 2681
5738 2 2648 2647 2681
5739 4 2647 2648 2649
5740 4 2647 2648 2682
5741 5 2649 2648 2682
5742 6 2648 2649 2650
5743 5 2648 2649 1271
5744 6 2650 2649 1271
5745 1 2603 2681 2647
5746 6 2648 2682 2683
5747 5 2648 2682 1267
5748 6 2683 2682 1267
5749 1 2623 2696 2645
5750 6 2624 2697 2698
5751 5 2624 2697 2099
5752 6 2698 2697 2099
5753 1 2645 2759 2760
5754 2 2759 2760 2761
5755 3 2759 2760 2799
5756 2 2761 2760 2799
5757 4 2760 2761 2762
5758 4 2760 2761 2800
5759 5 2762 2761 2800
5760 6 2761 2762 2763
5761 5 2761 2762 2827
5762 6 2763 2762 2827
5763 7 2604 2787 2788
5764 7 2604 2787 2799
5765 7 2604 2787 2884
5766 7 2788 2787 2799
5767 7 2788 2787 2884
5768 7 2799 2787 2884
5769 1 2787 2788 2789
5770 2 2788 2789 2790
5771 3 2788 2789 2808
5772 2 2790 2789 2808
5773 4 2789 2790 2791
5774 4 2789 2790 2809
5775 5 2791 2790 2809
5776 6 2790 2791 2792
5777 5 2790 2791 2836
5778 6 2792 2791 2836
5779 1 2760 2799 2787
5780 5 2727 2800 2761
5781 6 2727 2800 2801
5782 6 2761 2800 2801
5783 1 2603 2808 2789
5784 5 2732 2809 2790
5785 6 2732 2809 2810
5786 6 2790 2809 2810
5787 1 2603 2911 2929
5788 1 2621 2914 2929
5789 3 2911 2929 2914
5790 2 2911 2929 2930
5791 2 2914 2929 2930
5792 4 2929 2930 2931
5793 4 2929 2930 2939
5794 5 2931 2930 2939
5795 5 3127 2931 2930
5796 6 3127 2931 2932
5797 6 2930 2931 2932
5798 5 3012 2939 2930
5799 6 3012 2939 2940
5800 6 2930 2939 2940
5801 1 2711 2841 2842
5802 2 2841 2842 2843
5803 3 2841 2842 2902
5804 2 2843 2842 2902
5805 4 2842 2843 2844
5806 4 2842 2843 2903
5807 5 2844 2843 2903
5808 6 2843 2844 2845
5809 5 2843 2844 2885
5810 6 2845 2844 2885
5811 1 2621 2871 2872
5812 2 2871 2872 2873
5813 3 2871 2872 2884
5814 2 2873 2872 2884
5815 4 2872 2873 2874
5816 4 2872 2873 2885
5817 5 2874 2873 2885
5818 6 2873 2874 2875
5819 5 2873 2874 2903
5820 6 2875 2874 2903
5821 1 2787 2884 2872
5822 5 2844 2885 2873
5823 6 2844 2885 2886
5824 6 2873 2885 2886
5825 1 2582 2902 2842
5826 5 2843 2903 2874
5827 6 2843 2903 2904
5828 6 2874 2903 2904
5829 1 2571 2570 2583
5830 2 2570 2571 2572
5831 3 2570 2571 2578
5832 2 2572 2571 2578
5833 4 2571 2572 2573
5834 4 2571 2572 2579
5835 5 2573 2572 2579
5836 6 2572 2573 2574
5837 5 2572 2573 1840
5838 6 2574 2573 1840
5839 1 2571 2578 2582
5840 6 2572 2579 2580
5841 5 2572 2579 1789
5842 6 2580 2579 1789
5843 7 2578 2582 2597
5844 7 2578 2582 2902
5845 7 2578 2582 2905
5846 7 2597 2582 2902
5847 7 2597 2582 2905
5848 7 2902 2582 2905
5849 7 2570 2583 2597
5850 7 2570 2583 2817
5851 7 2570 2583 2920
5852 7 2597 2583 2817
5853 7 2597 2583 2920
5854 7 2817 2583 2920
5855 8 2582 2597 2583
5856 8 2582 2597 2601
5857 8 2582 2597 2711
5858 8 2583 2597 2601
5859 8 2583 2597 2711
5860 8 2601 2597 2711
5861 7 2597 2601 2744
5862 7 2597 2601 2908
5863 7 2597 2601 2915
5864 7 2744 2601 2908
5865 7 2744 2601 2915
5866 7 2908 2601 2915
5867 7 2597 2711 2712
5868 7 2597 2711 2829
5869 7 2597 2711 2841
5870 7 2712 2711 2829
5871 7 2712 2711 2841
5872 7 2829 2711 2841
5873 1 2711 2712 2713
5874 2 2712 2713 2714
5875 3 2712 2713 2817
5876 2 2714 2713 2817
5877 4 2713 2714 2715
5878 4 2713 2714 2818
5879 5 2715 2714 2818
5880 6 2714 2715 2716
5881 5 2714 2715 2794
5882 6 2716 2715 2794
5883 1 2601 2744 2745
5884 2 2744 2745 2746
5885 3 2744 2745 2829
5886 2 2746 2745 2829
5887 4 2745 2746 2747
5888 4 2745 2746 2830
5889 5 2747 2746 2830
5890 6 2746 2747 2748
5891 5 2746 2747 2812
5892 6 2748 2747 2812
5893 1 2583 2817 2713
5894 5 2714 2818 2757
5895 6 2714 2818 2819
5896 6 2757 2818 2819
5897 1 2711 2829 2745
5898 5 2746 2830 2779
5899 6 2746 2830 2831
5900 6 2779 2830 2831
5901 1 2582 2905 2921
5902 1 2601 2908 2961
5903 1 2601 2915 2921
5904 1 2583 2920 2961
5905 3 2905 2921 2915
5906 2 2905 2921 2922
5907 2 2915 2921 2922
5908 4 2921 2922 2923
5909 4 2921 2922 2941
5910 5 2923 2922 2941
5911 5 3097 2923 2922
5912 6 3097 2923 2924
5913 6 2922 2923 2924
5914 5 3043 2941 2922
5915 6 3043 2941 2942
5916 6 2922 2941 2942
5917 3 2908 2961 2920
5918 2 2908 2961 2962
5919 2 2920 2961 2962
5920 4 2961 2962 2963
5921 4 2961 2962 2967
5922 5 2963 2962 2967
5923 5 986 2963 2962
5924 6 986 2963 2964
5925 6 2962 2963 2964
5926 5 953 2967 2962
5927 6 953 2967 2968
5928 6 2962 2967 2968
5929 1 2970 2969 2985
5930 2 2969 2970 2971
5931 3 2969 2970 2982
5932 2 2971 2970 2982
5933 4 2970 2971 2972
5934 4 2970 2971 2983
5935 5 2972 2971 2983
5936 6 2971 2972 2973
5937 5 2971 2972 1407
5938 6 2973 2972 1407
5939 1 2970 2982 2987
5940 6 2971 2983 2984
5941 5 2971 2983 1389
5942 6 2984 2983 1389
5943 7 2969 2985 3008
5944 7 2969 2985 3126
5945 7 2969 2985 3163
5946 7 3008 2985 3126
5947 7 3008 2985 3163
5948 7 3126 2985 3163
5949 7 2982 2987 2989
5950 7 2982 2987 3008
5951 7 2982 2987 3250
5952 7 2989 2987 3008
5953 7 2989 2987 3250
5954 7 3008 2987 3250
5955 1 2987 2989 2990
5956 2 2989 2990 2991
5957 3 2989 2990 2999
5958 2 2991 2990 2999
5959 4 2990 2991 2992
5960 4 2990 2991 3000
5961 5 2992 2991 3000
5962 6 2991 2992 2993
5963 5 2991 2992 2267
5964 6 2993 2992 2267
5965 1 2990 2999 3005
5966 6 2991 3000 3001
5967 5 2991 3000 2219
5968 6 3001 3000 2219
5969 7 2999 3005 3008
5970 7 2999 3005 3009
5971 7 2999 3005 3320
5972 7 3008 3005 3009
5973 7 3008 3005 3320
5974 7 3009 3005 3320
5975 8 2985 3008 2987
5976 8 2985 3008 3005
5977 8 2985 3008 3147
5978 8 2987 3008 3005
5979 8 2987 3008 3147
5980 8 3005 3008 3147
5981 1 3005 3009 3010
5982 2 3009 3010 3011
5983 3 3009 3010 3126
5984 2 3011 3010 3126
5985 4 3010 3011 3012
5986 4 3010 3011 3127
5987 5 3012 3011 3127
5988 6 3011 3012 3013
5989 5 3011 3012 2939
5990 6 3013 3012 2939
5991 1 2985 3126 3010
5992 6 3011 3127 3128
5993 5 3011 3127 2931
5994 6 3128 3127 2931
5995 7 3008 3147 3148
5996 7 3008 3147 3256
5997 7 3008 3147 3280
5998 7 3148 3147 3256
5999 7 3148 3147 3280
6000 7 3256 3147 3280
6001 1 3147 3148 3149
6002 2 3148 3149 3150
6003 3 3148 3149 3250
6004 2 3150 3149 3250
6005 4 3149 3150 3151
6006 4 3149 3150 3251
6007 5 3151 3150 3251
6008 6 3150 3151 3152
6009 5 3150 3151 3224
6010 6 3152 3151 3224
6011 1 2985 3163 3164
6012 2 3163 3164 3165
6013 3 3163 3164 3256
6014 2 3165 3164 3256
6015 4 3164 3165 3166
6016 4 3164 3165 3257
6017 5 3166 3165 3257
6018 6 3165 3166 3167
6019 5 3165 3166 3239
6020 6 3167 3166 3239
6021 1 2987 3250 3149
6022 5 3150 3251 3186
6023 6 3150 3251 3252
6024 6 3186 3251 3252
6025 1 3147 3256 3164
6026 5 3165 3257 3197
6027 6 3165 3257 3258
6028 6 3197 3257 3258
6029 1 3147 3280 3281
6030 2 3280 3281 3282
6031 3 3280 3281 3320
6032 2 3282 3281 3320
6033 4 3281 3282 3283
6034 4 3281 3282 3321
6035 5 3283 3282 3321
6036 6 3282 3283 3284
6037 5 3282 3283 3312
6038 6 3284 3283 3312
6039 1 3051 3285 3286
6040 2 3285 3286 3287
6041 3 3285 3286 3311
6042 2 3287 3286 3311
6043 4 3286 3287 3288
6044 4 3286 3287 3312
6045 5 3288 3287 3312
6046 6 3287 3288 3289
6047 5 3287 3288 3321
6048 6 3289 3288 3321
6049 1 3205 3311 3286
6050 5 3283 3312 3287
6051 6 3283 3312 3313
6052 6 3287 3312 3313
6053 1 3005 3320 3281
6054 5 3282 3321 3288
6055 6 3282 3321 3322
6056 6 3288 3321 3322
6057 7 3039 3038 3040
6058 7 3039 3038 3102
6059 7 3039 3038 3229
6060 7 3040 3038 3102
6061 7 3040 3038 3229
6062 7 3102 3038 3229
6063 8 3038 3039 3051
6064 8 3038 3039 3081
6065 8 3038 3039 3205
6066 8 3051 3039 3081
6067 8 3051 3039 3205
6068 8 3081 3039 3205
6069 1 3038 3040 3041
6070 2 3040 3041 3042
6071 3 3040 3041 3096
6072 2 3042 3041 3096
6073 4 3041 3042 3043
6074 4 3041 3042 3097
6075 5 3043 3042 3097
6076 6 3042 3043 3044
6077 5 3042 3043 2941
6078 6 3044 3043 2941
6079 7 3039 3051 3052
6080 7 3039 3051 3096
6081 7 3039 3051 3285
6082 7 3052 3051 3096
6083 7 3052 3051 3285
6084 7 3096 3051 3285
6085 1 3051 3052 3053
6086 2 3052 3053 3054
6087 3 3052 3053 3117
6088 2 3054 3053 3117
6089 4 3053 3054 3055
6090 4 3053 3054 3118
6091 5 3055 3054 3118
6092 6 3054 3055 3056
6093 5 3054 3055 2529
6094 6 3056 3055 2529
6095 7 3039 3081 3082
6096 7 3039 3081 3117
6097 7 3039 3081 3178
6098 7 3082 3081 3117
6099 7 3082 3081 3178
6100 7 3117 3081 3178
6101 1 3081 3082 3083
6102 2 3082 3083 3084
6103 3 3082 3083 3102
6104 2 3084 3083 3102
6105 4 3083 3084 3085
6106 4 3083 3084 3103
6107 5 3085 3084 3103
6108 5 1287 3085 3084
6109 6 1287 3085 3086
6110 6 3084 3085 3086
6111 1 3041 3096 3051
6112 6 3042 3097 3098
6113 5 3042 3097 2923
6114 6 3098 3097 2923
6115 1 3038 3102 3083
6116 5 1276 3103 3084
6117 6 1276 3103 3104
6118 6 3084 3103 3104
6119 1 3053 3117 3081
6120 6 3054 3118 3119
6121 5 3054 3118 2527
6122 6 3119 3118 2527
6123 1 3081 3178 3179
6124 2 3178 3179 3180
6125 3 3178 3179 3217
6126 2 3180 3179 3217
6127 4 3179 3180 3181
6128 4 3179 3180 3218
6129 5 3181 3180 3218
6130 6 3180 3181 3182
6131 5 3180 3181 3242
6132 6 3182 3181 3242
6133 7 3039 3205 3206
6134 7 3039 3205 3217
6135 7 3039 3205 3311
6136 7 3206 3205 3217
6137 7 3206 3205 3311
6138 7 3217 3205 3311
6139 1 3205 3206 3207
6140 2 3206 3207 3208
6141 3 3206 3207 3229
6142 2 3208 3207 3229
6143 4 3207 3208 3209
6144 4 3207 3208 3230
6145 5 3209 3208 3230
6146 6 3208 3209 3210
6147 5 3208 3209 3263
6148 6 3210 3209 3263
6149 1 3179 3217 3205
6150 5 3139 3218 3180
6151 6 3139 3218 3219
6152 6 3180 3218 3219
6153 1 3038 3229 3207
6154 5 3161 3230 3208
6155 6 3161 3230 3231
6156 6 3208 3230 3231
6157 7 3028 3027 3105
6158 7 3028 3027 3232
6159 7 3028 3027 3335
6160 7 3105 3027 3232
6161 7 3105 3027 3335
6162 7 3232 3027 3335
6163 8 3027 3028 3045
6164 8 3027 3028 3069
6165 8 3027 3028 3211
6166 8 3045 3028 3069
6167 8 3045 3028 3211
6168 8 3069 3028 3211
6169 7 3028 3045 3046
6170 7 3028 3045 3295
6171 7 3028 3045 3338
6172 7 3046 3045 3295
6173 7 3046 3045 3338
6174 7 3295 3045 3338
6175 1 3045 3046 3047
6176 2 3046 3047 3048
6177 3 3046 3047 3120
6178 2 3048 3047 3120
6179 4 3047 3048 3049
6180 4 3047 3048 3121
6181 5 3049 3048 3121
6182 6 3048 3049 3050
6183 5 3048 3049 2531
6184 6 3050 3049 2531
6185 7 3028 3069 3070
6186 7 3028 3069 3120
6187 7 3028 3069 3183
6188 7 3070 3069 3120
6189 7 3070 3069 3183
6190 7 3120 3069 3183
6191 1 3069 3070 3071
6192 2 3070 3071 3072
6193 3 3070 3071 3105
6194 2 3072 3071 3105
6195 4 3071 3072 3073
6196 4 3071 3072 3106
6197 5 3073 3072 3106
6198 6 3072 3073 3074
6199 5 3072 3073 1695
6200 6 3074 3073 1695
6201 1 3027 3105 3071
6202 6 3072 3106 3107
6203 5 3072 3106 1691
6204 6 3107 3106 1691
6205 1 3047 3120 3069
6206 6 3048 3121 3122
6207 5 3048 3121 2523
6208 6 3122 3121 2523
6209 1 3069 3183 3184
6210 2 3183 3184 3185
6211 3 3183 3184 3223
6212 2 3185 3184 3223
6213 4 3184 3185 3186
6214 4 3184 3185 3224
6215 5 3186 3185 3224
6216 6 3185 3186 3187
6217 5 3185 3186 3251
6218 6 3187 3186 3251
6219 7 3028 3211 3212
6220 7 3028 3211 3223
6221 7 3028 3211 3308
6222 7 3212 3211 3223
6223 7 3212 3211 3308
6224 7 3223 3211 3308
6225 1 3211 3212 3213
6226 2 3212 3213 3214
6227 3 3212 3213 3232
6228 2 3214 3213 3232
6229 4 3213 3214 3215
6230 4 3213 3214 3233
6231 5 3215 3214 3233
6232 6 3214 3215 3216
6233 5 3214 3215 3260
6234 6 3216 3215 3260
6235 1 3184 3223 3211
6236 5 3151 3224 3185
6237 6 3151 3224 3225
6238 6 3185 3224 3225
6239 1 3027 3232 3213
6240 5 3156 3233 3214
6241 6 3156 3233 3234
6242 6 3214 3233 3234
6243 1 3027 3335 3353
6244 1 3045 3338 3353
6245 3 3335 3353 3338
6246 2 3335 3353 3354
6247 2 3338 3353 3354
6248 4 3353 3354 3355
6249 4 3353 3354 3363
6250 5 3355 3354 3363
6251 5 2703 3355 3354
6252 6 2703 3355 3356
6253 6 3354 3355 3356
6254 5 2588 3363 3354
6255 6 2588 3363 3364
6256 6 3354 3363 3364
6257 1 3135 3265 3266
6258 2 3265 3266 3267
6259 3 3265 3266 3326
6260 2 3267 3266 3326
6261 4 3266 3267 3268
6262 4 3266 3267 3327
6263 5 3268 3267 3327
6264 6 3267 3268 3269
6265 5 3267 3268 3309
6266 6 3269 3268 3309
6267 1 3045 3295 3296
6268 2 3295 3296 3297
6269 3 3295 3296 3308
6270 2 3297 3296 3308
6271 4 3296 3297 3298
6272 4 3296 3297 3309
6273 5 3298 3297 3309
6274 6 3297 3298 3299
6275 5 3297 3298 3327
6276 6 3299 3298 3327
6277 1 3211 3308 3296
6278 5 3268 3309 3297
6279 6 3268 3309 3310
6280 6 3297 3309 3310
6281 1 3006 3326 3266
6282 5 3267 3327 3298
6283 6 3267 3327 3328
6284 6 3298 3327 3328
6285 1 2995 2994 3007
6286 2 2994 2995 2996
6287 3 2994 2995 3002
6288 2 2996 2995 3002
6289 4 2995 2996 2997
6290 4 2995 2996 3003
6291 5 2997 2996 3003
6292 6 2996 2997 2998
6293 5 2996 2997 2264
6294 6 2998 2997 2264
6295 1 2995 3002 3006
6296 6 2996 3003 3004
6297 5 2996 3003 2213
6298 6 3004 3003 2213
6299 7 3002 3006 3021
6300 7 3002 3006 3326
6301 7 3002 3006 3329
6302 7 3021 3006 3326
6303 7 3021 3006 3329
6304 7 3326 3006 3329
6305 7 2994 3007 3021
6306 7 2994 3007 3241
6307 7 2994 3007 3344
6308 7 3021 3007 3241
6309 7 3021 3007 3344
6310 7 3241 3007 3344
6311 8 3006 3021 3007
6312 8 3006 3021 3025
6313 8 3006 3021 3135
6314 8 3007 3021 3025
6315 8 3007 3021 3135
6316 8 3025 3021 3135
6317 7 3021 3025 3168
6318 7 3021 3025 3332
6319 7 3021 3025 3339
6320 7 3168 3025 3332
6321 7 3168 3025 3339
6322 7 3332 3025 3339
6323 7 3021 3135 3136
6324 7 3021 3135 3253
6325 7 3021 3135 3265
6326 7 3136 3135 3253
6327 7 3136 3135 3265
6328 7 3253 3135 3265
6329 1 3135 3136 3137
6330 2 3136 3137 3138
6331 3 3136 3137 3241
6332 2 3138 3137 3241
6333 4 3137 3138 3139
6334 4 3137 3138 3242
6335 5 3139 3138 3242
6336 6 3138 3139 3140
6337 5 3138 3139 3218
6338 6 3140 3139 3218
6339 1 3025 3168 3169
6340 2 3168 3169 3170
6341 3 3168 3169 3253
6342 2 3170 3169 3253
6343 4 3169 3170 3171
6344 4 3169 3170 3254
6345 5 3171 3170 3254
6346 6 3170 3171 3172
6347 5 3170 3171 3236
6348 6 3172 3171 3236
6349 1 3007 3241 3137
6350 5 3138 3242 3181
6351 6 3138 3242 3243
6352 6 3181 3242 3243
6353 1 3135 3253 3169
6354 5 3170 3254 3203
6355 6 3170 3254 3255
6356 6 3203 3254 3255
6357 1 3006 3329 3345
6358 1 3025 3332 3385
6359 1 3025 3339 3345
6360 1 3007 3344 3385
6361 3 3329 3345 3339
6362 2 3329 3345 3346
6363 2 3339 3345 3346
6364 4 3345 3346 3347
6365 4 3345 3346 3365
6366 5 3347 3346 3365
6367 5 2673 3347 3346
6368 6 2673 3347 3348
6369 6 3346 3347 3348
6370 5 2619 3365 3346
6371 6 2619 3365 3366
6372 6 3346 3365 3366
6373 3 3332 3385 3344
6374 2 3332 3385 3386
6375 2 3344 3385 3386
6376 4 3385 3386 3387
6377 4 3385 3386 3391
6378 5 3387 3386 3391
6379 5 1410 3387 3386
6380 6 1410 3387 3388
6381 6 3386 3387 3388
6382 5 1377 3391 3386
6383 6 1377 3391 3392
6384 6 3386 3391 3392
6385 7 2608 2607 2609
6386 7 2608 2607 2684
6387 7 2608 2607 2814
6388 7 2609 2607 2684
6389 7 2609 2607 2814
6390 7 2684 2607 2814
6391 8 2607 2608 2639
6392 8 2607 2608 2651
6393 8 2607 2608 2769
6394 8 2639 2608 2651
6395 8 2639 2608 2769
6396 8 2651 2608 2769
6397 1 2607 2609 2610
6398 2 2609 2610 2611
6399 3 2609 2610 2669
6400 2 2611 2610 2669
6401 4 2610 2611 2612
6402 4 2610 2611 2670
6403 5 2612 2611 2670
6404 6 2611 2612 2613
6405 5 2611 2612 3367
6406 6 2613 2612 3367
6407 7 2608 2639 2640
6408 7 2608 2639 2669
6409 7 2608 2639 2876
6410 7 2640 2639 2669
6411 7 2640 2639 2876
6412 7 2669 2639 2876
6413 1 2639 2640 2641
6414 2 2640 2641 2642
6415 3 2640 2641 2690
6416 2 2642 2641 2690
6417 4 2641 2642 2643
6418 4 2641 2642 2691
6419 5 2643 2642 2691
6420 5 1728 2643 2642
6421 6 1728 2643 2644
6422 6 2642 2643 2644
6423 7 2608 2651 2652
6424 7 2608 2651 2690
6425 7 2608 2651 2749
6426 7 2652 2651 2690
6427 7 2652 2651 2749
6428 7 2690 2651 2749
6429 1 2651 2652 2653
6430 2 2652 2653 2654
6431 3 2652 2653 2684
6432 2 2654 2653 2684
6433 4 2653 2654 2655
6434 4 2653 2654 2685
6435 5 2655 2654 2685
6436 6 2654 2655 2656
6437 5 2654 2655 1269
6438 6 2656 2655 1269
6439 1 2610 2669 2639
6440 6 2611 2670 2671
6441 5 2611 2670 3351
6442 6 2671 2670 3351
6443 1 2607 2684 2653
6444 6 2654 2685 2686
6445 5 2654 2685 1263
6446 6 2686 2685 1263
6447 1 2641 2690 2651
6448 5 1720 2691 2642
6449 6 1720 2691 2692
6450 6 2642 2691 2692
6451 1 2651 2749 2750
6452 2 2749 2750 2751
6453 3 2749 2750 2796
6454 2 2751 2750 2796
6455 4 2750 2751 2752
6456 4 2750 2751 2797
6457 5 2752 2751 2797
6458 6 2751 2752 2753
6459 5 2751 2752 2821
6460 6 2753 2752 2821
6461 7 2608 2769 2770
6462 7 2608 2769 2796
6463 7 2608 2769 2881
6464 7 2770 2769 2796
6465 7 2770 2769 2881
6466 7 2796 2769 2881
6467 1 2769 2770 2771
6468 2 2770 2771 2772
6469 3 2770 2771 2814
6470 2 2772 2771 2814
6471 4 2771 2772 2773
6472 4 2771 2772 2815
6473 5 2773 2772 2815
6474 6 2772 2773 2774
6475 5 2772 2773 2833
6476 6 2774 2773 2833
6477 1 2750 2796 2769
6478 5 2709 2797 2751
6479 6 2709 2797 2798
6480 6 2751 2797 2798
6481 1 2607 2814 2771
6482 5 2742 2815 2772
6483 6 2742 2815 2816
6484 6 2772 2815 2816
6485 1 2717 2846 2847
6486 2 2846 2847 2848
6487 3 2846 2847 2899
6488 2 2848 2847 2899
6489 4 2847 2848 2849
6490 4 2847 2848 2900
6491 5 2849 2848 2900
6492 6 2848 2849 2850
6493 5 2848 2849 2882
6494 6 2850 2849 2882
6495 1 2639 2876 2877
6496 2 2876 2877 2878
6497 3 2876 2877 2881
6498 2 2878 2877 2881
6499 4 2877 2878 2879
6500 4 2877 2878 2882
6501 5 2879 2878 2882
6502 6 2878 2879 2880
6503 5 2878 2879 2900
6504 6 2880 2879 2900
6505 1 2769 2881 2877
6506 5 2849 2882 2878
6507 6 2849 2882 2883
6508 6 2878 2882 2883
6509 1 2590 2899 2847
6510 5 2848 2900 2879
6511 6 2848 2900 2901
6512 6 2879 2900 2901
6513 7 2591 2590 2592
6514 7 2591 2590 2899
6515 7 2591 2590 2917
6516 7 2592 2590 2899
6517 7 2592 2590 2917
6518 7 2899 2590 2917
6519 8 2590 2591 2600
6520 8 2590 2591 2602
6521 8 2590 2591 2717
6522 8 2600 2591 2602
6523 8 2600 2591 2717
6524 8 2602 2591 2717
6525 1 2590 2592 2593
6526 2 2592 2593 2594
6527 3 2592 2593 2699
6528 2 2594 2593 2699
6529 4 2593 2594 2595
6530 4 2593 2594 2700
6531 5 2595 2594 2700
6532 6 2594 2595 2596
6533 5 2594 2595 3361
6534 6 2596 2595 3361
6535 7 2591 2600 2699
6536 7 2591 2600 2734
6537 7 2591 2600 2907
6538 7 2699 2600 2734
6539 7 2699 2600 2907
6540 7 2734 2600 2907
6541 7 2591 2602 2823
6542 7 2591 2602 2910
6543 7 2591 2602 2919
6544 7 2823 2602 2910
6545 7 2823 2602 2919
6546 7 2910 2602 2919
6547 1 2593 2699 2600
6548 6 2594 2700 2701
6549 5 2594 2700 3359
6550 6 2701 2700 3359
6551 7 2591 2717 2718
6552 7 2591 2717 2838
6553 7 2591 2717 2846
6554 7 2718 2717 2838
6555 7 2718 2717 2846
6556 7 2838 2717 2846
6557 1 2717 2718 2719
6558 2 2718 2719 2720
6559 3 2718 2719 2823
6560 2 2720 2719 2823
6561 4 2719 2720 2721
6562 4 2719 2720 2824
6563 5 2721 2720 2824
6564 6 2720 2721 2722
6565 5 2720 2721 2803
6566 6 2722 2721 2803
6567 1 2600 2734 2735
6568 2 2734 2735 2736
6569 3 2734 2735 2838
6570 2 2736 2735 2838
6571 4 2735 2736 2737
6572 4 2735 2736 2839
6573 5 2737 2736 2839
6574 6 2736 2737 2738
6575 5 2736 2737 2806
6576 6 2738 2737 2806
6577 1 2602 2823 2719
6578 5 2720 2824 2767
6579 6 2720 2824 2825
6580 6 2767 2824 2825
6581 1 2717 2838 2735
6582 5 2736 2839 2785
6583 6 2736 2839 2840
6584 6 2785 2839 2840
6585 1 2600 2907 2957
6586 1 2602 2910 2949
6587 1 2590 2917 2949
6588 1 2602 2919 2957
6589 3 2910 2949 2917
6590 2 2910 2949 2950
6591 2 2917 2949 2950
6592 4 2949 2950 2951
6593 4 2949 2950 2953
6594 5 2951 2950 2953
6595 5 1846 2951 2950
6596 6 1846 2951 2952
6597 6 2950 2951 2952
6598 5 1783 2953 2950
6599 6 1783 2953 2954
6600 6 2950 2953 2954
6601 3 2907 2957 2919
6602 2 2907 2957 2958
6603 2 2919 2957 2958
6604 4 2957 2958 2959
6605 4 2957 2958 2965
6606 5 2959 2958 2965
6607 5 989 2959 2958
6608 6 989 2959 2960
6609 6 2958 2959 2960
6610 5 959 2965 2958
6611 6 959 2965 2966
6612 6 2958 2965 2966
6613 1 2551 2550 2562
6614 2 2550 2551 2552
6615 3 2550 2551 2555
6616 2 2552 2551 2555
6617 4 2551 2552 2553
6618 4 2551 2552 2556
6619 5 2553 2552 2556
6620 6 2552 2553 2554
6621 5 2552 2553 980
6622 6 2554 2553 980
6623 1 2551 2555 2564
6624 6 2552 2556 2557
6625 5 2552 2556 971
6626 6 2557 2556 971
6627 7 2550 2562 2599
6628 7 2550 2562 2729
6629 7 2550 2562 2916
6630 7 2599 2562 2729
6631 7 2599 2562 2916
6632 7 2729 2562 2916
6633 7 2555 2564 2599
6634 7 2555 2564 2820
6635 7 2555 2564 2909
6636 7 2599 2564 2820
6637 7 2599 2564 2909
6638 7 2820 2564 2909
6639 7 2599 2598 2893
6640 7 2599 2598 2906
6641 7 2599 2598 2918
6642 7 2893 2598 2906
6643 7 2893 2598 2918
6644 7 2906 2598 2918
6645 8 2562 2599 2564
6646 8 2562 2599 2598
6647 8 2562 2599 2705
6648 8 2564 2599 2598
6649 8 2564 2599 2705
6650 8 2598 2599 2705
6651 7 2599 2705 2706
6652 7 2599 2705 2835
6653 7 2599 2705 2851
6654 7 2706 2705 2835
6655 7 2706 2705 2851
6656 7 2835 2705 2851
6657 1 2705 2706 2707
6658 2 2706 2707 2708
6659 3 2706 2707 2820
6660 2 2708 2707 2820
6661 4 2707 2708 2709
6662 4 2707 2708 2821
6663 5 2709 2708 2821
6664 6 2708 2709 2710
6665 5 2708 2709 2797
6666 6 2710 2709 2797
6667 1 2562 2729 2730
6668 2 2729 2730 2731
6669 3 2729 2730 2835
6670 2 2731 2730 2835
6671 4 2730 2731 2732
6672 4 2730 2731 2836
6673 5 2732 2731 2836
6674 6 2731 2732 2733
6675 5 2731 2732 2809
6676 6 2733 2732 2809
6677 1 2564 2820 2707
6678 5 2708 2821 2752
6679 6 2708 2821 2822
6680 6 2752 2821 2822
6681 1 2705 2835 2730
6682 5 2731 2836 2791
6683 6 2731 2836 2837
6684 6 2791 2836 2837
6685 1 2598 2906 2925
6686 1 2564 2909 2945
6687 1 2562 2916 2925
6688 1 2598 2918 2945
6689 3 2906 2925 2916
6690 2 2906 2925 2926
6691 2 2916 2925 2926
6692 4 2925 2926 2927
6693 4 2925 2926 2943
6694 5 2927 2926 2943
6695 5 3094 2927 2926
6696 6 3094 2927 2928
6697 6 2926 2927 2928
6698 5 3036 2943 2926
6699 6 3036 2943 2944
6700 6 2926 2943 2944
6701 3 2909 2945 2918
6702 2 2909 2945 2946
6703 2 2918 2945 2946
6704 4 2945 2946 2947
6705 4 2945 2946 2955
6706 5 2947 2946 2955
6707 5 1849 2947 2946
6708 6 1849 2947 2948
6709 6 2946 2947 2948
6710 5 1777 2955 2946
6711 6 1777 2955 2956
6712 6 2946 2955 2956
6713 1 2705 2851 2852
6714 2 2851 2852 2853
6715 3 2851 2852 2893
6716 2 2853 2852 2893
6717 4 2852 2853 2854
6718 4 2852 2853 2894
6719 5 2854 2853 2894
6720 6 2853 2854 2855
6721 5 2853 2854 2891
6722 6 2855 2854 2891
6723 1 2633 2866 2867
6724 2 2866 2867 2868
6725 3 2866 2867 2890
6726 2 2868 2867 2890
6727 4 2867 2868 2869
6728 4 2867 2868 2891
6729 5 2869 2868 2891
6730 6 2868 2869 2870
6731 5 2868 2869 2894
6732 6 2870 2869 2894
6733 1 2775 2890 2867
6734 5 2854 2891 2868
6735 6 2854 2891 2892
6736 6 2868 2891 2892
6737 1 2598 2893 2852
6738 5 2853 2894 2869
6739 6 2853 2894 2895
6740 6 2869 2894 2895
6741 7 2606 2605 2675
6742 7 2606 2605 2811
6743 7 2606 2605 2912
6744 7 2675 2605 2811
6745 7 2675 2605 2912
6746 7 2811 2605 2912
6747 8 2605 2606 2633
6748 8 2605 2606 2663
6749 8 2605 2606 2775
6750 8 2633 2606 2663
6751 8 2633 2606 2775
6752 8 2663 2606 2775
6753 7 2606 2633 2634
6754 7 2606 2633 2866
6755 7 2606 2633 2913
6756 7 2634 2633 2866
6757 7 2634 2633 2913
6758 7 2866 2633 2913
6759 1 2633 2634 2635
6760 2 2634 2635 2636
6761 3 2634 2635 2687
6762 2 2636 2635 2687
6763 4 2635 2636 2637
6764 4 2635 2636 2688
6765 5 2637 2636 2688
6766 5 1731 2637 2636
6767 6 1731 2637 2638
6768 6 2636 2637 2638
6769 7 2606 2663 2664
6770 7 2606 2663 2687
6771 7 2606 2663 2764
6772 7 2664 2663 2687
6773 7 2664 2663 2764
6774 7 2687 2663 2764
6775 1 2663 2664 2665
6776 2 2664 2665 2666
6777 3 2664 2665 2675
6778 2 2666 2665 2675
6779 4 2665 2666 2667
6780 4 2665 2666 2676
6781 5 2667 2666 2676
6782 5 860 2667 2666
6783 6 860 2667 2668
6784 6 2666 2667 2668
6785 1 2605 2675 2665
6786 5 857 2676 2666
6787 6 857 2676 2677
6788 6 2666 2676 2677
6789 1 2635 2687 2663
6790 5 1725 2688 2636
6791 6 1725 2688 2689
6792 6 2636 2688 2689
6793 1 2663 2764 2765
6794 2 2764 2765 2766
6795 3 2764 2765 2802
6796 2 2766 2765 2802
6797 4 2765 2766 2767
6798 4 2765 2766 2803
6799 5 2767 2766 2803
6800 6 2766 2767 2768
6801 5 2766 2767 2824
6802 6 2768 2767 2824
6803 7 2606 2775 2776
6804 7 2606 2775 2802
6805 7 2606 2775 2890
6806 7 2776 2775 2802
6807 7 2776 2775 2890
6808 7 2802 2775 2890
6809 1 2775 2776 2777
6810 2 2776 2777 2778
6811 3 2776 2777 2811
6812 2 2778 2777 2811
6813 4 2777 2778 2779
6814 4 2777 2778 2812
6815 5 2779 2778 2812
6816 6 2778 2779 2780
6817 5 2778 2779 2830
6818 6 2780 2779 2830
6819 1 2765 2802 2775
6820 5 2721 2803 2766
6821 6 2721 2803 2804
6822 6 2766 2803 2804
6823 1 2605 2811 2777
6824 5 2747 2812 2778
6825 6 2747 2812 2813
6826 6 2778 2812 2813
6827 1 2605 2912 2933
6828 1 2633 2913 2933
6829 3 2912 2933 2913
6830 2 2912 2933 2934
6831 2 2913 2933 2934
6832 4 2933 2934 2935
6833 4 2933 2934 2937
6834 5 2935 2934 2937
6835 5 3124 2935 2934
6836 6 3124 2935 2936
6837 6 2934 2935 2936
6838 5 3019 2937 2934
6839 6 3019 2937 2938
6840 6 2934 2937 2938
6841 7 3032 3031 3033
6842 7 3032 3031 3108
6843 7 3032 3031 3238
6844 7 3033 3031 3108
6845 7 3033 3031 3238
6846 7 3108 3031 3238
6847 8 3031 3032 3063
6848 8 3031 3032 3075
6849 8 3031 3032 3193
6850 8 3063 3032 3075
6851 8 3063 3032 3193
6852 8 3075 3032 3193
6853 1 3031 3033 3034
6854 2 3033 3034 3035
6855 3 3033 3034 3093
6856 2 3035 3034 3093
6857 4 3034 3035 3036
6858 4 3034 3035 3094
6859 5 3036 3035 3094
6860 6 3035 3036 3037
6861 5 3035 3036 2943
6862 6 3037 3036 2943
6863 7 3032 3063 3064
6864 7 3032 3063 3093
6865 7 3032 3063 3300
6866 7 3064 3063 3093
6867 7 3064 3063 3300
6868 7 3093 3063 3300
6869 1 3063 3064 3065
6870 2 3064 3065 3066
6871 3 3064 3065 3114
6872 2 3066 3065 3114
6873 4 3065 3066 3067
6874 4 3065 3066 3115
6875 5 3067 3066 3115
6876 5 2152 3067 3066
6877 6 2152 3067 3068
6878 6 3066 3067 3068
6879 7 3032 3075 3076
6880 7 3032 3075 3114
6881 7 3032 3075 3173
6882 7 3076 3075 3114
6883 7 3076 3075 3173
6884 7 3114 3075 3173
6885 1 3075 3076 3077
6886 2 3076 3077 3078
6887 3 3076 3077 3108
6888 2 3078 3077 3108
6889 4 3077 3078 3079
6890 4 3077 3078 3109
6891 5 3079 3078 3109
6892 6 3078 3079 3080
6893 5 3078 3079 1693
6894 6 3080 3079 1693
6895 1 3034 3093 3063
6896 6 3035 3094 3095
6897 5 3035 3094 2927
6898 6 3095 3094 2927
6899 1 3031 3108 3077
6900 6 3078 3109 3110
6901 5 3078 3109 1687
6902 6 3110 3109 1687
6903 1 3065 3114 3075
6904 5 2144 3115 3066
6905 6 2144 3115 3116
6906 6 3066 3115 3116
6907 1 3075 3173 3174
6908 2 3173 3174 3175
6909 3 3173 3174 3220
6910 2 3175 3174 3220
6911 4 3174 3175 3176
6912 4 3174 3175 3221
6913 5 3176 3175 3221
6914 6 3175 3176 3177
6915 5 3175 3176 3245
6916 6 3177 3176 3245
6917 7 3032 3193 3194
6918 7 3032 3193 3220
6919 7 3032 3193 3305
6920 7 3194 3193 3220
6921 7 3194 3193 3305
6922 7 3220 3193 3305
6923 1 3193 3194 3195
6924 2 3194 3195 3196
6925 3 3194 3195 3238
6926 2 3196 3195 3238
6927 4 3195 3196 3197
6928 4 3195 3196 3239
6929 5 3197 3196 3239
6930 6 3196 3197 3198
6931 5 3196 3197 3257
6932 6 3198 3197 3257
6933 1 3174 3220 3193
6934 5 3133 3221 3175
6935 6 3133 3221 3222
6936 6 3175 3221 3222
6937 1 3031 3238 3195
6938 5 3166 3239 3196
6939 6 3166 3239 3240
6940 6 3196 3239 3240
6941 1 3141 3270 3271
6942 2 3270 3271 3272
6943 3 3270 3271 3323
6944 2 3272 3271 3323
6945 4 3271 3272 3273
6946 4 3271 3272 3324
6947 5 3273 3272 3324
6948 6 3272 3273 3274
6949 5 3272 3273 3306
6950 6 3274 3273 3306
6951 1 3063 3300 3301
6952 2 3300 3301 3302
6953 3 3300 3301 3305
6954 2 3302 3301 3305
6955 4 3301 3302 3303
6956 4 3301 3302 3306
6957 5 3303 3302 3306
6958 6 3302 3303 3304
6959 5 3302 3303 3324
6960 6 3304 3303 3324
6961 1 3193 3305 3301
6962 5 3273 3306 3302
6963 6 3273 3306 3307
6964 6 3302 3306 3307
6965 1 3014 3323 3271
6966 5 3272 3324 3303
6967 6 3272 3324 3325
6968 6 3303 3324 3325
6969 7 3015 3014 3016
6970 7 3015 3014 3323
6971 7 3015 3014 3341
6972 7 3016 3014 3323
6973 7 3016 3014 3341
6974 7 3323 3014 3341
6975 8 3014 3015 3024
6976 8 3014 3015 3026
6977 8 3014 3015 3141
6978 8 3024 3015 3026
6979 8 3024 3015 3141
6980 8 3026 3015 3141
6981 1 3014 3016 3017
6982 2 3016 3017 3018
6983 3 3016 3017 3123
6984 2 3018 3017 3123
6985 4 3017 3018 3019
6986 4 3017 3018 3124
6987 5 3019 3018 3124
6988 6 3018 3019 3020
6989 5 3018 3019 2937
6990 6 3020 3019 2937
6991 7 3015 3024 3123
6992 7 3015 3024 3158
6993 7 3015 3024 3331
6994 7 3123 3024 3158
6995 7 3123 3024 3331
6996 7 3158 3024 3331
6997 7 3015 3026 3247
6998 7 3015 3026 3334
6999 7 3015 3026 3343
7000 7 3247 3026 3334
7001 7 3247 3026 3343
7002 7 3334 3026 3343
7003 1 3017 3123 3024
7004 6 3018 3124 3125
7005 5 3018 3124 2935
7006 6 3125 3124 2935
7007 7 3015 3141 3142
7008 7 3015 3141 3262
7009 7 3015 3141 3270
7010 7 3142 3141 3262
7011 7 3142 3141 3270
7012 7 3262 3141 3270
7013 1 3141 3142 3143
7014 2 3142 3143 3144
7015 3 3142 3143 3247
7016 2 3144 3143 3247
7017 4 3143 3144 3145
7018 4 3143 3144 3248
7019 5 3145 3144 3248
7020 6 3144 3145 3146
7021 5 3144 3145 3227
7022 6 3146 3145 3227
7023 1 3024 3158 3159
7024 2 3158 3159 3160
7025 3 3158 3159 3262
7026 2 3160 3159 3262
7027 4 3159 3160 3161
7028 4 3159 3160 3263
7029 5 3161 3160 3263
7030 6 3160 3161 3162
7031 5 3160 3161 3230
7032 6 3162 3161 3230
7033 1 3026 3247 3143
7034 5 3144 3248 3191
7035 6 3144 3248 3249
7036 6 3191 3248 3249
7037 1 3141 3262 3159
7038 5 3160 3263 3209
7039 6 3160 3263 3264
7040 6 3209 3263 3264
7041 1 3024 3331 3381
7042 1 3026 3334 3373
7043 1 3014 3341 3373
7044 1 3026 3343 3381
7045 3 3334 3373 3341
7046 2 3334 3373 3374
7047 2 3341 3373 3374
7048 4 3373 3374 3375
7049 4 3373 3374 3377
7050 5 3375 3374 3377
7051 5 2270 3375 3374
7052 6 2270 3375 3376
7053 6 3374 3375 3376
7054 5 2207 3377 3374
7055 6 2207 3377 3378
7056 6 3374 3377 3378
7057 3 3331 3381 3343
7058 2 3331 3381 3382
7059 2 3343 3381 3382
7060 4 3381 3382 3383
7061 4 3381 3382 3389
7062 5 3383 3382 3389
7063 5 1413 3383 3382
7064 6 1413 3383 3384
7065 6 3382 3383 3384
7066 5 1383 3389 3382
7067 6 1383 3389 3390
7068 6 3382 3389 3390
7069 1 2975 2974 2986
7070 2 2974 2975 2976
7071 3 2974 2975 2979
7072 2 2976 2975 2979
7073 4 2975 2976 2977
7074 4 2975 2976 2980
7075 5 2977 2976 2980
7076 6 2976 2977 2978
7077 5 2976 2977 1404
7078 6 2978 2977 1404
7079 1 2975 2979 2988
7080 6 2976 2980 2981
7081 5 2976 2980 1395
7082 6 2981 2980 1395
7083 7 2974 2986 3023
7084 7 2974 2986 3153
7085 7 2974 2986 3340
7086 7 3023 2986 3153
7087 7 3023 2986 3340
7088 7 3153 2986 3340
7089 7 2979 2988 3023
7090 7 2979 2988 3244
7091 7 2979 2988 3333
7092 7 3023 2988 3244
7093 7 3023 2988 3333
7094 7 3244 2988 3333
7095 7 3023 3022 3317
7096 7 3023 3022 3330
7097 7 3023 3022 3342
7098 7 3317 3022 3330
7099 7 3317 3022 3342
7100 7 3330 3022 3342
7101 8 2986 3023 2988
7102 8 2986 3023 3022
7103 8 2986 3023 3129
7104 8 2988 3023 3022
7105 8 2988 3023 3129
7106 8 3022 3023 3129
7107 7 3023 3129 3130
7108 7 3023 3129 3259
7109 7 3023 3129 3275
7110 7 3130 3129 3259
7111 7 3130 3129 3275
7112 7 3259 3129 3275
7113 1 3129 3130 3131
7114 2 3130 3131 3132
7115 3 3130 3131 3244
7116 2 3132 3131 3244
7117 4 3131 3132 3133
7118 4 3131 3132 3245
7119 5 3133 3132 3245
7120 6 3132 3133 3134
7121 5 3132 3133 3221
7122 6 3134 3133 3221
7123 1 2986 3153 3154
7124 2 3153 3154 3155
7125 3 3153 3154 3259
7126 2 3155 3154 3259
7127 4 3154 3155 3156
7128 4 3154 3155 3260
7129 5 3156 3155 3260
7130 6 3155 3156 3157
7131 5 3155 3156 3233
7132 6 3157 3156 3233
7133 1 2988 3244 3131
7134 5 3132 3245 3176
7135 6 3132 3245 3246
7136 6 3176 3245 3246
7137 1 3129 3259 3154
7138 5 3155 3260 3215
7139 6 3155 3260 3261
7140 6 3215 3260 3261
7141 1 3022 3330 3349
7142 1 2988 3333 3369
7143 1 2986 3340 3349
7144 1 3022 3342 3369
7145 3 3330 3349 3340
7146 2 3330 3349 3350
7147 2 3340 3349 3350
7148 4 3349 3350 3351
7149 4 3349 3350 3367
7150 5 3351 3350 3367
7151 5 2670 3351 3350
7152 6 2670 3351 3352
7153 6 3350 3351 3352
7154 5 2612 3367 3350
7155 6 2612 3367 3368
7156 6 3350 3367 3368
7157 3 3333 3369 3342
7158 2 3333 3369 3370
7159 2 3342 3369 3370
7160 4 3369 3370 3371
7161 4 3369 3370 3379
7162 5 3371 3370 3379
7163 5 2273 3371 3370
7164 6 2273 3371 3372
7165 6 3370 3371 3372
7166 5 2201 3379 3370
7167 6 2201 3379 3380
7168 6 3370 3379 3380
7169 1 3129 3275 3276
7170 2 3275 3276 3277
7171 3 3275 3276 3317
7172 2 3277 3276 3317
7173 4 3276 3277 3278
7174 4 3276 3277 3318
7175 5 3278 3277 3318
7176 6 3277 3278 3279
7177 5 3277 3278 3315
7178 6 3279 3278 3315
7179 1 3057 3290 3291
7180 2 3290 3291 3292
7181 3 3290 3291 3314
7182 2 3292 3291 3314
7183 4 3291 3292 3293
7184 4 3291 3292 3315
7185 5 3293 3292 3315
7186 6 3292 3293 3294
7187 5 3292 3293 3318
7188 6 3294 3293 3318
7189 1 3199 3314 3291
7190 5 3278 3315 3292
7191 6 3278 3315 3316
7192 6 3292 3315 3316
7193 1 3022 3317 3276
7194 5 3277 3318 3293
7195 6 3277 3318 3319
7196 6 3293 3318 3319
7197 7 3030 3029 3099
7198 7 3030 3029 3235
7199 7 3030 3029 3336
7200 7 3099 3029 3235
7201 7 3099 3029 3336
7202 7 3235 3029 3336
7203 8 3029 3030 3057
7204 8 3029 3030 3087
7205 8 3029 3030 3199
7206 8 3057 3030 3087
7207 8 3057 3030 3199
7208 8 3087 3030 3199
7209 7 3030 3057 3058
7210 7 3030 3057 3290
7211 7 3030 3057 3337
7212 7 3058 3057 3290
7213 7 3058 3057 3337
7214 7 3290 3057 3337
7215 1 3057 3058 3059
7216 2 3058 3059 3060
7217 3 3058 3059 3111
7218 2 3060 3059 3111
7219 4 3059 3060 3061
7220 4 3059 3060 3112
7221 5 3061 3060 3112
7222 5 2155 3061 3060
7223 6 2155 3061 3062
7224 6 3060 3061 3062
7225 7 3030 3087 3088
7226 7 3030 3087 3111
7227 7 3030 3087 3188
7228 7 3088 3087 3111
7229 7 3088 3087 3188
7230 7 3111 3087 3188
7231 1 3087 3088 3089
7232 2 3088 3089 3090
7233 3 3088 3089 3099
7234 2 3090 3089 3099
7235 4 3089 3090 3091
7236 4 3089 3090 3100
7237 5 3091 3090 3100
7238 5 1284 3091 3090
7239 6 1284 3091 3092
7240 6 3090 3091 3092
7241 1 3029 3099 3089
7242 5 1281 3100 3090
7243 6 1281 3100 3101
7244 6 3090 3100 3101
7245 1 3059 3111 3087
7246 5 2149 3112 3060
7247 6 2149 3112 3113
7248 6 3060 3112 3113
7249 1 3087 3188 3189
7250 2 3188 3189 3190
7251 3 3188 3189 3226
7252 2 3190 3189 3226
7253 4 3189 3190 3191
7254 4 3189 3190 3227
7255 5 3191 3190 3227
7256 6 3190 3191 3192
7257 5 3190 3191 3248
7258 6 3192 3191 3248
7259 7 3030 3199 3200
7260 7 3030 3199 3226
7261 7 3030 3199 3314
7262 7 3200 3199 3226
7263 7 3200 3199 3314
7264 7 3226 3199 3314
7265 1 3199 3200 3201
7266 2 3200 3201 3202
7267 3 3200 3201 3235
7268 2 3202 3201 3235
7269 4 3201 3202 3203
7270 4 3201 3202 3236
7271 5 3203 3202 3236
7272 6 3202 3203 3204
7273 5 3202 3203 3254
7274 6 3204 3203 3254
7275 1 3189 3226 3199
7276 5 3145 3227 3190
7277 6 3145 3227 3228
7278 6 3190 3227 3228
7279 1 3029 3235 3201
7280 5 3171 3236 3202
7281 6 3171 3236 3237
7282 6 3202 3236 3237
7283 1 3029 3336 3357
7284 1 3057 3337 3357
7285 3 3336 3357 3337
7286 2 3336 3357 3358
7287 2 3337 3357 3358
7288 4 3357 3358 3359
7289 4 3357 3358 3361
7290 5 3359 3358 3361
7291 5 2700 3359 3358
7292 6 2700 3359 3360
7293 6 3358 3359 3360
7294 5 2595 3361 3358
7295 6 2595 3361 3362
7296 6 3358 3361 3362

Dihedrals

1 1 17 1 2 3
2 1 17 1 2 14
3 2 1 2 3 4
4 2 1 2 3 15
5 2 14 2 3 4
6 2 14 2 3 15
7 1 1 2 14 19
8 1 3 2 14 19
9 3 2 3 4 5
10 3 2 3 4 1831
11 3 15 3 4 5
12 3 15 3 4 1831
13 3 2 3 15 16
14 3 2 3 15 1813
15 3 4 3 15 16
16 3 4 3 15 1813
17 3 3 4 1831 1812
18 3 3 4 1831 1832
19 3 5 4 1831 1812
20 3 5 4 1831 1832
21 3 3 15 1813 1812
22 3 3 15 1813 1814
23 3 16 15 1813 1812
24 3 16 15 1813 1814
25 1 19 21 22 23
26 1 19 21 22 31
27 2 21 22 23 24
28 2 21 22 23 32
29 2 31 22 23 24
30 2 31 22 23 32
31 1 21 22 31 37
32 1 23 22 31 37
33 3 22 23 24 25
34 3 22 23 24 995
35 3 32 23 24 25
36 3 32 23 24 995
37 3 22 23 32 33
38 3 22 23 32 947
39 3 24 23 32 33
40 3 24 23 32 947
41 3 23 24 995 946
42 3 23 24 995 996
43 3 25 24 995 946
44 3 25 24 995 996
45 3 23 32 947 946
46 3 23 32 947 948
47 3 33 32 947 946
48 3 33 32 947 948
49 1 37 41 42 43
50 1 37 41 42 158
51 2 41 42 43 44
52 2 41 42 43 159
53 2 158 42 43 44
54 2 158 42 43 159
55 1 41 42 158 17
56 1 43 42 158 17
57 3 42 43 44 45
58 3 42 43 44 819
59 3 159 43 44 45
60 3 159 43 44 819
61 3 42 43 159 160
62 3 42 43 159 811
63 3 44 43 159 160
64 3 44 43 159 811
65 3 43 44 819 810
66 3 43 44 819 820
67 3 45 44 819 810
68 3 45 44 819 820
69 3 43 159 811 810
70 3 43 159 811 812
71 3 160 159 811 810
72 3 160 159 811 812
73 1 179 180 181 182
74 1 179 180 181 282
75 2 180 181 182 183
76 2 180 181 182 283
77 2 282 181 182 183
78 2 282 181 182 283
79 1 180 181 282 19
80 1 182 181 282 19
81 3 181 182 183 184
82 3 181 182 183 256
83 3 283 182 183 184
84 3 283 182 183 256
85 3 181 182 283 218
86 3 181 182 283 284
87 3 183 182 283 218
88 3 183 182 283 284
89 3 182 183 256 217
90 3 182 183 256 257
91 3 184 183 256 217
92 3 184 183 256 257
93 1 17 195 196 197
94 1 17 195 196 288
95 2 195 196 197 198
96 2 195 196 197 289
97 2 288 196 197 198
98 2 288 196 197 289
99 1 195 196 288 179
100 1 197 196 288 179
101 3 196 197 198 199
102 3 196 197 198 271
103 3 289 197 198 199
104 3 289 197 198 271
105 3 196 197 289 229
106 3 196 197 289 290
107 3 198 197 289 229
108 3 198 197 289 290
109 3 197 198 271 228
110 3 197 198 271 272
111 3 199 198 271 228
112 3 199 198 271 272
113 1 179 312 313 314
114 1 179 312 313 352
115 2 312 313 314 315
116 2 312 313 314 353
117 2 352 313 314 315
118 2 352 313 314 353
119 1 312 313 352 37
120 1 314 313 352 37
121 3 313 314 315 316
122 3 313 314 315 344
123 3 353 314 315 316
124 3 353 314 315 344
125 3 313 314 353 320
126 3 313 314 353 354
127 3 315 314 353 320
128 3 315 314 353 354
129 3 314 315 344 319
130 3 314 315 344 345
131 3 316 315 344 319
132 3 316 315 344 345
133 1 83 317 318 319
134 1 83 317 318 343
135 2 317 318 319 320
136 2 317 318 319 344
137 2 343 318 319 320
138 2 343 318 319 344
139 1 317 318 343 237
140 1 319 318 343 237
141 3 318 319 320 321
142 3 318 319 320 353
143 3 344 319 320 321
144 3 344 319 320 353
145 3 318 319 344 315
146 3 318 319 344 345
147 3 320 319 344 315
148 3 320 319 344 345
149 3 319 320 353 314
150 3 319 320 353 354
151 3 321 320 353 314
152 3 321 320 353 354
153 1 70 72 73 74
154 1 70 72 73 128
155 2 72 73 74 75
156 2 72 73 74 129
157 2 128 73 74 75
158 2 128 73 74 129
159 1 72 73 128 83
160 1 74 73 128 83
161 3 73 74 75 76
162 3 73 74 75 821
163 3 129 74 75 76
164 3 129 74 75 821
165 3 73 74 129 130
166 3 73 74 129 803
167 3 75 74 129 130
168 3 75 74 129 803
169 3 74 75 821 802
170 3 74 75 821 822
171 3 76 75 821 802
172 3 76 75 821 822
173 1 83 84 85 86
174 1 83 84 85 149
175 2 84 85 86 87
176 2 84 85 86 150
177 2 149 85 86 87
178 2 149 85 86 150
179 1 84 85 149 113
180 1 86 85 149 113
181 3 85 86 87 88
182 3 85 86 87 1257
183 3 150 86 87 88
184 3 150 86 87 1257
185 3 85 86 150 151
186 3 85 86 150 1255
187 3 87 86 150 151
188 3 87 86 150 1255
189 3 86 87 1257 1254
190 3 86 87 1257 1258
191 3 88 87 1257 1254
192 3 88 87 1257 1258
193 1 113 114 115 116
194 1 113 114 115 134
195 2 114 115 116 117
196 2 114 115 116 135
197 2 134 115 116 117
198 2 134 115 116 135
199 1 114 115 134 70
200 1 116 115 134 70
201 3 115 116 117 1711
202 3 115 116 117 118
203 3 135 116 117 1711
204 3 135 116 117 118
205 3 115 116 135 1700
206 3 115 116 135 136
207 3 117 116 135 1700
208 3 117 116 135 136
209 3 74 129 803 802
210 3 74 129 803 804
211 3 130 129 803 802
212 3 130 129 803 804
213 3 86 150 1255 1254
214 3 86 150 1255 1256
215 3 151 150 1255 1254
216 3 151 150 1255 1256
217 1 113 210 211 212
218 1 113 210 211 249
219 2 210 211 212 213
220 2 210 211 212 250
221 2 249 211 212 213
222 2 249 211 212 250
223 1 210 211 249 237
224 1 212 211 249 237
225 3 211 212 213 214
226 3 211 212 213 274
227 3 250 212 213 214
228 3 250 212 213 274
229 3 211 212 250 171
230 3 211 212 250 251
231 3 213 212 250 171
232 3 213 212 250 251
233 3 212 213 274 170
234 3 212 213 274 275
235 3 214 213 274 170
236 3 214 213 274 275
237 1 237 238 239 240
238 1 237 238 239 261
239 2 238 239 240 241
240 2 238 239 240 262
241 2 261 239 240 241
242 2 261 239 240 262
243 1 238 239 261 70
244 1 240 239 261 70
245 3 239 240 241 242
246 3 239 240 241 295
247 3 262 240 241 242
248 3 262 240 241 295
249 3 239 240 262 193
250 3 239 240 262 263
251 3 241 240 262 193
252 3 241 240 262 263
253 3 240 241 295 192
254 3 240 241 295 296
255 3 242 241 295 192
256 3 242 241 295 296
257 1 77 78 79 80
258 1 77 78 79 152
259 2 78 79 80 81
260 2 78 79 80 153
261 2 152 79 80 81
262 2 152 79 80 153
263 1 78 79 152 101
264 1 80 79 152 101
265 3 79 80 81 82
266 3 79 80 81 1259
267 3 153 80 81 82
268 3 153 80 81 1259
269 3 79 80 153 154
270 3 79 80 153 1251
271 3 81 80 153 154
272 3 81 80 153 1251
273 3 80 81 1259 1250
274 3 80 81 1259 1260
275 3 82 81 1259 1250
276 3 82 81 1259 1260
277 1 101 102 103 104
278 1 101 102 103 137
279 2 102 103 104 105
280 2 102 103 104 138
281 2 137 103 104 105
282 2 137 103 104 138
283 1 102 103 137 59
284 1 104 103 137 59
285 3 103 104 105 106
286 3 103 104 105 2119
287 3 138 104 105 106
288 3 138 104 105 2119
289 3 103 104 138 139
290 3 103 104 138 2115
291 3 105 104 138 139
292 3 105 104 138 2115
293 3 104 105 2119 2114
294 3 104 105 2119 2120
295 3 106 105 2119 2114
296 3 106 105 2119 2120
297 3 104 138 2115 2114
298 3 104 138 2115 2116
299 3 139 138 2115 2114
300 3 139 138 2115 2116
301 3 80 153 1251 1250
302 3 80 153 1251 1252
303 3 154 153 1251 1250
304 3 154 153 1251 1252
305 1 101 215 216 217
306 1 101 215 216 255
307 2 215 216 217 218
308 2 215 216 217 256
309 2 255 216 217 218
310 2 255 216 217 256
311 1 215 216 255 243
312 1 217 216 255 243
313 3 216 217 218 219
314 3 216 217 218 283
315 3 256 217 218 219
316 3 256 217 218 283
317 3 216 217 256 183
318 3 216 217 256 257
319 3 218 217 256 183
320 3 218 217 256 257
321 3 217 218 283 182
322 3 217 218 283 284
323 3 219 218 283 182
324 3 219 218 283 284
325 1 243 244 245 246
326 1 243 244 245 264
327 2 244 245 246 247
328 2 244 245 246 265
329 2 264 245 246 247
330 2 264 245 246 265
331 1 244 245 264 59
332 1 246 245 264 59
333 3 245 246 247 248
334 3 245 246 247 292
335 3 265 246 247 248
336 3 265 246 247 292
337 3 245 246 265 188
338 3 245 246 265 266
339 3 247 246 265 188
340 3 247 246 265 266
341 3 246 247 292 187
342 3 246 247 292 293
343 3 248 247 292 187
344 3 248 247 292 293
345 1 59 367 385 370
346 1 59 367 385 386
347 1 77 370 385 367
348 1 77 370 385 386
349 2 367 385 386 387
350 2 367 385 386 395
351 2 370 385 386 387
352 2 370 385 386 395
353 3 385 386 387 583
354 3 385 386 387 388
355 3 395 386 387 583
356 3 395 386 387 388
357 3 385 386 395 468
358 3 385 386 395 396
359 3 387 386 395 468
360 3 387 386 395 396
361 1 167 297 298 299
362 1 167 297 298 358
363 2 297 298 299 300
364 2 297 298 299 359
365 2 358 298 299 300
366 2 358 298 299 359
367 1 297 298 358 38
368 1 299 298 358 38
369 3 298 299 300 301
370 3 298 299 300 341
371 3 359 299 300 301
372 3 359 299 300 341
373 3 298 299 359 330
374 3 298 299 359 360
375 3 300 299 359 330
376 3 300 299 359 360
377 3 299 300 341 329
378 3 299 300 341 342
379 3 301 300 341 329
380 3 301 300 341 342
381 1 77 327 328 329
382 1 77 327 328 340
383 2 327 328 329 330
384 2 327 328 329 341
385 2 340 328 329 330
386 2 340 328 329 341
387 1 327 328 340 243
388 1 329 328 340 243
389 3 328 329 330 331
390 3 328 329 330 359
391 3 341 329 330 331
392 3 341 329 330 359
393 3 328 329 341 300
394 3 328 329 341 342
395 3 330 329 341 300
396 3 330 329 341 342
397 3 329 330 359 299
398 3 329 330 359 360
399 3 331 330 359 299
400 3 331 330 359 360
401 1 39 26 27 28
402 1 39 26 27 34
403 2 26 27 28 29
404 2 26 27 28 35
405 2 34 27 28 29
406 2 34 27 28 35
407 1 26 27 34 38
408 1 28 27 34 38
409 3 27 28 29 30
410 3 27 28 29 992
411 3 35 28 29 30
412 3 35 28 29 992
413 3 27 28 35 36
414 3 27 28 35 941
415 3 29 28 35 36
416 3 29 28 35 941
417 3 28 29 992 940
418 3 28 29 992 993
419 3 30 29 992 940
420 3 30 29 992 993
421 3 28 35 941 940
422 3 28 35 941 942
423 3 36 35 941 940
424 3 36 35 941 942
425 1 167 168 169 170
426 1 167 168 169 273
427 2 168 169 170 171
428 2 168 169 170 274
429 2 273 169 170 171
430 2 273 169 170 274
431 1 168 169 273 39
432 1 170 169 273 39
433 3 169 170 171 172
434 3 169 170 171 250
435 3 274 170 171 172
436 3 274 170 171 250
437 3 169 170 274 213
438 3 169 170 274 275
439 3 171 170 274 213
440 3 171 170 274 275
441 3 170 171 250 212
442 3 170 171 250 251
443 3 172 171 250 212
444 3 172 171 250 251
445 1 57 200 201 202
446 1 57 200 201 285
447 2 200 201 202 203
448 2 200 201 202 286
449 2 285 201 202 203
450 2 285 201 202 286
451 1 200 201 285 167
452 1 202 201 285 167
453 3 201 202 203 204
454 3 201 202 203 268
455 3 286 202 203 204
456 3 286 202 203 268
457 3 201 202 286 235
458 3 201 202 286 287
459 3 203 202 286 235
460 3 203 202 286 287
461 3 202 203 268 234
462 3 202 203 268 269
463 3 204 203 268 234
464 3 204 203 268 269
465 1 38 361 377 371
466 1 38 361 377 378
467 1 57 364 417 376
468 1 57 364 417 418
469 1 57 371 377 361
470 1 57 371 377 378
471 1 39 376 417 364
472 1 39 376 417 418
473 2 361 377 378 379
474 2 361 377 378 397
475 2 371 377 378 379
476 2 371 377 378 397
477 3 377 378 379 553
478 3 377 378 379 380
479 3 397 378 379 553
480 3 397 378 379 380
481 3 377 378 397 499
482 3 377 378 397 398
483 3 379 378 397 499
484 3 379 378 397 398
485 2 364 417 418 419
486 2 364 417 418 423
487 2 376 417 418 419
488 2 376 417 418 423
489 3 417 418 419 1834
490 3 417 418 419 420
491 3 423 418 419 1834
492 3 423 418 419 420
493 3 417 418 423 1801
494 3 417 418 423 424
495 3 419 418 423 1801
496 3 419 418 423 424
497 1 441 425 426 427
498 1 441 425 426 438
499 2 425 426 427 428
500 2 425 426 427 439
501 2 438 426 427 428
502 2 438 426 427 439
503 1 425 426 438 443
504 1 427 426 438 443
505 3 426 427 428 429
506 3 426 427 428 2255
507 3 439 427 428 429
508 3 439 427 428 2255
509 3 426 427 439 440
510 3 426 427 439 2237
511 3 428 427 439 440
512 3 428 427 439 2237
513 3 427 428 2255 2236
514 3 427 428 2255 2256
515 3 429 428 2255 2236
516 3 429 428 2255 2256
517 3 427 439 2237 2236
518 3 427 439 2237 2238
519 3 440 439 2237 2236
520 3 440 439 2237 2238
521 1 443 445 446 447
522 1 443 445 446 455
523 2 445 446 447 448
524 2 445 446 447 456
525 2 455 446 447 448
526 2 455 446 447 456
527 1 445 446 455 461
528 1 447 446 455 461
529 3 446 447 448 449
530 3 446 447 448 1419
531 3 456 447 448 449
532 3 456 447 448 1419
533 3 446 447 456 457
534 3 446 447 456 1371
535 3 448 447 456 457
536 3 448 447 456 1371
537 3 447 448 1419 1370
538 3 447 448 1419 1420
539 3 449 448 1419 1370
540 3 449 448 1419 1420
541 3 447 456 1371 1370
542 3 447 456 1371 1372
543 3 457 456 1371 1370
544 3 457 456 1371 1372
545 1 461 465 466 467
546 1 461 465 466 582
547 2 465 466 467 468
548 2 465 466 467 583
549 2 582 466 467 468
550 2 582 466 467 583
551 1 465 466 582 441
552 1 467 466 582 441
553 3 466 467 468 469
554 3 466 467 468 395
555 3 583 467 468 469
556 3 583 467 468 395
557 3 466 467 583 584
558 3 466 467 583 387
559 3 468 467 583 584
560 3 468 467 583 387
561 3 467 468 395 386
562 3 467 468 395 396
563 3 469 468 395 386
564 3 469 468 395 396
565 3 467 583 387 386
566 3 467 583 387 388
567 3 584 583 387 386
568 3 584 583 387 388
569 1 603 604 605 606
570 1 603 604 605 706
571 2 604 605 606 607
572 2 604 605 606 707
573 2 706 605 606 607
574 2 706 605 606 707
575 1 604 605 706 443
576 1 606 605 706 443
577 3 605 606 607 608
578 3 605 606 607 680
579 3 707 606 607 608
580 3 707 606 607 680
581 3 605 606 707 642
582 3 605 606 707 708
583 3 607 606 707 642
584 3 607 606 707 708
585 3 606 607 680 641
586 3 606 607 680 681
587 3 608 607 680 641
588 3 608 607 680 681
589 1 441 619 620 621
590 1 441 619 620 712
591 2 619 620 621 622
592 2 619 620 621 713
593 2 712 620 621 622
594 2 712 620 621 713
595 1 619 620 712 603
596 1 621 620 712 603
597 3 620 621 622 623
598 3 620 621 622 695
599 3 713 621 622 623
600 3 713 621 622 695
601 3 620 621 713 653
602 3 620 621 713 714
603 3 622 621 713 653
604 3 622 621 713 714
605 3 621 622 695 652
606 3 621 622 695 696
607 3 623 622 695 652
608 3 623 622 695 696
609 1 603 736 737 738
610 1 603 736 737 776
611 2 736 737 738 739
612 2 736 737 738 777
613 2 776 737 738 739
614 2 776 737 738 777
615 1 736 737 776 461
616 1 738 737 776 461
617 3 737 738 739 740
618 3 737 738 739 768
619 3 777 738 739 740
620 3 777 738 739 768
621 3 737 738 777 744
622 3 737 738 777 778
623 3 739 738 777 744
624 3 739 738 777 778
625 3 738 739 768 743
626 3 738 739 768 769
627 3 740 739 768 743
628 3 740 739 768 769
629 1 507 741 742 743
630 1 507 741 742 767
631 2 741 742 743 744
632 2 741 742 743 768
633 2 767 742 743 744
634 2 767 742 743 768
635 1 741 742 767 661
636 1 743 742 767 661
637 3 742 743 744 745
638 3 742 743 744 777
639 3 768 743 744 745
640 3 768 743 744 777
641 3 742 743 768 739
642 3 742 743 768 769
643 3 744 743 768 739
644 3 744 743 768 769
645 3 743 744 777 738
646 3 743 744 777 778
647 3 745 744 777 738
648 3 745 744 777 778
649 1 494 496 497 498
650 1 494 496 497 552
651 2 496 497 498 499
652 2 496 497 498 553
653 2 552 497 498 499
654 2 552 497 498 553
655 1 496 497 552 507
656 1 498 497 552 507
657 3 497 498 499 500
658 3 497 498 499 397
659 3 553 498 499 500
660 3 553 498 499 397
661 3 497 498 553 554
662 3 497 498 553 379
663 3 499 498 553 554
664 3 499 498 553 379
665 3 498 499 397 378
666 3 498 499 397 398
667 3 500 499 397 378
668 3 500 499 397 398
669 1 507 508 509 510
670 1 507 508 509 573
671 2 508 509 510 511
672 2 508 509 510 574
673 2 573 509 510 511
674 2 573 509 510 574
675 1 508 509 573 537
676 1 510 509 573 537
677 3 509 510 511 512
678 3 509 510 511 1681
679 3 574 510 511 512
680 3 574 510 511 1681
681 3 509 510 574 575
682 3 509 510 574 1679
683 3 511 510 574 575
684 3 511 510 574 1679
685 3 510 511 1681 1678
686 3 510 511 1681 1682
687 3 512 511 1681 1678
688 3 512 511 1681 1682
689 1 537 538 539 540
690 1 537 538 539 558
691 2 538 539 540 541
692 2 538 539 540 559
693 2 558 539 540 541
694 2 558 539 540 559
695 1 538 539 558 494
696 1 540 539 558 494
697 3 539 540 541 2135
698 3 539 540 541 542
699 3 559 540 541 2135
700 3 559 540 541 542
701 3 539 540 559 2124
702 3 539 540 559 560
703 3 541 540 559 2124
704 3 541 540 559 560
705 3 498 553 379 378
706 3 498 553 379 380
707 3 554 553 379 378
708 3 554 553 379 380
709 3 510 574 1679 1678
710 3 510 574 1679 1680
711 3 575 574 1679 1678
712 3 575 574 1679 1680
713 1 537 634 635 636
714 1 537 634 635 673
715 2 634 635 636 637
716 2 634 635 636 674
717 2 673 635 636 637
718 2 673 635 636 674
719 1 634 635 673 661
720 1 636 635 673 661
721 3 635 636 637 638
722 3 635 636 637 698
723 3 674 636 637 638
724 3 674 636 637 698
725 3 635 636 674 595
726 3 635 636 674 675
727 3 637 636 674 595
728 3 637 636 674 675
729 3 636 637 698 594
730 3 636 637 698 699
731 3 638 637 698 594
732 3 638 637 698 699
733 1 661 662 663 664
734 1 661 662 663 685
735 2 662 663 664 665
736 2 662 663 664 686
737 2 685 663 664 665
738 2 685 663 664 686
739 1 662 663 685 494
740 1 664 663 685 494
741 3 663 664 665 666
742 3 663 664 665 719
743 3 686 664 665 666
744 3 686 664 665 719
745 3 663 664 686 617
746 3 663 664 686 687
747 3 665 664 686 617
748 3 665 664 686 687
749 3 664 665 719 616
750 3 664 665 719 720
751 3 666 665 719 616
752 3 666 665 719 720
753 1 501 502 503 504
754 1 501 502 503 576
755 2 502 503 504 505
756 2 502 503 504 577
757 2 576 503 504 505
758 2 576 503 504 577
759 1 502 503 576 525
760 1 504 503 576 525
761 3 503 504 505 506
762 3 503 504 505 1683
763 3 577 504 505 506
764 3 577 504 505 1683
765 3 503 504 577 578
766 3 503 504 577 1675
767 3 505 504 577 578
768 3 505 504 577 1675
769 3 504 505 1683 1674
770 3 504 505 1683 1684
771 3 506 505 1683 1674
772 3 506 505 1683 1684
773 1 525 526 527 528
774 1 525 526 527 561
775 2 526 527 528 529
776 2 526 527 528 562
777 2 561 527 528 529
778 2 561 527 528 562
779 1 526 527 561 483
780 1 528 527 561 483
781 3 527 528 529 530
782 3 527 528 529 2543
783 3 562 528 529 530
784 3 562 528 529 2543
785 3 527 528 562 563
786 3 527 528 562 2539
787 3 529 528 562 563
788 3 529 528 562 2539
789 3 528 529 2543 2538
790 3 528 529 2543 2544
791 3 530 529 2543 2538
792 3 530 529 2543 2544
793 3 528 562 2539 2538
794 3 528 562 2539 2540
795 3 563 562 2539 2538
796 3 563 562 2539 2540
797 3 504 577 1675 1674
798 3 504 577 1675 1676
799 3 578 577 1675 1674
800 3 578 577 1675 1676
801 1 525 639 640 641
802 1 525 639 640 679
803 2 639 640 641 642
804 2 639 640 641 680
805 2 679 640 641 642
806 2 679 640 641 680
807 1 639 640 679 667
808 1 641 640 679 667
809 3 640 641 642 643
810 3 640 641 642 707
811 3 680 641 642 643
812 3 680 641 642 707
813 3 640 641 680 607
814 3 640 641 680 681
815 3 642 641 680 607
816 3 642 641 680 681
817 3 641 642 707 606
818 3 641 642 707 708
819 3 643 642 707 606
820 3 643 642 707 708
821 1 667 668 669 670
822 1 667 668 669 688
823 2 668 669 670 671
824 2 668 669 670 689
825 2 688 669 670 671
826 2 688 669 670 689
827 1 668 669 688 483
828 1 670 669 688 483
829 3 669 670 671 672
830 3 669 670 671 716
831 3 689 670 671 672
832 3 689 670 671 716
833 3 669 670 689 612
834 3 669 670 689 690
835 3 671 670 689 612
836 3 671 670 689 690
837 3 670 671 716 611
838 3 670 671 716 717
839 3 672 671 716 611
840 3 672 671 716 717
841 1 483 791 809 794
842 1 483 791 809 810
843 1 501 794 809 791
844 1 501 794 809 810
845 2 791 809 810 811
846 2 791 809 810 819
847 2 794 809 810 811
848 2 794 809 810 819
849 3 809 810 811 159
850 3 809 810 811 812
851 3 819 810 811 159
852 3 819 810 811 812
853 3 809 810 819 44
854 3 809 810 819 820
855 3 811 810 819 44
856 3 811 810 819 820
857 1 591 721 722 723
858 1 591 721 722 782
859 2 721 722 723 724
860 2 721 722 723 783
861 2 782 722 723 724
862 2 782 722 723 783
863 1 721 722 782 462
864 1 723 722 782 462
865 3 722 723 724 725
866 3 722 723 724 765
867 3 783 723 724 725
868 3 783 723 724 765
869 3 722 723 783 754
870 3 722 723 783 784
871 3 724 723 783 754
872 3 724 723 783 784
873 3 723 724 765 753
874 3 723 724 765 766
875 3 725 724 765 753
876 3 725 724 765 766
877 1 501 751 752 753
878 1 501 751 752 764
879 2 751 752 753 754
880 2 751 752 753 765
881 2 764 752 753 754
882 2 764 752 753 765
883 1 751 752 764 667
884 1 753 752 764 667
885 3 752 753 754 755
886 3 752 753 754 783
887 3 765 753 754 755
888 3 765 753 754 783
889 3 752 753 765 724
890 3 752 753 765 766
891 3 754 753 765 724
892 3 754 753 765 766
893 3 753 754 783 723
894 3 753 754 783 784
895 3 755 754 783 723
896 3 755 754 783 784
897 1 463 450 451 452
898 1 463 450 451 458
899 2 450 451 452 453
900 2 450 451 452 459
901 2 458 451 452 453
902 2 458 451 452 459
903 1 450 451 458 462
904 1 452 451 458 462
905 3 451 452 453 454
906 3 451 452 453 1416
907 3 459 452 453 454
908 3 459 452 453 1416
909 3 451 452 459 460
910 3 451 452 459 1365
911 3 453 452 459 460
912 3 453 452 459 1365
913 3 452 453 1416 1364
914 3 452 453 1416 1417
915 3 454 453 1416 1364
916 3 454 453 1416 1417
917 3 452 459 1365 1364
918 3 452 459 1365 1366
919 3 460 459 1365 1364
920 3 460 459 1365 1366
921 1 591 592 593 594
922 1 591 592 593 697
923 2 592 593 594 595
924 2 592 593 594 698
925 2 697 593 594 595
926 2 697 593 594 698
927 1 592 593 697 463
928 1 594 593 697 463
929 3 593 594 595 596
930 3 593 594 595 674
931 3 698 594 595 596
932 3 698 594 595 674
933 3 593 594 698 637
934 3 593 594 698 699
935 3 595 594 698 637
936 3 595 594 698 699
937 3 594 595 674 636
938 3 594 595 674 675
939 3 596 595 674 636
940 3 596 595 674 675
941 1 481 624 625 626
942 1 481 624 625 709
943 2 624 625 626 627
944 2 624 625 626 710
945 2 709 625 626 627
946 2 709 625 626 710
947 1 624 625 709 591
948 1 626 625 709 591
949 3 625 626 627 628
950 3 625 626 627 692
951 3 710 626 627 628
952 3 710 626 627 692
953 3 625 626 710 659
954 3 625 626 710 711
955 3 627 626 710 659
956 3 627 626 710 711
957 3 626 627 692 658
958 3 626 627 692 693
959 3 628 627 692 658
960 3 628 627 692 693
961 1 462 785 801 795
962 1 462 785 801 802
963 1 481 788 841 800
964 1 481 788 841 842
965 1 481 795 801 785
966 1 481 795 801 802
967 1 463 800 841 788
968 1 463 800 841 842
969 2 785 801 802 803
970 2 785 801 802 821
971 2 795 801 802 803
972 2 795 801 802 821
973 3 801 802 803 129
974 3 801 802 803 804
975 3 821 802 803 129
976 3 821 802 803 804
977 3 801 802 821 75
978 3 801 802 821 822
979 3 803 802 821 75
980 3 803 802 821 822
981 2 788 841 842 843
982 2 788 841 842 847
983 2 800 841 842 843
984 2 800 841 842 847
985 3 841 842 843 2258
986 3 841 842 843 844
987 3 847 842 843 2258
988 3 847 842 843 844
989 3 841 842 847 2225
990 3 841 842 847 848
991 3 843 842 847 2225
992 3 843 842 847 848
993 1 63 65 66 67
994 1 63 65 66 125
995 2 65 66 67 68
996 2 65 66 67 126
997 2 125 66 67 68
998 2 125 66 67 126
999 1 65 66 125 95
1000 1 67 66 125 95
1001 3 66 67 68 69
1002 3 66 67 68 823
1003 3 126 67 68 69
1004 3 126 67 68 823
1005 3 66 67 126 127
1006 3 66 67 126 807
1007 3 68 67 126 127
1008 3 68 67 126 807
1009 3 67 68 823 806
1010 3 67 68 823 824
1011 3 69 68 823 806
1012 3 69 68 823 824
1013 1 95 96 97 98
1014 1 95 96 97 146
1015 2 96 97 98 99
1016 2 96 97 98 147
1017 2 146 97 98 99
1018 2 146 97 98 147
1019 1 96 97 146 107
1020 1 98 97 146 107
1021 3 97 98 99 880
1022 3 97 98 99 100
1023 3 147 98 99 880
1024 3 147 98 99 100
1025 3 97 98 147 872
1026 3 97 98 147 148
1027 3 99 98 147 872
1028 3 99 98 147 148
1029 1 107 108 109 110
1030 1 107 108 109 140
1031 2 108 109 110 111
1032 2 108 109 110 141
1033 2 140 109 110 111
1034 2 140 109 110 141
1035 1 108 109 140 63
1036 1 110 109 140 63
1037 3 109 110 111 112
1038 3 109 110 111 2117
1039 3 141 110 111 112
1040 3 141 110 111 2117
1041 3 109 110 141 142
1042 3 109 110 141 2111
1043 3 111 110 141 142
1044 3 111 110 141 2111
1045 3 110 111 2117 2110
1046 3 110 111 2117 2118
1047 3 112 111 2117 2110
1048 3 112 111 2117 2118
1049 3 67 126 807 806
1050 3 67 126 807 808
1051 3 127 126 807 806
1052 3 127 126 807 808
1053 3 110 141 2111 2110
1054 3 110 141 2111 2112
1055 3 142 141 2111 2110
1056 3 142 141 2111 2112
1057 1 107 205 206 207
1058 1 107 205 206 252
1059 2 205 206 207 208
1060 2 205 206 207 253
1061 2 252 206 207 208
1062 2 252 206 207 253
1063 1 205 206 252 225
1064 1 207 206 252 225
1065 3 206 207 208 209
1066 3 206 207 208 277
1067 3 253 207 208 209
1068 3 253 207 208 277
1069 3 206 207 253 165
1070 3 206 207 253 254
1071 3 208 207 253 165
1072 3 208 207 253 254
1073 3 207 208 277 164
1074 3 207 208 277 278
1075 3 209 208 277 164
1076 3 209 208 277 278
1077 1 225 226 227 228
1078 1 225 226 227 270
1079 2 226 227 228 229
1080 2 226 227 228 271
1081 2 270 227 228 229
1082 2 270 227 228 271
1083 1 226 227 270 63
1084 1 228 227 270 63
1085 3 227 228 229 230
1086 3 227 228 229 289
1087 3 271 228 229 230
1088 3 271 228 229 289
1089 3 227 228 271 198
1090 3 227 228 271 272
1091 3 229 228 271 198
1092 3 229 228 271 272
1093 3 228 229 289 197
1094 3 228 229 289 290
1095 3 230 229 289 197
1096 3 230 229 289 290
1097 1 173 302 303 304
1098 1 173 302 303 355
1099 2 302 303 304 305
1100 2 302 303 304 356
1101 2 355 303 304 305
1102 2 355 303 304 356
1103 1 302 303 355 46
1104 1 304 303 355 46
1105 3 303 304 305 306
1106 3 303 304 305 338
1107 3 356 304 305 306
1108 3 356 304 305 338
1109 3 303 304 356 335
1110 3 303 304 356 357
1111 3 305 304 356 335
1112 3 305 304 356 357
1113 3 304 305 338 334
1114 3 304 305 338 339
1115 3 306 305 338 334
1116 3 306 305 338 339
1117 1 95 332 333 334
1118 1 95 332 333 337
1119 2 332 333 334 335
1120 2 332 333 334 338
1121 2 337 333 334 335
1122 2 337 333 334 338
1123 1 332 333 337 225
1124 1 334 333 337 225
1125 3 333 334 335 336
1126 3 333 334 335 356
1127 3 338 334 335 336
1128 3 338 334 335 356
1129 3 333 334 338 305
1130 3 333 334 338 339
1131 3 335 334 338 305
1132 3 335 334 338 339
1133 3 334 335 356 304
1134 3 334 335 356 357
1135 3 336 335 356 304
1136 3 336 335 356 357
1137 1 46 48 49 50
1138 1 46 48 49 155
1139 2 48 49 50 51
1140 2 48 49 50 156
1141 2 155 49 50 51
1142 2 155 49 50 156
1143 1 48 49 155 56
1144 1 50 49 155 56
1145 3 49 50 51 52
1146 3 49 50 51 817
1147 3 156 50 51 52
1148 3 156 50 51 817
1149 3 49 50 156 157
1150 3 49 50 156 815
1151 3 51 50 156 157
1152 3 51 50 156 815
1153 3 50 51 817 814
1154 3 50 51 817 818
1155 3 52 51 817 814
1156 3 52 51 817 818
1157 3 50 156 815 814
1158 3 50 156 815 816
1159 3 157 156 815 814
1160 3 157 156 815 816
1161 1 173 174 175 176
1162 1 173 174 175 279
1163 2 174 175 176 177
1164 2 174 175 176 280
1165 2 279 175 176 177
1166 2 279 175 176 280
1167 1 174 175 279 58
1168 1 176 175 279 58
1169 3 175 176 177 178
1170 3 175 176 177 259
1171 3 280 176 177 178
1172 3 280 176 177 259
1173 3 175 176 280 223
1174 3 175 176 280 281
1175 3 177 176 280 223
1176 3 177 176 280 281
1177 3 176 177 259 222
1178 3 176 177 259 260
1179 3 178 177 259 222
1180 3 178 177 259 260
1181 1 56 190 191 192
1182 1 56 190 191 294
1183 2 190 191 192 193
1184 2 190 191 192 295
1185 2 294 191 192 193
1186 2 294 191 192 295
1187 1 190 191 294 173
1188 1 192 191 294 173
1189 3 191 192 193 194
1190 3 191 192 193 262
1191 3 295 192 193 194
1192 3 295 192 193 262
1193 3 191 192 295 241
1194 3 191 192 295 296
1195 3 193 192 295 241
1196 3 193 192 295 296
1197 3 192 193 262 240
1198 3 192 193 262 263
1199 3 194 193 262 240
1200 3 194 193 262 263
1201 1 56 363 413 375
1202 1 56 363 413 414
1203 1 58 366 405 373
1204 1 58 366 405 406
1205 1 46 373 405 366
1206 1 46 373 405 406
1207 1 58 375 413 363
1208 1 58 375 413 414
1209 2 366 405 406 407
1210 2 366 405 406 409
1211 2 373 405 406 407
1212 2 373 405 406 409
1213 3 405 406 407 998
1214 3 405 406 407 408
1215 3 409 406 407 998
1216 3 409 406 407 408
1217 3 405 406 409 935
1218 3 405 406 409 410
1219 3 407 406 409 935
1220 3 407 406 409 410
1221 2 363 413 414 415
1222 2 363 413 414 421
1223 2 375 413 414 415
1224 2 375 413 414 421
1225 3 413 414 415 1837
1226 3 413 414 415 416
1227 3 421 414 415 1837
1228 3 421 414 415 416
1229 3 413 414 421 1807
1230 3 413 414 421 422
1231 3 415 414 421 1807
1232 3 415 414 421 422
1233 1 18 6 7 8
1234 1 18 6 7 11
1235 2 6 7 8 9
1236 2 6 7 8 12
1237 2 11 7 8 9
1238 2 11 7 8 12
1239 1 6 7 11 20
1240 1 8 7 11 20
1241 3 7 8 9 10
1242 3 7 8 9 1828
1243 3 12 8 9 10
1244 3 12 8 9 1828
1245 3 7 8 12 13
1246 3 7 8 12 1819
1247 3 9 8 12 13
1248 3 9 8 12 1819
1249 3 8 9 1828 1818
1250 3 8 9 1828 1829
1251 3 10 9 1828 1818
1252 3 10 9 1828 1829
1253 3 8 12 1819 1818
1254 3 8 12 1819 1820
1255 3 13 12 1819 1818
1256 3 13 12 1819 1820
1257 1 161 162 163 164
1258 1 161 162 163 276
1259 2 162 163 164 165
1260 2 162 163 164 277
1261 2 276 163 164 165
1262 2 276 163 164 277
1263 1 162 163 276 20
1264 1 164 163 276 20
1265 3 163 164 165 166
1266 3 163 164 165 253
1267 3 277 164 165 166
1268 3 277 164 165 253
1269 3 163 164 277 208
1270 3 163 164 277 278
1271 3 165 164 277 208
1272 3 165 164 277 278
1273 3 164 165 253 207
1274 3 164 165 253 254
1275 3 166 165 253 207
1276 3 166 165 253 254
1277 1 18 185 186 187
1278 1 18 185 186 291
1279 2 185 186 187 188
1280 2 185 186 187 292
1281 2 291 186 187 188
1282 2 291 186 187 292
1283 1 185 186 291 161
1284 1 187 186 291 161
1285 3 186 187 188 189
1286 3 186 187 188 265
1287 3 292 187 188 189
1288 3 292 187 188 265
1289 3 186 187 292 247
1290 3 186 187 292 293
1291 3 188 187 292 247
1292 3 188 187 292 293
1293 3 187 188 265 246
1294 3 187 188 265 266
1295 3 189 188 265 246
1296 3 189 188 265 266
1297 1 54 362 381 372
1298 1 54 362 381 382
1299 1 20 365 401 374
1300 1 20 365 401 402
1301 1 18 372 381 362
1302 1 18 372 381 382
1303 1 54 374 401 365
1304 1 54 374 401 402
1305 2 362 381 382 383
1306 2 362 381 382 399
1307 2 372 381 382 383
1308 2 372 381 382 399
1309 3 381 382 383 550
1310 3 381 382 383 384
1311 3 399 382 383 550
1312 3 399 382 383 384
1313 3 381 382 399 492
1314 3 381 382 399 400
1315 3 383 382 399 492
1316 3 383 382 399 400
1317 2 365 401 402 403
1318 2 365 401 402 411
1319 2 374 401 402 403
1320 2 374 401 402 411
1321 3 401 402 403 1001
1322 3 401 402 403 404
1323 3 411 402 403 1001
1324 3 411 402 403 404
1325 3 401 402 411 929
1326 3 401 402 411 412
1327 3 403 402 411 929
1328 3 403 402 411 412
1329 1 161 307 308 309
1330 1 161 307 308 349
1331 2 307 308 309 310
1332 2 307 308 309 350
1333 2 349 308 309 310
1334 2 349 308 309 350
1335 1 307 308 349 54
1336 1 309 308 349 54
1337 3 308 309 310 311
1338 3 308 309 310 347
1339 3 350 309 310 311
1340 3 350 309 310 347
1341 3 308 309 350 325
1342 3 308 309 350 351
1343 3 310 309 350 325
1344 3 310 309 350 351
1345 3 309 310 347 324
1346 3 309 310 347 348
1347 3 311 310 347 324
1348 3 311 310 347 348
1349 1 89 322 323 324
1350 1 89 322 323 346
1351 2 322 323 324 325
1352 2 322 323 324 347
1353 2 346 323 324 325
1354 2 346 323 324 347
1355 1 322 323 346 231
1356 1 324 323 346 231
1357 3 323 324 325 326
1358 3 323 324 325 350
1359 3 347 324 325 326
1360 3 347 324 325 350
1361 3 323 324 347 310
1362 3 323 324 347 348
1363 3 325 324 347 310
1364 3 325 324 347 348
1365 3 324 325 350 309
1366 3 324 325 350 351
1367 3 326 325 350 309
1368 3 326 325 350 351
1369 1 89 90 91 92
1370 1 89 90 91 143
1371 2 90 91 92 93
1372 2 90 91 92 144
1373 2 143 91 92 93
1374 2 143 91 92 144
1375 1 90 91 143 119
1376 1 92 91 143 119
1377 3 91 92 93 883
1378 3 91 92 93 94
1379 3 144 92 93 883
1380 3 144 92 93 94
1381 3 91 92 144 877
1382 3 91 92 144 145
1383 3 93 92 144 877
1384 3 93 92 144 145
1385 1 119 120 121 122
1386 1 119 120 121 131
1387 2 120 121 122 123
1388 2 120 121 122 132
1389 2 131 121 122 123
1390 2 131 121 122 132
1391 1 120 121 131 61
1392 1 122 121 131 61
1393 3 121 122 123 1708
1394 3 121 122 123 124
1395 3 132 122 123 1708
1396 3 132 122 123 124
1397 3 121 122 132 1705
1398 3 121 122 132 133
1399 3 123 122 132 1705
1400 3 123 122 132 133
1401 1 119 220 221 222
1402 1 119 220 221 258
1403 2 220 221 222 223
1404 2 220 221 222 259
1405 2 258 221 222 223
1406 2 258 221 222 259
1407 1 220 221 258 231
1408 1 222 221 258 231
1409 3 221 222 223 224
1410 3 221 222 223 280
1411 3 259 222 223 224
1412 3 259 222 223 280
1413 3 221 222 259 177
1414 3 221 222 259 260
1415 3 223 222 259 177
1416 3 223 222 259 260
1417 3 222 223 280 176
1418 3 222 223 280 281
1419 3 224 223 280 176
1420 3 224 223 280 281
1421 1 231 232 233 234
1422 1 231 232 233 267
1423 2 232 233 234 235
1424 2 232 233 234 268
1425 2 267 233 234 235
1426 2 267 233 234 268
1427 1 232 233 267 61
1428 1 234 233 267 61
1429 3 233 234 235 236
1430 3 233 234 235 286
1431 3 268 234 235 236
1432 3 268 234 235 286
1433 3 233 234 268 203
1434 3 233 234 268 269
1435 3 235 234 268 203
1436 3 235 234 268 269
1437 3 234 235 286 202
1438 3 234 235 286 287
1439 3 236 235 286 202
1440 3 236 235 286 287
1441 1 61 368 389 369
1442 1 61 368 389 390
1443 1 89 369 389 368
1444 1 89 369 389 390
1445 2 368 389 390 391
1446 2 368 389 390 393
1447 2 369 389 390 391
1448 2 369 389 390 393
1449 3 389 390 391 580
1450 3 389 390 391 392
1451 3 393 390 391 580
1452 3 393 390 391 392
1453 3 389 390 393 475
1454 3 389 390 393 394
1455 3 391 390 393 475
1456 3 391 390 393 394
1457 1 487 489 490 491
1458 1 487 489 490 549
1459 2 489 490 491 492
1460 2 489 490 491 550
1461 2 549 490 491 492
1462 2 549 490 491 550
1463 1 489 490 549 519
1464 1 491 490 549 519
1465 3 490 491 492 493
1466 3 490 491 492 399
1467 3 550 491 492 493
1468 3 550 491 492 399
1469 3 490 491 550 551
1470 3 490 491 550 383
1471 3 492 491 550 551
1472 3 492 491 550 383
1473 3 491 492 399 382
1474 3 491 492 399 400
1475 3 493 492 399 382
1476 3 493 492 399 400
1477 1 519 520 521 522
1478 1 519 520 521 570
1479 2 520 521 522 523
1480 2 520 521 522 571
1481 2 570 521 522 523
1482 2 570 521 522 571
1483 1 520 521 570 531
1484 1 522 521 570 531
1485 3 521 522 523 1304
1486 3 521 522 523 524
1487 3 571 522 523 1304
1488 3 571 522 523 524
1489 3 521 522 571 1296
1490 3 521 522 571 572
1491 3 523 522 571 1296
1492 3 523 522 571 572
1493 1 531 532 533 534
1494 1 531 532 533 564
1495 2 532 533 534 535
1496 2 532 533 534 565
1497 2 564 533 534 535
1498 2 564 533 534 565
1499 1 532 533 564 487
1500 1 534 533 564 487
1501 3 533 534 535 536
1502 3 533 534 535 2541
1503 3 565 534 535 536
1504 3 565 534 535 2541
1505 3 533 534 565 566
1506 3 533 534 565 2535
1507 3 535 534 565 566
1508 3 535 534 565 2535
1509 3 534 535 2541 2534
1510 3 534 535 2541 2542
1511 3 536 535 2541 2534
1512 3 536 535 2541 2542
1513 3 491 550 383 382
1514 3 491 550 383 384
1515 3 551 550 383 382
1516 3 551 550 383 384
1517 3 534 565 2535 2534
1518 3 534 565 2535 2536
1519 3 566 565 2535 2534
1520 3 566 565 2535 2536
1521 1 531 629 630 631
1522 1 531 629 630 676
1523 2 629 630 631 632
1524 2 629 630 631 677
1525 2 676 630 631 632
1526 2 676 630 631 677
1527 1 629 630 676 649
1528 1 631 630 676 649
1529 3 630 631 632 633
1530 3 630 631 632 701
1531 3 677 631 632 633
1532 3 677 631 632 701
1533 3 630 631 677 589
1534 3 630 631 677 678
1535 3 632 631 677 589
1536 3 632 631 677 678
1537 3 631 632 701 588
1538 3 631 632 701 702
1539 3 633 632 701 588
1540 3 633 632 701 702
1541 1 649 650 651 652
1542 1 649 650 651 694
1543 2 650 651 652 653
1544 2 650 651 652 695
1545 2 694 651 652 653
1546 2 694 651 652 695
1547 1 650 651 694 487
1548 1 652 651 694 487
1549 3 651 652 653 654
1550 3 651 652 653 713
1551 3 695 652 653 654
1552 3 695 652 653 713
1553 3 651 652 695 622
1554 3 651 652 695 696
1555 3 653 652 695 622
1556 3 653 652 695 696
1557 3 652 653 713 621
1558 3 652 653 713 714
1559 3 654 653 713 621
1560 3 654 653 713 714
1561 1 597 726 727 728
1562 1 597 726 727 779
1563 2 726 727 728 729
1564 2 726 727 728 780
1565 2 779 727 728 729
1566 2 779 727 728 780
1567 1 726 727 779 470
1568 1 728 727 779 470
1569 3 727 728 729 730
1570 3 727 728 729 762
1571 3 780 728 729 730
1572 3 780 728 729 762
1573 3 727 728 780 759
1574 3 727 728 780 781
1575 3 729 728 780 759
1576 3 729 728 780 781
1577 3 728 729 762 758
1578 3 728 729 762 763
1579 3 730 729 762 758
1580 3 730 729 762 763
1581 1 519 756 757 758
1582 1 519 756 757 761
1583 2 756 757 758 759
1584 2 756 757 758 762
1585 2 761 757 758 759
1586 2 761 757 758 762
1587 1 756 757 761 649
1588 1 758 757 761 649
1589 3 757 758 759 760
1590 3 757 758 759 780
1591 3 762 758 759 760
1592 3 762 758 759 780
1593 3 757 758 762 729
1594 3 757 758 762 763
1595 3 759 758 762 729
1596 3 759 758 762 763
1597 3 758 759 780 728
1598 3 758 759 780 781
1599 3 760 759 780 728
1600 3 760 759 780 781
1601 1 470 472 473 474
1602 1 470 472 473 579
1603 2 472 473 474 475
1604 2 472 473 474 580
1605 2 579 473 474 475
1606 2 579 473 474 580
1607 1 472 473 579 480
1608 1 474 473 579 480
1609 3 473 474 475 476
1610 3 473 474 475 393
1611 3 580 474 475 476
1612 3 580 474 475 393
1613 3 473 474 580 581
1614 3 473 474 580 391
1615 3 475 474 580 581
1616 3 475 474 580 391
1617 3 474 475 393 390
1618 3 474 475 393 394
1619 3 476 475 393 390
1620 3 476 475 393 394
1621 3 474 580 391 390
1622 3 474 580 391 392
1623 3 581 580 391 390
1624 3 581 580 391 392
1625 1 597 598 599 600
1626 1 597 598 599 703
1627 2 598 599 600 601
1628 2 598 599 600 704
1629 2 703 599 600 601
1630 2 703 599 600 704
1631 1 598 599 703 482
1632 1 600 599 703 482
1633 3 599 600 601 602
1634 3 599 600 601 683
1635 3 704 600 601 602
1636 3 704 600 601 683
1637 3 599 600 704 647
1638 3 599 600 704 705
1639 3 601 600 704 647
1640 3 601 600 704 705
1641 3 600 601 683 646
1642 3 600 601 683 684
1643 3 602 601 683 646
1644 3 602 601 683 684
1645 1 480 614 615 616
1646 1 480 614 615 718
1647 2 614 615 616 617
1648 2 614 615 616 719
1649 2 718 615 616 617
1650 2 718 615 616 719
1651 1 614 615 718 597
1652 1 616 615 718 597
1653 3 615 616 617 618
1654 3 615 616 617 686
1655 3 719 616 617 618
1656 3 719 616 617 686
1657 3 615 616 719 665
1658 3 615 616 719 720
1659 3 617 616 719 665
1660 3 617 616 719 720
1661 3 616 617 686 664
1662 3 616 617 686 687
1663 3 618 617 686 664
1664 3 618 617 686 687
1665 1 480 787 837 799
1666 1 480 787 837 838
1667 1 482 790 829 797
1668 1 482 790 829 830
1669 1 470 797 829 790
1670 1 470 797 829 830
1671 1 482 799 837 787
1672 1 482 799 837 838
1673 2 790 829 830 831
1674 2 790 829 830 833
1675 2 797 829 830 831
1676 2 797 829 830 833
1677 3 829 830 831 1422
1678 3 829 830 831 832
1679 3 833 830 831 1422
1680 3 833 830 831 832
1681 3 829 830 833 1359
1682 3 829 830 833 834
1683 3 831 830 833 1359
1684 3 831 830 833 834
1685 2 787 837 838 839
1686 2 787 837 838 845
1687 2 799 837 838 839
1688 2 799 837 838 845
1689 3 837 838 839 2261
1690 3 837 838 839 840
1691 3 845 838 839 2261
1692 3 845 838 839 840
1693 3 837 838 845 2231
1694 3 837 838 845 846
1695 3 839 838 845 2231
1696 3 839 838 845 846
1697 1 442 430 431 432
1698 1 442 430 431 435
1699 2 430 431 432 433
1700 2 430 431 432 436
1701 2 435 431 432 433
1702 2 435 431 432 436
1703 1 430 431 435 444
1704 1 432 431 435 444
1705 3 431 432 433 434
1706 3 431 432 433 2252
1707 3 436 432 433 434
1708 3 436 432 433 2252
1709 3 431 432 436 437
1710 3 431 432 436 2243
1711 3 433 432 436 437
1712 3 433 432 436 2243
1713 3 432 433 2252 2242
1714 3 432 433 2252 2253
1715 3 434 433 2252 2242
1716 3 434 433 2252 2253
1717 3 432 436 2243 2242
1718 3 432 436 2243 2244
1719 3 437 436 2243 2242
1720 3 437 436 2243 2244
1721 1 585 586 587 588
1722 1 585 586 587 700
1723 2 586 587 588 589
1724 2 586 587 588 701
1725 2 700 587 588 589
1726 2 700 587 588 701
1727 1 586 587 700 444
1728 1 588 587 700 444
1729 3 587 588 589 590
1730 3 587 588 589 677
1731 3 701 588 589 590
1732 3 701 588 589 677
1733 3 587 588 701 632
1734 3 587 588 701 702
1735 3 589 588 701 632
1736 3 589 588 701 702
1737 3 588 589 677 631
1738 3 588 589 677 678
1739 3 590 589 677 631
1740 3 590 589 677 678
1741 1 442 609 610 611
1742 1 442 609 610 715
1743 2 609 610 611 612
1744 2 609 610 611 716
1745 2 715 610 611 612
1746 2 715 610 611 716
1747 1 609 610 715 585
1748 1 611 610 715 585
1749 3 610 611 612 613
1750 3 610 611 612 689
1751 3 716 611 612 613
1752 3 716 611 612 689
1753 3 610 611 716 671
1754 3 610 611 716 717
1755 3 612 611 716 671
1756 3 612 611 716 717
1757 3 611 612 689 670
1758 3 611 612 689 690
1759 3 613 612 689 670
1760 3 613 612 689 690
1761 1 478 786 805 796
1762 1 478 786 805 806
1763 1 444 789 825 798
1764 1 444 789 825 826
1765 1 442 796 805 786
1766 1 442 796 805 806
1767 1 478 798 825 789
1768 1 478 798 825 826
1769 2 786 805 806 807
1770 2 786 805 806 823
1771 2 796 805 806 807
1772 2 796 805 806 823
1773 3 805 806 807 126
1774 3 805 806 807 808
1775 3 823 806 807 126
1776 3 823 806 807 808
1777 3 805 806 823 68
1778 3 805 806 823 824
1779 3 807 806 823 68
1780 3 807 806 823 824
1781 2 789 825 826 827
1782 2 789 825 826 835
1783 2 798 825 826 827
1784 2 798 825 826 835
1785 3 825 826 827 1425
1786 3 825 826 827 828
1787 3 835 826 827 1425
1788 3 835 826 827 828
1789 3 825 826 835 1353
1790 3 825 826 835 836
1791 3 827 826 835 1353
1792 3 827 826 835 836
1793 1 585 731 732 733
1794 1 585 731 732 773
1795 2 731 732 733 734
1796 2 731 732 733 774
1797 2 773 732 733 734
1798 2 773 732 733 774
1799 1 731 732 773 478
1800 1 733 732 773 478
1801 3 732 733 734 735
1802 3 732 733 734 771
1803 3 774 733 734 735
1804 3 774 733 734 771
1805 3 732 733 774 749
1806 3 732 733 774 775
1807 3 734 733 774 749
1808 3 734 733 774 775
1809 3 733 734 771 748
1810 3 733 734 771 772
1811 3 735 734 771 748
1812 3 735 734 771 772
1813 1 513 746 747 748
1814 1 513 746 747 770
1815 2 746 747 748 749
1816 2 746 747 748 771
1817 2 770 747 748 749
1818 2 770 747 748 771
1819 1 746 747 770 655
1820 1 748 747 770 655
1821 3 747 748 749 750
1822 3 747 748 749 774
1823 3 771 748 749 750
1824 3 771 748 749 774
1825 3 747 748 771 734
1826 3 747 748 771 772
1827 3 749 748 771 734
1828 3 749 748 771 772
1829 3 748 749 774 733
1830 3 748 749 774 775
1831 3 750 749 774 733
1832 3 750 749 774 775
1833 1 513 514 515 516
1834 1 513 514 515 567
1835 2 514 515 516 517
1836 2 514 515 516 568
1837 2 567 515 516 517
1838 2 567 515 516 568
1839 1 514 515 567 543
1840 1 516 515 567 543
1841 3 515 516 517 1307
1842 3 515 516 517 518
1843 3 568 516 517 1307
1844 3 568 516 517 518
1845 3 515 516 568 1301
1846 3 515 516 568 569
1847 3 517 516 568 1301
1848 3 517 516 568 569
1849 1 543 544 545 546
1850 1 543 544 545 555
1851 2 544 545 546 547
1852 2 544 545 546 556
1853 2 555 545 546 547
1854 2 555 545 546 556
1855 1 544 545 555 485
1856 1 546 545 555 485
1857 3 545 546 547 2132
1858 3 545 546 547 548
1859 3 556 546 547 2132
1860 3 556 546 547 548
1861 3 545 546 556 2129
1862 3 545 546 556 557
1863 3 547 546 556 2129
1864 3 547 546 556 557
1865 1 543 644 645 646
1866 1 543 644 645 682
1867 2 644 645 646 647
1868 2 644 645 646 683
1869 2 682 645 646 647
1870 2 682 645 646 683
1871 1 644 645 682 655
1872 1 646 645 682 655
1873 3 645 646 647 648
1874 3 645 646 647 704
1875 3 683 646 647 648
1876 3 683 646 647 704
1877 3 645 646 683 601
1878 3 645 646 683 684
1879 3 647 646 683 601
1880 3 647 646 683 684
1881 3 646 647 704 600
1882 3 646 647 704 705
1883 3 648 647 704 600
1884 3 648 647 704 705
1885 1 655 656 657 658
1886 1 655 656 657 691
1887 2 656 657 658 659
1888 2 656 657 658 692
1889 2 691 657 658 659
1890 2 691 657 658 692
1891 1 656 657 691 485
1892 1 658 657 691 485
1893 3 657 658 659 660
1894 3 657 658 659 710
1895 3 692 658 659 660
1896 3 692 658 659 710
1897 3 657 658 692 627
1898 3 657 658 692 693
1899 3 659 658 692 627
1900 3 659 658 692 693
1901 3 658 659 710 626
1902 3 658 659 710 711
1903 3 660 659 710 626
1904 3 660 659 710 711
1905 1 485 792 813 793
1906 1 485 792 813 814
1907 1 513 793 813 792
1908 1 513 793 813 814
1909 2 792 813 814 815
1910 2 792 813 814 817
1911 2 793 813 814 815
1912 2 793 813 814 817
1913 3 813 814 815 156
1914 3 813 814 815 816
1915 3 817 814 815 156
1916 3 817 814 815 816
1917 3 813 814 817 51
1918 3 813 814 817 818
1919 3 815 814 817 51
1920 3 815 814 817 818
1921 1 865 849 850 851
1922 1 865 849 850 862
1923 2 849 850 851 852
1924 2 849 850 851 863
1925 2 862 850 851 852
1926 2 862 850 851 863
1927 1 849 850 862 867
1928 1 851 850 862 867
1929 3 850 851 852 853
1930 3 850 851 852 2679
1931 3 863 851 852 853
1932 3 863 851 852 2679
1933 3 850 851 863 864
1934 3 850 851 863 2661
1935 3 852 851 863 864
1936 3 852 851 863 2661
1937 3 851 852 2679 2660
1938 3 851 852 2679 2680
1939 3 853 852 2679 2660
1940 3 853 852 2679 2680
1941 3 851 863 2661 2660
1942 3 851 863 2661 2662
1943 3 864 863 2661 2660
1944 3 864 863 2661 2662
1945 1 867 869 870 871
1946 1 867 869 870 879
1947 2 869 870 871 872
1948 2 869 870 871 880
1949 2 879 870 871 872
1950 2 879 870 871 880
1951 1 869 870 879 885
1952 1 871 870 879 885
1953 3 870 871 872 873
1954 3 870 871 872 147
1955 3 880 871 872 873
1956 3 880 871 872 147
1957 3 870 871 880 881
1958 3 870 871 880 99
1959 3 872 871 880 881
1960 3 872 871 880 99
1961 3 871 872 147 98
1962 3 871 872 147 148
1963 3 873 872 147 98
1964 3 873 872 147 148
1965 3 871 880 99 98
1966 3 871 880 99 100
1967 3 881 880 99 98
1968 3 881 880 99 100
1969 1 885 889 890 891
1970 1 885 889 890 1006
1971 2 889 890 891 892
1972 2 889 890 891 1007
1973 2 1006 890 891 892
1974 2 1006 890 891 1007
1975 1 889 890 1006 865
1976 1 891 890 1006 865
1977 3 890 891 892 893
1978 3 890 891 892 1667
1979 3 1007 891 892 893
1980 3 1007 891 892 1667
1981 3 890 891 1007 1008
1982 3 890 891 1007 1659
1983 3 892 891 1007 1008
1984 3 892 891 1007 1659
1985 3 891 892 1667 1658
1986 3 891 892 1667 1668
1987 3 893 892 1667 1658
1988 3 893 892 1667 1668
1989 3 891 1007 1659 1658
1990 3 891 1007 1659 1660
1991 3 1008 1007 1659 1658
1992 3 1008 1007 1659 1660
1993 1 1027 1028 1029 1030
1994 1 1027 1028 1029 1130
1995 2 1028 1029 1030 1031
1996 2 1028 1029 1030 1131
1997 2 1130 1029 1030 1031
1998 2 1130 1029 1030 1131
1999 1 1028 1029 1130 867
2000 1 1030 1029 1130 867
2001 3 1029 1030 1031 1032
2002 3 1029 1030 1031 1104
2003 3 1131 1030 1031 1032
2004 3 1131 1030 1031 1104
2005 3 1029 1030 1131 1066
2006 3 1029 1030 1131 1132
2007 3 1031 1030 1131 1066
2008 3 1031 1030 1131 1132
2009 3 1030 1031 1104 1065
2010 3 1030 1031 1104 1105
2011 3 1032 1031 1104 1065
2012 3 1032 1031 1104 1105
2013 1 865 1043 1044 1045
2014 1 865 1043 1044 1136
2015 2 1043 1044 1045 1046
2016 2 1043 1044 1045 1137
2017 2 1136 1044 1045 1046
2018 2 1136 1044 1045 1137
2019 1 1043 1044 1136 1027
2020 1 1045 1044 1136 1027
2021 3 1044 1045 1046 1047
2022 3 1044 1045 1046 1119
2023 3 1137 1045 1046 1047
2024 3 1137 1045 1046 1119
2025 3 1044 1045 1137 1077
2026 3 1044 1045 1137 1138
2027 3 1046 1045 1137 1077
2028 3 1046 1045 1137 1138
2029 3 1045 1046 1119 1076
2030 3 1045 1046 1119 1120
2031 3 1047 1046 1119 1076
2032 3 1047 1046 1119 1120
2033 1 1027 1160 1161 1162
2034 1 1027 1160 1161 1200
2035 2 1160 1161 1162 1163
2036 2 1160 1161 1162 1201
2037 2 1200 1161 1162 1163
2038 2 1200 1161 1162 1201
2039 1 1160 1161 1200 885
2040 1 1162 1161 1200 885
2041 3 1161 1162 1163 1164
2042 3 1161 1162 1163 1192
2043 3 1201 1162 1163 1164
2044 3 1201 1162 1163 1192
2045 3 1161 1162 1201 1168
2046 3 1161 1162 1201 1202
2047 3 1163 1162 1201 1168
2048 3 1163 1162 1201 1202
2049 3 1162 1163 1192 1167
2050 3 1162 1163 1192 1193
2051 3 1164 1163 1192 1167
2052 3 1164 1163 1192 1193
2053 1 931 1165 1166 1167
2054 1 931 1165 1166 1191
2055 2 1165 1166 1167 1168
2056 2 1165 1166 1167 1192
2057 2 1191 1166 1167 1168
2058 2 1191 1166 1167 1192
2059 1 1165 1166 1191 1085
2060 1 1167 1166 1191 1085
2061 3 1166 1167 1168 1169
2062 3 1166 1167 1168 1201
2063 3 1192 1167 1168 1169
2064 3 1192 1167 1168 1201
2065 3 1166 1167 1192 1163
2066 3 1166 1167 1192 1193
2067 3 1168 1167 1192 1163
2068 3 1168 1167 1192 1193
2069 3 1167 1168 1201 1162
2070 3 1167 1168 1201 1202
2071 3 1169 1168 1201 1162
2072 3 1169 1168 1201 1202
2073 1 918 920 921 922
2074 1 918 920 921 976
2075 2 920 921 922 923
2076 2 920 921 922 977
2077 2 976 921 922 923
2078 2 976 921 922 977
2079 1 920 921 976 931
2080 1 922 921 976 931
2081 3 921 922 923 924
2082 3 921 922 923 1669
2083 3 977 922 923 924
2084 3 977 922 923 1669
2085 3 921 922 977 978
2086 3 921 922 977 1651
2087 3 923 922 977 978
2088 3 923 922 977 1651
2089 3 922 923 1669 1650
2090 3 922 923 1669 1670
2091 3 924 923 1669 1650
2092 3 924 923 1669 1670
2093 1 931 932 933 934
2094 1 931 932 933 997
2095 2 932 933 934 935
2096 2 932 933 934 998
2097 2 997 933 934 935
2098 2 997 933 934 998
2099 1 932 933 997 961
2100 1 934 933 997 961
2101 3 933 934 935 936
2102 3 933 934 935 409
2103 3 998 934 935 936
2104 3 998 934 935 409
2105 3 933 934 998 999
2106 3 933 934 998 407
2107 3 935 934 998 999
2108 3 935 934 998 407
2109 3 934 935 409 406
2110 3 934 935 409 410
2111 3 936 935 409 406
2112 3 936 935 409 410
2113 1 961 962 963 964
2114 1 961 962 963 982
2115 2 962 963 964 965
2116 2 962 963 964 983
2117 2 982 963 964 965
2118 2 982 963 964 983
2119 1 962 963 982 918
2120 1 964 963 982 918
2121 3 963 964 965 2559
2122 3 963 964 965 966
2123 3 983 964 965 2559
2124 3 983 964 965 966
2125 3 963 964 983 2548
2126 3 963 964 983 984
2127 3 965 964 983 2548
2128 3 965 964 983 984
2129 3 922 977 1651 1650
2130 3 922 977 1651 1652
2131 3 978 977 1651 1650
2132 3 978 977 1651 1652
2133 3 934 998 407 406
2134 3 934 998 407 408
2135 3 999 998 407 406
2136 3 999 998 407 408
2137 1 961 1058 1059 1060
2138 1 961 1058 1059 1097
2139 2 1058 1059 1060 1061
2140 2 1058 1059 1060 1098
2141 2 1097 1059 1060 1061
2142 2 1097 1059 1060 1098
2143 1 1058 1059 1097 1085
2144 1 1060 1059 1097 1085
2145 3 1059 1060 1061 1062
2146 3 1059 1060 1061 1122
2147 3 1098 1060 1061 1062
2148 3 1098 1060 1061 1122
2149 3 1059 1060 1098 1019
2150 3 1059 1060 1098 1099
2151 3 1061 1060 1098 1019
2152 3 1061 1060 1098 1099
2153 3 1060 1061 1122 1018
2154 3 1060 1061 1122 1123
2155 3 1062 1061 1122 1018
2156 3 1062 1061 1122 1123
2157 1 1085 1086 1087 1088
2158 1 1085 1086 1087 1109
2159 2 1086 1087 1088 1089
2160 2 1086 1087 1088 1110
2161 2 1109 1087 1088 1089
2162 2 1109 1087 1088 1110
2163 1 1086 1087 1109 918
2164 1 1088 1087 1109 918
2165 3 1087 1088 1089 1090
2166 3 1087 1088 1089 1143
2167 3 1110 1088 1089 1090
2168 3 1110 1088 1089 1143
2169 3 1087 1088 1110 1041
2170 3 1087 1088 1110 1111
2171 3 1089 1088 1110 1041
2172 3 1089 1088 1110 1111
2173 3 1088 1089 1143 1040
2174 3 1088 1089 1143 1144
2175 3 1090 1089 1143 1040
2176 3 1090 1089 1143 1144
2177 1 925 926 927 928
2178 1 925 926 927 1000
2179 2 926 927 928 929
2180 2 926 927 928 1001
2181 2 1000 927 928 929
2182 2 1000 927 928 1001
2183 1 926 927 1000 949
2184 1 928 927 1000 949
2185 3 927 928 929 930
2186 3 927 928 929 411
2187 3 1001 928 929 930
2188 3 1001 928 929 411
2189 3 927 928 1001 1002
2190 3 927 928 1001 403
2191 3 929 928 1001 1002
2192 3 929 928 1001 403
2193 3 928 929 411 402
2194 3 928 929 411 412
2195 3 930 929 411 402
2196 3 930 929 411 412
2197 1 949 950 951 952
2198 1 949 950 951 985
2199 2 950 951 952 953
2200 2 950 951 952 986
2201 2 985 951 952 953
2202 2 985 951 952 986
2203 1 950 951 985 907
2204 1 952 951 985 907
2205 3 951 952 953 954
2206 3 951 952 953 2967
2207 3 986 952 953 954
2208 3 986 952 953 2967
2209 3 951 952 986 987
2210 3 951 952 986 2963
2211 3 953 952 986 987
2212 3 953 952 986 2963
2213 3 952 953 2967 2962
2214 3 952 953 2967 2968
2215 3 954 953 2967 2962
2216 3 954 953 2967 2968
2217 3 952 986 2963 2962
2218 3 952 986 2963 2964
2219 3 987 986 2963 2962
2220 3 987 986 2963 2964
2221 3 928 1001 403 402
2222 3 928 1001 403 404
2223 3 1002 1001 403 402
2224 3 1002 1001 403 404
2225 1 949 1063 1064 1065
2226 1 949 1063 1064 1103
2227 2 1063 1064 1065 1066
2228 2 1063 1064 1065 1104
2229 2 1103 1064 1065 1066
2230 2 1103 1064 1065 1104
2231 1 1063 1064 1103 1091
2232 1 1065 1064 1103 1091
2233 3 1064 1065 1066 1067
2234 3 1064 1065 1066 1131
2235 3 1104 1065 1066 1067
2236 3 1104 1065 1066 1131
2237 3 1064 1065 1104 1031
2238 3 1064 1065 1104 1105
2239 3 1066 1065 1104 1031
2240 3 1066 1065 1104 1105
2241 3 1065 1066 1131 1030
2242 3 1065 1066 1131 1132
2243 3 1067 1066 1131 1030
2244 3 1067 1066 1131 1132
2245 1 1091 1092 1093 1094
2246 1 1091 1092 1093 1112
2247 2 1092 1093 1094 1095
2248 2 1092 1093 1094 1113
2249 2 1112 1093 1094 1095
2250 2 1112 1093 1094 1113
2251 1 1092 1093 1112 907
2252 1 1094 1093 1112 907
2253 3 1093 1094 1095 1096
2254 3 1093 1094 1095 1140
2255 3 1113 1094 1095 1096
2256 3 1113 1094 1095 1140
2257 3 1093 1094 1113 1036
2258 3 1093 1094 1113 1114
2259 3 1095 1094 1113 1036
2260 3 1095 1094 1113 1114
2261 3 1094 1095 1140 1035
2262 3 1094 1095 1140 1141
2263 3 1096 1095 1140 1035
2264 3 1096 1095 1140 1141
2265 1 907 1215 1233 1218
2266 1 907 1215 1233 1234
2267 1 925 1218 1233 1215
2268 1 925 1218 1233 1234
2269 2 1215 1233 1234 1235
2270 2 1215 1233 1234 1243
2271 2 1218 1233 1234 1235
2272 2 1218 1233 1234 1243
2273 3 1233 1234 1235 1431
2274 3 1233 1234 1235 1236
2275 3 1243 1234 1235 1431
2276 3 1243 1234 1235 1236
2277 3 1233 1234 1243 1316
2278 3 1233 1234 1243 1244
2279 3 1235 1234 1243 1316
2280 3 1235 1234 1243 1244
2281 1 1015 1145 1146 1147
2282 1 1015 1145 1146 1206
2283 2 1145 1146 1147 1148
2284 2 1145 1146 1147 1207
2285 2 1206 1146 1147 1148
2286 2 1206 1146 1147 1207
2287 1 1145 1146 1206 886
2288 1 1147 1146 1206 886
2289 3 1146 1147 1148 1149
2290 3 1146 1147 1148 1189
2291 3 1207 1147 1148 1149
2292 3 1207 1147 1148 1189
2293 3 1146 1147 1207 1178
2294 3 1146 1147 1207 1208
2295 3 1148 1147 1207 1178
2296 3 1148 1147 1207 1208
2297 3 1147 1148 1189 1177
2298 3 1147 1148 1189 1190
2299 3 1149 1148 1189 1177
2300 3 1149 1148 1189 1190
2301 1 925 1175 1176 1177
2302 1 925 1175 1176 1188
2303 2 1175 1176 1177 1178
2304 2 1175 1176 1177 1189
2305 2 1188 1176 1177 1178
2306 2 1188 1176 1177 1189
2307 1 1175 1176 1188 1091
2308 1 1177 1176 1188 1091
2309 3 1176 1177 1178 1179
2310 3 1176 1177 1178 1207
2311 3 1189 1177 1178 1179
2312 3 1189 1177 1178 1207
2313 3 1176 1177 1189 1148
2314 3 1176 1177 1189 1190
2315 3 1178 1177 1189 1148
2316 3 1178 1177 1189 1190
2317 3 1177 1178 1207 1147
2318 3 1177 1178 1207 1208
2319 3 1179 1178 1207 1147
2320 3 1179 1178 1207 1208
2321 1 887 874 875 876
2322 1 887 874 875 882
2323 2 874 875 876 877
2324 2 874 875 876 883
2325 2 882 875 876 877
2326 2 882 875 876 883
2327 1 874 875 882 886
2328 1 876 875 882 886
2329 3 875 876 877 878
2330 3 875 876 877 144
2331 3 883 876 877 878
2332 3 883 876 877 144
2333 3 875 876 883 884
2334 3 875 876 883 93
2335 3 877 876 883 884
2336 3 877 876 883 93
2337 3 876 877 144 92
2338 3 876 877 144 145
2339 3 878 877 144 92
2340 3 878 877 144 145
2341 3 876 883 93 92
2342 3 876 883 93 94
2343 3 884 883 93 92
2344 3 884 883 93 94
2345 1 1015 1016 1017 1018
2346 1 1015 1016 1017 1121
2347 2 1016 1017 1018 1019
2348 2 1016 1017 1018 1122
2349 2 1121 1017 1018 1019
2350 2 1121 1017 1018 1122
2351 1 1016 1017 1121 887
2352 1 1018 1017 1121 887
2353 3 1017 1018 1019 1020
2354 3 1017 1018 1019 1098
2355 3 1122 1018 1019 1020
2356 3 1122 1018 1019 1098
2357 3 1017 1018 1122 1061
2358 3 1017 1018 1122 1123
2359 3 1019 1018 1122 1061
2360 3 1019 1018 1122 1123
2361 3 1018 1019 1098 1060
2362 3 1018 1019 1098 1099
2363 3 1020 1019 1098 1060
2364 3 1020 1019 1098 1099
2365 1 905 1048 1049 1050
2366 1 905 1048 1049 1133
2367 2 1048 1049 1050 1051
2368 2 1048 1049 1050 1134
2369 2 1133 1049 1050 1051
2370 2 1133 1049 1050 1134
2371 1 1048 1049 1133 1015
2372 1 1050 1049 1133 1015
2373 3 1049 1050 1051 1052
2374 3 1049 1050 1051 1116
2375 3 1134 1050 1051 1052
2376 3 1134 1050 1051 1116
2377 3 1049 1050 1134 1083
2378 3 1049 1050 1134 1135
2379 3 1051 1050 1134 1083
2380 3 1051 1050 1134 1135
2381 3 1050 1051 1116 1082
2382 3 1050 1051 1116 1117
2383 3 1052 1051 1116 1082
2384 3 1052 1051 1116 1117
2385 1 886 1209 1225 1219
2386 1 886 1209 1225 1226
2387 1 905 1212 1265 1224
2388 1 905 1212 1265 1266
2389 1 905 1219 1225 1209
2390 1 905 1219 1225 1226
2391 1 887 1224 1265 1212
2392 1 887 1224 1265 1266
2393 2 1209 1225 1226 1227
2394 2 1209 1225 1226 1245
2395 2 1219 1225 1226 1227
2396 2 1219 1225 1226 1245
2397 3 1225 1226 1227 1401
2398 3 1225 1226 1227 1228
2399 3 1245 1226 1227 1401
2400 3 1245 1226 1227 1228
2401 3 1225 1226 1245 1347
2402 3 1225 1226 1245 1246
2403 3 1227 1226 1245 1347
2404 3 1227 1226 1245 1246
2405 2 1212 1265 1266 1267
2406 2 1212 1265 1266 1271
2407 2 1224 1265 1266 1267
2408 2 1224 1265 1266 1271
2409 3 1265 1266 1267 2682
2410 3 1265 1266 1267 1268
2411 3 1271 1266 1267 2682
2412 3 1271 1266 1267 1268
2413 3 1265 1266 1271 2649
2414 3 1265 1266 1271 1272
2415 3 1267 1266 1271 2649
2416 3 1267 1266 1271 1272
2417 1 1289 1273 1274 1275
2418 1 1289 1273 1274 1286
2419 2 1273 1274 1275 1276
2420 2 1273 1274 1275 1287
2421 2 1286 1274 1275 1276
2422 2 1286 1274 1275 1287
2423 1 1273 1274 1286 1291
2424 1 1275 1274 1286 1291
2425 3 1274 1275 1276 1277
2426 3 1274 1275 1276 3103
2427 3 1287 1275 1276 1277
2428 3 1287 1275 1276 3103
2429 3 1274 1275 1287 1288
2430 3 1274 1275 1287 3085
2431 3 1276 1275 1287 1288
2432 3 1276 1275 1287 3085
2433 3 1275 1276 3103 3084
2434 3 1275 1276 3103 3104
2435 3 1277 1276 3103 3084
2436 3 1277 1276 3103 3104
2437 3 1275 1287 3085 3084
2438 3 1275 1287 3085 3086
2439 3 1288 1287 3085 3084
2440 3 1288 1287 3085 3086
2441 1 1291 1293 1294 1295
2442 1 1291 1293 1294 1303
2443 2 1293 1294 1295 1296
2444 2 1293 1294 1295 1304
2445 2 1303 1294 1295 1296
2446 2 1303 1294 1295 1304
2447 1 1293 1294 1303 1309
2448 1 1295 1294 1303 1309
2449 3 1294 1295 1296 1297
2450 3 1294 1295 1296 571
2451 3 1304 1295 1296 1297
2452 3 1304 1295 1296 571
2453 3 1294 1295 1304 1305
2454 3 1294 1295 1304 523
2455 3 1296 1295 1304 1305
2456 3 1296 1295 1304 523
2457 3 1295 1296 571 522
2458 3 1295 1296 571 572
2459 3 1297 1296 571 522
2460 3 1297 1296 571 572
2461 3 1295 1304 523 522
2462 3 1295 1304 523 524
2463 3 1305 1304 523 522
2464 3 1305 1304 523 524
2465 1 1309 1313 1314 1315
2466 1 1309 1313 1314 1430
2467 2 1313 1314 1315 1316
2468 2 1313 1314 1315 1431
2469 2 1430 1314 1315 1316
2470 2 1430 1314 1315 1431
2471 1 1313 1314 1430 1289
2472 1 1315 1314 1430 1289
2473 3 1314 1315 1316 1317
2474 3 1314 1315 1316 1243
2475 3 1431 1315 1316 1317
2476 3 1431 1315 1316 1243
2477 3 1314 1315 1431 1432
2478 3 1314 1315 1431 1235
2479 3 1316 1315 1431 1432
2480 3 1316 1315 1431 1235
2481 3 1315 1316 1243 1234
2482 3 1315 1316 1243 1244
2483 3 1317 1316 1243 1234
2484 3 1317 1316 1243 1244
2485 3 1315 1431 1235 1234
2486 3 1315 1431 1235 1236
2487 3 1432 1431 1235 1234
2488 3 1432 1431 1235 1236
2489 1 1451 1452 1453 1454
2490 1 1451 1452 1453 1554
2491 2 1452 1453 1454 1455
2492 2 1452 1453 1454 1555
2493 2 1554 1453 1454 1455
2494 2 1554 1453 1454 1555
2495 1 1452 1453 1554 1291
2496 1 1454 1453 1554 1291
2497 3 1453 1454 1455 1456
2498 3 1453 1454 1455 1528
2499 3 1555 1454 1455 1456
2500 3 1555 1454 1455 1528
2501 3 1453 1454 1555 1490
2502 3 1453 1454 1555 1556
2503 3 1455 1454 1555 1490
2504 3 1455 1454 1555 1556
2505 3 1454 1455 1528 1489
2506 3 1454 1455 1528 1529
2507 3 1456 1455 1528 1489
2508 3 1456 1455 1528 1529
2509 1 1289 1467 1468 1469
2510 1 1289 1467 1468 1560
2511 2 1467 1468 1469 1470
2512 2 1467 1468 1469 1561
2513 2 1560 1468 1469 1470
2514 2 1560 1468 1469 1561
2515 1 1467 1468 1560 1451
2516 1 1469 1468 1560 1451
2517 3 1468 1469 1470 1471
2518 3 1468 1469 1470 1543
2519 3 1561 1469 1470 1471
2520 3 1561 1469 1470 1543
2521 3 1468 1469 1561 1501
2522 3 1468 1469 1561 1562
2523 3 1470 1469 1561 1501
2524 3 1470 1469 1561 1562
2525 3 1469 1470 1543 1500
2526 3 1469 1470 1543 1544
2527 3 1471 1470 1543 1500
2528 3 1471 1470 1543 1544
2529 1 1451 1584 1585 1586
2530 1 1451 1584 1585 1624
2531 2 1584 1585 1586 1587
2532 2 1584 1585 1586 1625
2533 2 1624 1585 1586 1587
2534 2 1624 1585 1586 1625
2535 1 1584 1585 1624 1309
2536 1 1586 1585 1624 1309
2537 3 1585 1586 1587 1588
2538 3 1585 1586 1587 1616
2539 3 1625 1586 1587 1588
2540 3 1625 1586 1587 1616
2541 3 1585 1586 1625 1592
2542 3 1585 1586 1625 1626
2543 3 1587 1586 1625 1592
2544 3 1587 1586 1625 1626
2545 3 1586 1587 1616 1591
2546 3 1586 1587 1616 1617
2547 3 1588 1587 1616 1591
2548 3 1588 1587 1616 1617
2549 1 1355 1589 1590 1591
2550 1 1355 1589 1590 1615
2551 2 1589 1590 1591 1592
2552 2 1589 1590 1591 1616
2553 2 1615 1590 1591 1592
2554 2 1615 1590 1591 1616
2555 1 1589 1590 1615 1509
2556 1 1591 1590 1615 1509
2557 3 1590 1591 1592 1593
2558 3 1590 1591 1592 1625
2559 3 1616 1591 1592 1593
2560 3 1616 1591 1592 1625
2561 3 1590 1591 1616 1587
2562 3 1590 1591 1616 1617
2563 3 1592 1591 1616 1587
2564 3 1592 1591 1616 1617
2565 3 1591 1592 1625 1586
2566 3 1591 1592 1625 1626
2567 3 1593 1592 1625 1586
2568 3 1593 1592 1625 1626
2569 1 1342 1344 1345 1346
2570 1 1342 1344 1345 1400
2571 2 1344 1345 1346 1347
2572 2 1344 1345 1346 1401
2573 2 1400 1345 1346 1347
2574 2 1400 1345 1346 1401
2575 1 1344 1345 1400 1355
2576 1 1346 1345 1400 1355
2577 3 1345 1346 1347 1348
2578 3 1345 1346 1347 1245
2579 3 1401 1346 1347 1348
2580 3 1401 1346 1347 1245
2581 3 1345 1346 1401 1402
2582 3 1345 1346 1401 1227
2583 3 1347 1346 1401 1402
2584 3 1347 1346 1401 1227
2585 3 1346 1347 1245 1226
2586 3 1346 1347 1245 1246
2587 3 1348 1347 1245 1226
2588 3 1348 1347 1245 1246
2589 1 1355 1356 1357 1358
2590 1 1355 1356 1357 1421
2591 2 1356 1357 1358 1359
2592 2 1356 1357 1358 1422
2593 2 1421 1357 1358 1359
2594 2 1421 1357 1358 1422
2595 1 1356 1357 1421 1385
2596 1 1358 1357 1421 1385
2597 3 1357 1358 1359 1360
2598 3 1357 1358 1359 833
2599 3 1422 1358 1359 1360
2600 3 1422 1358 1359 833
2601 3 1357 1358 1422 1423
2602 3 1357 1358 1422 831
2603 3 1359 1358 1422 1423
2604 3 1359 1358 1422 831
2605 3 1358 1359 833 830
2606 3 1358 1359 833 834
2607 3 1360 1359 833 830
2608 3 1360 1359 833 834
2609 1 1385 1386 1387 1388
2610 1 1385 1386 1387 1406
2611 2 1386 1387 1388 1389
2612 2 1386 1387 1388 1407
2613 2 1406 1387 1388 1389
2614 2 1406 1387 1388 1407
2615 1 1386 1387 1406 1342
2616 1 1388 1387 1406 1342
2617 3 1387 1388 1389 2983
2618 3 1387 1388 1389 1390
2619 3 1407 1388 1389 2983
2620 3 1407 1388 1389 1390
2621 3 1387 1388 1407 2972
2622 3 1387 1388 1407 1408
2623 3 1389 1388 1407 2972
2624 3 1389 1388 1407 1408
2625 3 1346 1401 1227 1226
2626 3 1346 1401 1227 1228
2627 3 1402 1401 1227 1226
2628 3 1402 1401 1227 1228
2629 3 1358 1422 831 830
2630 3 1358 1422 831 832
2631 3 1423 1422 831 830
2632 3 1423 1422 831 832
2633 1 1385 1482 1483 1484
2634 1 1385 1482 1483 1521
2635 2 1482 1483 1484 1485
2636 2 1482 1483 1484 1522
2637 2 1521 1483 1484 1485
2638 2 1521 1483 1484 1522
2639 1 1482 1483 1521 1509
2640 1 1484 1483 1521 1509
2641 3 1483 1484 1485 1486
2642 3 1483 1484 1485 1546
2643 3 1522 1484 1485 1486
2644 3 1522 1484 1485 1546
2645 3 1483 1484 1522 1443
2646 3 1483 1484 1522 1523
2647 3 1485 1484 1522 1443
2648 3 1485 1484 1522 1523
2649 3 1484 1485 1546 1442
2650 3 1484 1485 1546 1547
2651 3 1486 1485 1546 1442
2652 3 1486 1485 1546 1547
2653 1 1509 1510 1511 1512
2654 1 1509 1510 1511 1533
2655 2 1510 1511 1512 1513
2656 2 1510 1511 1512 1534
2657 2 1533 1511 1512 1513
2658 2 1533 1511 1512 1534
2659 1 1510 1511 1533 1342
2660 1 1512 1511 1533 1342
2661 3 1511 1512 1513 1514
2662 3 1511 1512 1513 1567
2663 3 1534 1512 1513 1514
2664 3 1534 1512 1513 1567
2665 3 1511 1512 1534 1465
2666 3 1511 1512 1534 1535
2667 3 1513 1512 1534 1465
2668 3 1513 1512 1534 1535
2669 3 1512 1513 1567 1464
2670 3 1512 1513 1567 1568
2671 3 1514 1513 1567 1464
2672 3 1514 1513 1567 1568
2673 1 1349 1350 1351 1352
2674 1 1349 1350 1351 1424
2675 2 1350 1351 1352 1353
2676 2 1350 1351 1352 1425
2677 2 1424 1351 1352 1353
2678 2 1424 1351 1352 1425
2679 1 1350 1351 1424 1373
2680 1 1352 1351 1424 1373
2681 3 1351 1352 1353 1354
2682 3 1351 1352 1353 835
2683 3 1425 1352 1353 1354
2684 3 1425 1352 1353 835
2685 3 1351 1352 1425 1426
2686 3 1351 1352 1425 827
2687 3 1353 1352 1425 1426
2688 3 1353 1352 1425 827
2689 3 1352 1353 835 826
2690 3 1352 1353 835 836
2691 3 1354 1353 835 826
2692 3 1354 1353 835 836
2693 1 1373 1374 1375 1376
2694 1 1373 1374 1375 1409
2695 2 1374 1375 1376 1377
2696 2 1374 1375 1376 1410
2697 2 1409 1375 1376 1377
2698 2 1409 1375 1376 1410
2699 1 1374 1375 1409 1331
2700 1 1376 1375 1409 1331
2701 3 1375 1376 1377 1378
2702 3 1375 1376 1377 3391
2703 3 1410 1376 1377 1378
2704 3 1410 1376 1377 3391
2705 3 1375 1376 1410 1411
2706 3 1375 1376 1410 3387
2707 3 1377 1376 1410 1411
2708 3 1377 1376 1410 3387
2709 3 1376 1377 3391 3386
2710 3 1376 1377 3391 3392
2711 3 1378 1377 3391 3386
2712 3 1378 1377 3391 3392
2713 3 1376 1410 3387 3386
2714 3 1376 1410 3387 3388
2715 3 1411 1410 3387 3386
2716 3 1411 1410 3387 3388
2717 3 1352 1425 827 826
2718 3 1352 1425 827 828
2719 3 1426 1425 827 826
2720 3 1426 1425 827 828
2721 1 1373 1487 1488 1489
2722 1 1373 1487 1488 1527
2723 2 1487 1488 1489 1490
2724 2 1487 1488 1489 1528
2725 2 1527 1488 1489 1490
2726 2 1527 1488 1489 1528
2727 1 1487 1488 1527 1515
2728 1 1489 1488 1527 1515
2729 3 1488 1489 1490 1491
2730 3 1488 1489 1490 1555
2731 3 1528 1489 1490 1491
2732 3 1528 1489 1490 1555
2733 3 1488 1489 1528 1455
2734 3 1488 1489 1528 1529
2735 3 1490 1489 1528 1455
2736 3 1490 1489 1528 1529
2737 3 1489 1490 1555 1454
2738 3 1489 1490 1555 1556
2739 3 1491 1490 1555 1454
2740 3 1491 1490 1555 1556
2741 1 1515 1516 1517 1518
2742 1 1515 1516 1517 1536
2743 2 1516 1517 1518 1519
2744 2 1516 1517 1518 1537
2745 2 1536 1517 1518 1519
2746 2 1536 1517 1518 1537
2747 1 1516 1517 1536 1331
2748 1 1518 1517 1536 1331
2749 3 1517 1518 1519 1520
2750 3 1517 1518 1519 1564
2751 3 1537 1518 1519 1520
2752 3 1537 1518 1519 1564
2753 3 1517 1518 1537 1460
2754 3 1517 1518 1537 1538
2755 3 1519 1518 1537 1460
2756 3 1519 1518 1537 1538
2757 3 1518 1519 1564 1459
2758 3 1518 1519 1564 1565
2759 3 1520 1519 1564 1459
2760 3 1520 1519 1564 1565
2761 1 1331 1639 1657 1642
2762 1 1331 1639 1657 1658
2763 1 1349 1642 1657 1639
2764 1 1349 1642 1657 1658
2765 2 1639 1657 1658 1659
2766 2 1639 1657 1658 1667
2767 2 1642 1657 1658 1659
2768 2 1642 1657 1658 1667
2769 3 1657 1658 1659 1007
2770 3 1657 1658 1659 1660
2771 3 1667 1658 1659 1007
2772 3 1667 1658 1659 1660
2773 3 1657 1658 1667 892
2774 3 1657 1658 1667 1668
2775 3 1659 1658 1667 892
2776 3 1659 1658 1667 1668
2777 1 1439 1569 1570 1571
2778 1 1439 1569 1570 1630
2779 2 1569 1570 1571 1572
2780 2 1569 1570 1571 1631
2781 2 1630 1570 1571 1572
2782 2 1630 1570 1571 1631
2783 1 1569 1570 1630 1310
2784 1 1571 1570 1630 1310
2785 3 1570 1571 1572 1573
2786 3 1570 1571 1572 1613
2787 3 1631 1571 1572 1573
2788 3 1631 1571 1572 1613
2789 3 1570 1571 1631 1602
2790 3 1570 1571 1631 1632
2791 3 1572 1571 1631 1602
2792 3 1572 1571 1631 1632
2793 3 1571 1572 1613 1601
2794 3 1571 1572 1613 1614
2795 3 1573 1572 1613 1601
2796 3 1573 1572 1613 1614
2797 1 1349 1599 1600 1601
2798 1 1349 1599 1600 1612
2799 2 1599 1600 1601 1602
2800 2 1599 1600 1601 1613
2801 2 1612 1600 1601 1602
2802 2 1612 1600 1601 1613
2803 1 1599 1600 1612 1515
2804 1 1601 1600 1612 1515
2805 3 1600 1601 1602 1603
2806 3 1600 1601 1602 1631
2807 3 1613 1601 1602 1603
2808 3 1613 1601 1602 1631
2809 3 1600 1601 1613 1572
2810 3 1600 1601 1613 1614
2811 3 1602 1601 1613 1572
2812 3 1602 1601 1613 1614
2813 3 1601 1602 1631 1571
2814 3 1601 1602 1631 1632
2815 3 1603 1602 1631 1571
2816 3 1603 1602 1631 1632
2817 1 1311 1298 1299 1300
2818 1 1311 1298 1299 1306
2819 2 1298 1299 1300 1301
2820 2 1298 1299 1300 1307
2821 2 1306 1299 1300 1301
2822 2 1306 1299 1300 1307
2823 1 1298 1299 1306 1310
2824 1 1300 1299 1306 1310
2825 3 1299 1300 1301 1302
2826 3 1299 1300 1301 568
2827 3 1307 1300 1301 1302
2828 3 1307 1300 1301 568
2829 3 1299 1300 1307 1308
2830 3 1299 1300 1307 517
2831 3 1301 1300 1307 1308
2832 3 1301 1300 1307 517
2833 3 1300 1301 568 516
2834 3 1300 1301 568 569
2835 3 1302 1301 568 516
2836 3 1302 1301 568 569
2837 3 1300 1307 517 516
2838 3 1300 1307 517 518
2839 3 1308 1307 517 516
2840 3 1308 1307 517 518
2841 1 1439 1440 1441 1442
2842 1 1439 1440 1441 1545
2843 2 1440 1441 1442 1443
2844 2 1440 1441 1442 1546
2845 2 1545 1441 1442 1443
2846 2 1545 1441 1442 1546
2847 1 1440 1441 1545 1311
2848 1 1442 1441 1545 1311
2849 3 1441 1442 1443 1444
2850 3 1441 1442 1443 1522
2851 3 1546 1442 1443 1444
2852 3 1546 1442 1443 1522
2853 3 1441 1442 1546 1485
2854 3 1441 1442 1546 1547
2855 3 1443 1442 1546 1485
2856 3 1443 1442 1546 1547
2857 3 1442 1443 1522 1484
2858 3 1442 1443 1522 1523
2859 3 1444 1443 1522 1484
2860 3 1444 1443 1522 1523
2861 1 1329 1472 1473 1474
2862 1 1329 1472 1473 1557
2863 2 1472 1473 1474 1475
2864 2 1472 1473 1474 1558
2865 2 1557 1473 1474 1475
2866 2 1557 1473 1474 1558
2867 1 1472 1473 1557 1439
2868 1 1474 1473 1557 1439
2869 3 1473 1474 1475 1476
2870 3 1473 1474 1475 1540
2871 3 1558 1474 1475 1476
2872 3 1558 1474 1475 1540
2873 3 1473 1474 1558 1507
2874 3 1473 1474 1558 1559
2875 3 1475 1474 1558 1507
2876 3 1475 1474 1558 1559
2877 3 1474 1475 1540 1506
2878 3 1474 1475 1540 1541
2879 3 1476 1475 1540 1506
2880 3 1476 1475 1540 1541
2881 1 1310 1633 1649 1643
2882 1 1310 1633 1649 1650
2883 1 1329 1636 1689 1648
2884 1 1329 1636 1689 1690
2885 1 1329 1643 1649 1633
2886 1 1329 1643 1649 1650
2887 1 1311 1648 1689 1636
2888 1 1311 1648 1689 1690
2889 2 1633 1649 1650 1651
2890 2 1633 1649 1650 1669
2891 2 1643 1649 1650 1651
2892 2 1643 1649 1650 1669
2893 3 1649 1650 1651 977
2894 3 1649 1650 1651 1652
2895 3 1669 1650 1651 977
2896 3 1669 1650 1651 1652
2897 3 1649 1650 1669 923
2898 3 1649 1650 1669 1670
2899 3 1651 1650 1669 923
2900 3 1651 1650 1669 1670
2901 2 1636 1689 1690 1691
2902 2 1636 1689 1690 1695
2903 2 1648 1689 1690 1691
2904 2 1648 1689 1690 1695
2905 3 1689 1690 1691 3106
2906 3 1689 1690 1691 1692
2907 3 1695 1690 1691 3106
2908 3 1695 1690 1691 1692
2909 3 1689 1690 1695 3073
2910 3 1689 1690 1695 1696
2911 3 1691 1690 1695 3073
2912 3 1691 1690 1695 1696
2913 1 911 913 914 915
2914 1 911 913 914 973
2915 2 913 914 915 916
2916 2 913 914 915 974
2917 2 973 914 915 916
2918 2 973 914 915 974
2919 1 913 914 973 943
2920 1 915 914 973 943
2921 3 914 915 916 917
2922 3 914 915 916 1671
2923 3 974 915 916 917
2924 3 974 915 916 1671
2925 3 914 915 974 975
2926 3 914 915 974 1655
2927 3 916 915 974 975
2928 3 916 915 974 1655
2929 3 915 916 1671 1654
2930 3 915 916 1671 1672
2931 3 917 916 1671 1654
2932 3 917 916 1671 1672
2933 1 943 944 945 946
2934 1 943 944 945 994
2935 2 944 945 946 947
2936 2 944 945 946 995
2937 2 994 945 946 947
2938 2 994 945 946 995
2939 1 944 945 994 955
2940 1 946 945 994 955
2941 3 945 946 947 32
2942 3 945 946 947 948
2943 3 995 946 947 32
2944 3 995 946 947 948
2945 3 945 946 995 24
2946 3 945 946 995 996
2947 3 947 946 995 24
2948 3 947 946 995 996
2949 1 955 956 957 958
2950 1 955 956 957 988
2951 2 956 957 958 959
2952 2 956 957 958 989
2953 2 988 957 958 959
2954 2 988 957 958 989
2955 1 956 957 988 911
2956 1 958 957 988 911
2957 3 957 958 959 960
2958 3 957 958 959 2965
2959 3 989 958 959 960
2960 3 989 958 959 2965
2961 3 957 958 989 990
2962 3 957 958 989 2959
2963 3 959 958 989 990
2964 3 959 958 989 2959
2965 3 958 959 2965 2958
2966 3 958 959 2965 2966
2967 3 960 959 2965 2958
2968 3 960 959 2965 2966
2969 3 915 974 1655 1654
2970 3 915 974 1655 1656
2971 3 975 974 1655 1654
2972 3 975 974 1655 1656
2973 3 958 989 2959 2958
2974 3 958 989 2959 2960
2975 3 990 989 2959 2958
2976 3 990 989 2959 2960
2977 1 955 1053 1054 1055
2978 1 955 1053 1054 1100
2979 2 1053 1054 1055 1056
2980 2 1053 1054 1055 1101
2981 2 1100 1054 1055 1056
2982 2 1100 1054 1055 1101
2983 1 1053 1054 1100 1073
2984 1 1055 1054 1100 1073
2985 3 1054 1055 1056 1057
2986 3 1054 1055 1056 1125
2987 3 1101 1055 1056 1057
2988 3 1101 1055 1056 1125
2989 3 1054 1055 1101 1013
2990 3 1054 1055 1101 1102
2991 3 1056 1055 1101 1013
2992 3 1056 1055 1101 1102
2993 3 1055 1056 1125 1012
2994 3 1055 1056 1125 1126
2995 3 1057 1056 1125 1012
2996 3 1057 1056 1125 1126
2997 1 1073 1074 1075 1076
2998 1 1073 1074 1075 1118
2999 2 1074 1075 1076 1077
3000 2 1074 1075 1076 1119
3001 2 1118 1075 1076 1077
3002 2 1118 1075 1076 1119
3003 1 1074 1075 1118 911
3004 1 1076 1075 1118 911
3005 3 1075 1076 1077 1078
3006 3 1075 1076 1077 1137
3007 3 1119 1076 1077 1078
3008 3 1119 1076 1077 1137
3009 3 1075 1076 1119 1046
3010 3 1075 1076 1119 1120
3011 3 1077 1076 1119 1046
3012 3 1077 1076 1119 1120
3013 3 1076 1077 1137 1045
3014 3 1076 1077 1137 1138
3015 3 1078 1077 1137 1045
3016 3 1078 1077 1137 1138
3017 1 1021 1150 1151 1152
3018 1 1021 1150 1151 1203
3019 2 1150 1151 1152 1153
3020 2 1150 1151 1152 1204
3021 2 1203 1151 1152 1153
3022 2 1203 1151 1152 1204
3023 1 1150 1151 1203 894
3024 1 1152 1151 1203 894
3025 3 1151 1152 1153 1154
3026 3 1151 1152 1153 1186
3027 3 1204 1152 1153 1154
3028 3 1204 1152 1153 1186
3029 3 1151 1152 1204 1183
3030 3 1151 1152 1204 1205
3031 3 1153 1152 1204 1183
3032 3 1153 1152 1204 1205
3033 3 1152 1153 1186 1182
3034 3 1152 1153 1186 1187
3035 3 1154 1153 1186 1182
3036 3 1154 1153 1186 1187
3037 1 943 1180 1181 1182
3038 1 943 1180 1181 1185
3039 2 1180 1181 1182 1183
3040 2 1180 1181 1182 1186
3041 2 1185 1181 1182 1183
3042 2 1185 1181 1182 1186
3043 1 1180 1181 1185 1073
3044 1 1182 1181 1185 1073
3045 3 1181 1182 1183 1184
3046 3 1181 1182 1183 1204
3047 3 1186 1182 1183 1184
3048 3 1186 1182 1183 1204
3049 3 1181 1182 1186 1153
3050 3 1181 1182 1186 1187
3051 3 1183 1182 1186 1153
3052 3 1183 1182 1186 1187
3053 3 1182 1183 1204 1152
3054 3 1182 1183 1204 1205
3055 3 1184 1183 1204 1152
3056 3 1184 1183 1204 1205
3057 1 894 896 897 898
3058 1 894 896 897 1003
3059 2 896 897 898 899
3060 2 896 897 898 1004
3061 2 1003 897 898 899
3062 2 1003 897 898 1004
3063 1 896 897 1003 904
3064 1 898 897 1003 904
3065 3 897 898 899 900
3066 3 897 898 899 1665
3067 3 1004 898 899 900
3068 3 1004 898 899 1665
3069 3 897 898 1004 1005
3070 3 897 898 1004 1663
3071 3 899 898 1004 1005
3072 3 899 898 1004 1663
3073 3 898 899 1665 1662
3074 3 898 899 1665 1666
3075 3 900 899 1665 1662
3076 3 900 899 1665 1666
3077 3 898 1004 1663 1662
3078 3 898 1004 1663 1664
3079 3 1005 1004 1663 1662
3080 3 1005 1004 1663 1664
3081 1 1021 1022 1023 1024
3082 1 1021 1022 1023 1127
3083 2 1022 1023 1024 1025
3084 2 1022 1023 1024 1128
3085 2 1127 1023 1024 1025
3086 2 1127 1023 1024 1128
3087 1 1022 1023 1127 906
3088 1 1024 1023 1127 906
3089 3 1023 1024 1025 1026
3090 3 1023 1024 1025 1107
3091 3 1128 1024 1025 1026
3092 3 1128 1024 1025 1107
3093 3 1023 1024 1128 1071
3094 3 1023 1024 1128 1129
3095 3 1025 1024 1128 1071
3096 3 1025 1024 1128 1129
3097 3 1024 1025 1107 1070
3098 3 1024 1025 1107 1108
3099 3 1026 1025 1107 1070
3100 3 1026 1025 1107 1108
3101 1 904 1038 1039 1040
3102 1 904 1038 1039 1142
3103 2 1038 1039 1040 1041
3104 2 1038 1039 1040 1143
3105 2 1142 1039 1040 1041
3106 2 1142 1039 1040 1143
3107 1 1038 1039 1142 1021
3108 1 1040 1039 1142 1021
3109 3 1039 1040 1041 1042
3110 3 1039 1040 1041 1110
3111 3 1143 1040 1041 1042
3112 3 1143 1040 1041 1110
3113 3 1039 1040 1143 1089
3114 3 1039 1040 1143 1144
3115 3 1041 1040 1143 1089
3116 3 1041 1040 1143 1144
3117 3 1040 1041 1110 1088
3118 3 1040 1041 1110 1111
3119 3 1042 1041 1110 1088
3120 3 1042 1041 1110 1111
3121 1 904 1211 1261 1223
3122 1 904 1211 1261 1262
3123 1 906 1214 1253 1221
3124 1 906 1214 1253 1254
3125 1 894 1221 1253 1214
3126 1 894 1221 1253 1254
3127 1 906 1223 1261 1211
3128 1 906 1223 1261 1262
3129 2 1214 1253 1254 1255
3130 2 1214 1253 1254 1257
3131 2 1221 1253 1254 1255
3132 2 1221 1253 1254 1257
3133 3 1253 1254 1255 150
3134 3 1253 1254 1255 1256
3135 3 1257 1254 1255 150
3136 3 1257 1254 1255 1256
3137 3 1253 1254 1257 87
3138 3 1253 1254 1257 1258
3139 3 1255 1254 1257 87
3140 3 1255 1254 1257 1258
3141 2 1211 1261 1262 1263
3142 2 1211 1261 1262 1269
3143 2 1223 1261 1262 1263
3144 2 1223 1261 1262 1269
3145 3 1261 1262 1263 2685
3146 3 1261 1262 1263 1264
3147 3 1269 1262 1263 2685
3148 3 1269 1262 1263 1264
3149 3 1261 1262 1269 2655
3150 3 1261 1262 1269 1270
3151 3 1263 1262 1269 2655
3152 3 1263 1262 1269 1270
3153 1 866 854 855 856
3154 1 866 854 855 859
3155 2 854 855 856 857
3156 2 854 855 856 860
3157 2 859 855 856 857
3158 2 859 855 856 860
3159 1 854 855 859 868
3160 1 856 855 859 868
3161 3 855 856 857 858
3162 3 855 856 857 2676
3163 3 860 856 857 858
3164 3 860 856 857 2676
3165 3 855 856 860 861
3166 3 855 856 860 2667
3167 3 857 856 860 861
3168 3 857 856 860 2667
3169 3 856 857 2676 2666
3170 3 856 857 2676 2677
3171 3 858 857 2676 2666
3172 3 858 857 2676 2677
3173 3 856 860 2667 2666
3174 3 856 860 2667 2668
3175 3 861 860 2667 2666
3176 3 861 860 2667 2668
3177 1 1009 1010 1011 1012
3178 1 1009 1010 1011 1124
3179 2 1010 1011 1012 1013
3180 2 1010 1011 1012 1125
3181 2 1124 1011 1012 1013
3182 2 1124 1011 1012 1125
3183 1 1010 1011 1124 868
3184 1 1012 1011 1124 868
3185 3 1011 1012 1013 1014
3186 3 1011 1012 1013 1101
3187 3 1125 1012 1013 1014
3188 3 1125 1012 1013 1101
3189 3 1011 1012 1125 1056
3190 3 1011 1012 1125 1126
3191 3 1013 1012 1125 1056
3192 3 1013 1012 1125 1126
3193 3 1012 1013 1101 1055
3194 3 1012 1013 1101 1102
3195 3 1014 1013 1101 1055
3196 3 1014 1013 1101 1102
3197 1 866 1033 1034 1035
3198 1 866 1033 1034 1139
3199 2 1033 1034 1035 1036
3200 2 1033 1034 1035 1140
3201 2 1139 1034 1035 1036
3202 2 1139 1034 1035 1140
3203 1 1033 1034 1139 1009
3204 1 1035 1034 1139 1009
3205 3 1034 1035 1036 1037
3206 3 1034 1035 1036 1113
3207 3 1140 1035 1036 1037
3208 3 1140 1035 1036 1113
3209 3 1034 1035 1140 1095
3210 3 1034 1035 1140 1141
3211 3 1036 1035 1140 1095
3212 3 1036 1035 1140 1141
3213 3 1035 1036 1113 1094
3214 3 1035 1036 1113 1114
3215 3 1037 1036 1113 1094
3216 3 1037 1036 1113 1114
3217 1 902 1210 1229 1220
3218 1 902 1210 1229 1230
3219 1 868 1213 1249 1222
3220 1 868 1213 1249 1250
3221 1 866 1220 1229 1210
3222 1 866 1220 1229 1230
3223 1 902 1222 1249 1213
3224 1 902 1222 1249 1250
3225 2 1210 1229 1230 1231
3226 2 1210 1229 1230 1247
3227 2 1220 1229 1230 1231
3228 2 1220 1229 1230 1247
3229 3 1229 1230 1231 1398
3230 3 1229 1230 1231 1232
3231 3 1247 1230 1231 1398
3232 3 1247 1230 1231 1232
3233 3 1229 1230 1247 1340
3234 3 1229 1230 1247 1248
3235 3 1231 1230 1247 1340
3236 3 1231 1230 1247 1248
3237 2 1213 1249 1250 1251
3238 2 1213 1249 1250 1259
3239 2 1222 1249 1250 1251
3240 2 1222 1249 1250 1259
3241 3 1249 1250 1251 153
3242 3 1249 1250 1251 1252
3243 3 1259 1250 1251 153
3244 3 1259 1250 1251 1252
3245 3 1249 1250 1259 81
3246 3 1249 1250 1259 1260
3247 3 1251 1250 1259 81
3248 3 1251 1250 1259 1260
3249 1 1009 1155 1156 1157
3250 1 1009 1155 1156 1197
3251 2 1155 1156 1157 1158
3252 2 1155 1156 1157 1198
3253 2 1197 1156 1157 1158
3254 2 1197 1156 1157 1198
3255 1 1155 1156 1197 902
3256 1 1157 1156 1197 902
3257 3 1156 1157 1158 1159
3258 3 1156 1157 1158 1195
3259 3 1198 1157 1158 1159
3260 3 1198 1157 1158 1195
3261 3 1156 1157 1198 1173
3262 3 1156 1157 1198 1199
3263 3 1158 1157 1198 1173
3264 3 1158 1157 1198 1199
3265 3 1157 1158 1195 1172
3266 3 1157 1158 1195 1196
3267 3 1159 1158 1195 1172
3268 3 1159 1158 1195 1196
3269 1 937 1170 1171 1172
3270 1 937 1170 1171 1194
3271 2 1170 1171 1172 1173
3272 2 1170 1171 1172 1195
3273 2 1194 1171 1172 1173
3274 2 1194 1171 1172 1195
3275 1 1170 1171 1194 1079
3276 1 1172 1171 1194 1079
3277 3 1171 1172 1173 1174
3278 3 1171 1172 1173 1198
3279 3 1195 1172 1173 1174
3280 3 1195 1172 1173 1198
3281 3 1171 1172 1195 1158
3282 3 1171 1172 1195 1196
3283 3 1173 1172 1195 1158
3284 3 1173 1172 1195 1196
3285 3 1172 1173 1198 1157
3286 3 1172 1173 1198 1199
3287 3 1174 1173 1198 1157
3288 3 1174 1173 1198 1199
3289 1 937 938 939 940
3290 1 937 938 939 991
3291 2 938 939 940 941
3292 2 938 939 940 992
3293 2 991 939 940 941
3294 2 991 939 940 992
3295 1 938 939 991 967
3296 1 940 939 991 967
3297 3 939 940 941 35
3298 3 939 940 941 942
3299 3 992 940 941 35
3300 3 992 940 941 942
3301 3 939 940 992 29
3302 3 939 940 992 993
3303 3 941 940 992 29
3304 3 941 940 992 993
3305 1 967 968 969 970
3306 1 967 968 969 979
3307 2 968 969 970 971
3308 2 968 969 970 980
3309 2 979 969 970 971
3310 2 979 969 970 980
3311 1 968 969 979 909
3312 1 970 969 979 909
3313 3 969 970 971 2556
3314 3 969 970 971 972
3315 3 980 970 971 2556
3316 3 980 970 971 972
3317 3 969 970 980 2553
3318 3 969 970 980 981
3319 3 971 970 980 2553
3320 3 971 970 980 981
3321 1 967 1068 1069 1070
3322 1 967 1068 1069 1106
3323 2 1068 1069 1070 1071
3324 2 1068 1069 1070 1107
3325 2 1106 1069 1070 1071
3326 2 1106 1069 1070 1107
3327 1 1068 1069 1106 1079
3328 1 1070 1069 1106 1079
3329 3 1069 1070 1071 1072
3330 3 1069 1070 1071 1128
3331 3 1107 1070 1071 1072
3332 3 1107 1070 1071 1128
3333 3 1069 1070 1107 1025
3334 3 1069 1070 1107 1108
3335 3 1071 1070 1107 1025
3336 3 1071 1070 1107 1108
3337 3 1070 1071 1128 1024
3338 3 1070 1071 1128 1129
3339 3 1072 1071 1128 1024
3340 3 1072 1071 1128 1129
3341 1 1079 1080 1081 1082
3342 1 1079 1080 1081 1115
3343 2 1080 1081 1082 1083
3344 2 1080 1081 1082 1116
3345 2 1115 1081 1082 1083
3346 2 1115 1081 1082 1116
3347 1 1080 1081 1115 909
3348 1 1082 1081 1115 909
3349 3 1081 1082 1083 1084
3350 3 1081 1082 1083 1134
3351 3 1116 1082 1083 1084
3352 3 1116 1082 1083 1134
3353 3 1081 1082 1116 1051
3354 3 1081 1082 1116 1117
3355 3 1083 1082 1116 1051
3356 3 1083 1082 1116 1117
3357 3 1082 1083 1134 1050
3358 3 1082 1083 1134 1135
3359 3 1084 1083 1134 1050
3360 3 1084 1083 1134 1135
3361 1 909 1216 1237 1217
3362 1 909 1216 1237 1238
3363 1 937 1217 1237 1216
3364 1 937 1217 1237 1238
3365 2 1216 1237 1238 1239
3366 2 1216 1237 1238 1241
3367 2 1217 1237 1238 1239
3368 2 1217 1237 1238 1241
3369 3 1237 1238 1239 1428
3370 3 1237 1238 1239 1240
3371 3 1241 1238 1239 1428
3372 3 1241 1238 1239 1240
3373 3 1237 1238 1241 1323
3374 3 1237 1238 1241 1242
3375 3 1239 1238 1241 1323
3376 3 1239 1238 1241 1242
3377 1 1335 1337 1338 1339
3378 1 1335 1337 1338 1397
3379 2 1337 1338 1339 1340
3380 2 1337 1338 1339 1398
3381 2 1397 1338 1339 1340
3382 2 1397 1338 1339 1398
3383 1 1337 1338 1397 1367
3384 1 1339 1338 1397 1367
3385 3 1338 1339 1340 1341
3386 3 1338 1339 1340 1247
3387 3 1398 1339 1340 1341
3388 3 1398 1339 1340 1247
3389 3 1338 1339 1398 1399
3390 3 1338 1339 1398 1231
3391 3 1340 1339 1398 1399
3392 3 1340 1339 1398 1231
3393 3 1339 1340 1247 1230
3394 3 1339 1340 1247 1248
3395 3 1341 1340 1247 1230
3396 3 1341 1340 1247 1248
3397 1 1367 1368 1369 1370
3398 1 1367 1368 1369 1418
3399 2 1368 1369 1370 1371
3400 2 1368 1369 1370 1419
3401 2 1418 1369 1370 1371
3402 2 1418 1369 1370 1419
3403 1 1368 1369 1418 1379
3404 1 1370 1369 1418 1379
3405 3 1369 1370 1371 456
3406 3 1369 1370 1371 1372
3407 3 1419 1370 1371 456
3408 3 1419 1370 1371 1372
3409 3 1369 1370 1419 448
3410 3 1369 1370 1419 1420
3411 3 1371 1370 1419 448
3412 3 1371 1370 1419 1420
3413 1 1379 1380 1381 1382
3414 1 1379 1380 1381 1412
3415 2 1380 1381 1382 1383
3416 2 1380 1381 1382 1413
3417 2 1412 1381 1382 1383
3418 2 1412 1381 1382 1413
3419 1 1380 1381 1412 1335
3420 1 1382 1381 1412 1335
3421 3 1381 1382 1383 1384
3422 3 1381 1382 1383 3389
3423 3 1413 1382 1383 1384
3424 3 1413 1382 1383 3389
3425 3 1381 1382 1413 1414
3426 3 1381 1382 1413 3383
3427 3 1383 1382 1413 1414
3428 3 1383 1382 1413 3383
3429 3 1382 1383 3389 3382
3430 3 1382 1383 3389 3390
3431 3 1384 1383 3389 3382
3432 3 1384 1383 3389 3390
3433 3 1339 1398 1231 1230
3434 3 1339 1398 1231 1232
3435 3 1399 1398 1231 1230
3436 3 1399 1398 1231 1232
3437 3 1382 1413 3383 3382
3438 3 1382 1413 3383 3384
3439 3 1414 1413 3383 3382
3440 3 1414 1413 3383 3384
3441 1 1379 1477 1478 1479
3442 1 1379 1477 1478 1524
3443 2 1477 1478 1479 1480
3444 2 1477 1478 1479 1525
3445 2 1524 1478 1479 1480
3446 2 1524 1478 1479 1525
3447 1 1477 1478 1524 1497
3448 1 1479 1478 1524 1497
3449 3 1478 1479 1480 1481
3450 3 1478 1479 1480 1549
3451 3 1525 1479 1480 1481
3452 3 1525 1479 1480 1549
3453 3 1478 1479 1525 1437
3454 3 1478 1479 1525 1526
3455 3 1480 1479 1525 1437
3456 3 1480 1479 1525 1526
3457 3 1479 1480 1549 1436
3458 3 1479 1480 1549 1550
3459 3 1481 1480 1549 1436
3460 3 1481 1480 1549 1550
3461 1 1497 1498 1499 1500
3462 1 1497 1498 1499 1542
3463 2 1498 1499 1500 1501
3464 2 1498 1499 1500 1543
3465 2 1542 1499 1500 1501
3466 2 1542 1499 1500 1543
3467 1 1498 1499 1542 1335
3468 1 1500 1499 1542 1335
3469 3 1499 1500 1501 1502
3470 3 1499 1500 1501 1561
3471 3 1543 1500 1501 1502
3472 3 1543 1500 1501 1561
3473 3 1499 1500 1543 1470
3474 3 1499 1500 1543 1544
3475 3 1501 1500 1543 1470
3476 3 1501 1500 1543 1544
3477 3 1500 1501 1561 1469
3478 3 1500 1501 1561 1562
3479 3 1502 1501 1561 1469
3480 3 1502 1501 1561 1562
3481 1 1445 1574 1575 1576
3482 1 1445 1574 1575 1627
3483 2 1574 1575 1576 1577
3484 2 1574 1575 1576 1628
3485 2 1627 1575 1576 1577
3486 2 1627 1575 1576 1628
3487 1 1574 1575 1627 1318
3488 1 1576 1575 1627 1318
3489 3 1575 1576 1577 1578
3490 3 1575 1576 1577 1610
3491 3 1628 1576 1577 1578
3492 3 1628 1576 1577 1610
3493 3 1575 1576 1628 1607
3494 3 1575 1576 1628 1629
3495 3 1577 1576 1628 1607
3496 3 1577 1576 1628 1629
3497 3 1576 1577 1610 1606
3498 3 1576 1577 1610 1611
3499 3 1578 1577 1610 1606
3500 3 1578 1577 1610 1611
3501 1 1367 1604 1605 1606
3502 1 1367 1604 1605 1609
3503 2 1604 1605 1606 1607
3504 2 1604 1605 1606 1610
3505 2 1609 1605 1606 1607
3506 2 1609 1605 1606 1610
3507 1 1604 1605 1609 1497
3508 1 1606 1605 1609 1497
3509 3 1605 1606 1607 1608
3510 3 1605 1606 1607 1628
3511 3 1610 1606 1607 1608
3512 3 1610 1606 1607 1628
3513 3 1605 1606 1610 1577
3514 3 1605 1606 1610 1611
3515 3 1607 1606 1610 1577
3516 3 1607 1606 1610 1611
3517 3 1606 1607 1628 1576
3518 3 1606 1607 1628 1629
3519 3 1608 1607 1628 1576
3520 3 1608 1607 1628 1629
3521 1 1318 1320 1321 1322
3522 1 1318 1320 1321 1427
3523 2 1320 1321 1322 1323
3524 2 1320 1321 1322 1428
3525 2 1427 1321 1322 1323
3526 2 1427 1321 1322 1428
3527 1 1320 1321 1427 1328
3528 1 1322 1321 1427 1328
3529 3 1321 1322 1323 1324
3530 3 1321 1322 1323 1241
3531 3 1428 1322 1323 1324
3532 3 1428 1322 1323 1241
3533 3 1321 1322 1428 1429
3534 3 1321 1322 1428 1239
3535 3 1323 1322 1428 1429
3536 3 1323 1322 1428 1239
3537 3 1322 1323 1241 1238
3538 3 1322 1323 1241 1242
3539 3 1324 1323 1241 1238
3540 3 1324 1323 1241 1242
3541 3 1322 1428 1239 1238
3542 3 1322 1428 1239 1240
3543 3 1429 1428 1239 1238
3544 3 1429 1428 1239 1240
3545 1 1445 1446 1447 1448
3546 1 1445 1446 1447 1551
3547 2 1446 1447 1448 1449
3548 2 1446 1447 1448 1552
3549 2 1551 1447 1448 1449
3550 2 1551 1447 1448 1552
3551 1 1446 1447 1551 1330
3552 1 1448 1447 1551 1330
3553 3 1447 1448 1449 1450
3554 3 1447 1448 1449 1531
3555 3 1552 1448 1449 1450
3556 3 1552 1448 1449 1531
3557 3 1447 1448 1552 1495
3558 3 1447 1448 1552 1553
3559 3 1449 1448 1552 1495
3560 3 1449 1448 1552 1553
3561 3 1448 1449 1531 1494
3562 3 1448 1449 1531 1532
3563 3 1450 1449 1531 1494
3564 3 1450 1449 1531 1532
3565 1 1328 1462 1463 1464
3566 1 1328 1462 1463 1566
3567 2 1462 1463 1464 1465
3568 2 1462 1463 1464 1567
3569 2 1566 1463 1464 1465
3570 2 1566 1463 1464 1567
3571 1 1462 1463 1566 1445
3572 1 1464 1463 1566 1445
3573 3 1463 1464 1465 1466
3574 3 1463 1464 1465 1534
3575 3 1567 1464 1465 1466
3576 3 1567 1464 1465 1534
3577 3 1463 1464 1567 1513
3578 3 1463 1464 1567 1568
3579 3 1465 1464 1567 1513
3580 3 1465 1464 1567 1568
3581 3 1464 1465 1534 1512
3582 3 1464 1465 1534 1535
3583 3 1466 1465 1534 1512
3584 3 1466 1465 1534 1535
3585 1 1328 1635 1685 1647
3586 1 1328 1635 1685 1686
3587 1 1330 1638 1677 1645
3588 1 1330 1638 1677 1678
3589 1 1318 1645 1677 1638
3590 1 1318 1645 1677 1678
3591 1 1330 1647 1685 1635
3592 1 1330 1647 1685 1686
3593 2 1638 1677 1678 1679
3594 2 1638 1677 1678 1681
3595 2 1645 1677 1678 1679
3596 2 1645 1677 1678 1681
3597 3 1677 1678 1679 574
3598 3 1677 1678 1679 1680
3599 3 1681 1678 1679 574
3600 3 1681 1678 1679 1680
3601 3 1677 1678 1681 511
3602 3 1677 1678 1681 1682
3603 3 1679 1678 1681 511
3604 3 1679 1678 1681 1682
3605 2 1635 1685 1686 1687
3606 2 1635 1685 1686 1693
3607 2 1647 1685 1686 1687
3608 2 1647 1685 1686 1693
3609 3 1685 1686 1687 3109
3610 3 1685 1686 1687 1688
3611 3 1693 1686 1687 3109
3612 3 1693 1686 1687 1688
3613 3 1685 1686 1693 3079
3614 3 1685 1686 1693 1694
3615 3 1687 1686 1693 3079
3616 3 1687 1686 1693 1694
3617 1 1290 1278 1279 1280
3618 1 1290 1278 1279 1283
3619 2 1278 1279 1280 1281
3620 2 1278 1279 1280 1284
3621 2 1283 1279 1280 1281
3622 2 1283 1279 1280 1284
3623 1 1278 1279 1283 1292
3624 1 1280 1279 1283 1292
3625 3 1279 1280 1281 1282
3626 3 1279 1280 1281 3100
3627 3 1284 1280 1281 1282
3628 3 1284 1280 1281 3100
3629 3 1279 1280 1284 1285
3630 3 1279 1280 1284 3091
3631 3 1281 1280 1284 1285
3632 3 1281 1280 1284 3091
3633 3 1280 1281 3100 3090
3634 3 1280 1281 3100 3101
3635 3 1282 1281 3100 3090
3636 3 1282 1281 3100 3101
3637 3 1280 1284 3091 3090
3638 3 1280 1284 3091 3092
3639 3 1285 1284 3091 3090
3640 3 1285 1284 3091 3092
3641 1 1433 1434 1435 1436
3642 1 1433 1434 1435 1548
3643 2 1434 1435 1436 1437
3644 2 1434 1435 1436 1549
3645 2 1548 1435 1436 1437
3646 2 1548 1435 1436 1549
3647 1 1434 1435 1548 1292
3648 1 1436 1435 1548 1292
3649 3 1435 1436 1437 1438
3650 3 1435 1436 1437 1525
3651 3 1549 1436 1437 1438
3652 3 1549 1436 1437 1525
3653 3 1435 1436 1549 1480
3654 3 1435 1436 1549 1550
3655 3 1437 1436 1549 1480
3656 3 1437 1436 1549 1550
3657 3 1436 1437 1525 1479
3658 3 1436 1437 1525 1526
3659 3 1438 1437 1525 1479
3660 3 1438 1437 1525 1526
3661 1 1290 1457 1458 1459
3662 1 1290 1457 1458 1563
3663 2 1457 1458 1459 1460
3664 2 1457 1458 1459 1564
3665 2 1563 1458 1459 1460
3666 2 1563 1458 1459 1564
3667 1 1457 1458 1563 1433
3668 1 1459 1458 1563 1433
3669 3 1458 1459 1460 1461
3670 3 1458 1459 1460 1537
3671 3 1564 1459 1460 1461
3672 3 1564 1459 1460 1537
3673 3 1458 1459 1564 1519
3674 3 1458 1459 1564 1565
3675 3 1460 1459 1564 1519
3676 3 1460 1459 1564 1565
3677 3 1459 1460 1537 1518
3678 3 1459 1460 1537 1538
3679 3 1461 1460 1537 1518
3680 3 1461 1460 1537 1538
3681 1 1326 1634 1653 1644
3682 1 1326 1634 1653 1654
3683 1 1292 1637 1673 1646
3684 1 1292 1637 1673 1674
3685 1 1290 1644 1653 1634
3686 1 1290 1644 1653 1654
3687 1 1326 1646 1673 1637
3688 1 1326 1646 1673 1674
3689 2 1634 1653 1654 1655
3690 2 1634 1653 1654 1671
3691 2 1644 1653 1654 1655
3692 2 1644 1653 1654 1671
3693 3 1653 1654 1655 974
3694 3 1653 1654 1655 1656
3695 3 1671 1654 1655 974
3696 3 1671 1654 1655 1656
3697 3 1653 1654 1671 916
3698 3 1653 1654 1671 1672
3699 3 1655 1654 1671 916
3700 3 1655 1654 1671 1672
3701 2 1637 1673 1674 1675
3702 2 1637 1673 1674 1683
3703 2 1646 1673 1674 1675
3704 2 1646 1673 1674 1683
3705 3 1673 1674 1675 577
3706 3 1673 1674 1675 1676
3707 3 1683 1674 1675 577
3708 3 1683 1674 1675 1676
3709 3 1673 1674 1683 505
3710 3 1673 1674 1683 1684
3711 3 1675 1674 1683 505
3712 3 1675 1674 1683 1684
3713 1 1433 1579 1580 1581
3714 1 1433 1579 1580 1621
3715 2 1579 1580 1581 1582
3716 2 1579 1580 1581 1622
3717 2 1621 1580 1581 1582
3718 2 1621 1580 1581 1622
3719 1 1579 1580 1621 1326
3720 1 1581 1580 1621 1326
3721 3 1580 1581 1582 1583
3722 3 1580 1581 1582 1619
3723 3 1622 1581 1582 1583
3724 3 1622 1581 1582 1619
3725 3 1580 1581 1622 1597
3726 3 1580 1581 1622 1623
3727 3 1582 1581 1622 1597
3728 3 1582 1581 1622 1623
3729 3 1581 1582 1619 1596
3730 3 1581 1582 1619 1620
3731 3 1583 1582 1619 1596
3732 3 1583 1582 1619 1620
3733 1 1361 1594 1595 1596
3734 1 1361 1594 1595 1618
3735 2 1594 1595 1596 1597
3736 2 1594 1595 1596 1619
3737 2 1618 1595 1596 1597
3738 2 1618 1595 1596 1619
3739 1 1594 1595 1618 1503
3740 1 1596 1595 1618 1503
3741 3 1595 1596 1597 1598
3742 3 1595 1596 1597 1622
3743 3 1619 1596 1597 1598
3744 3 1619 1596 1597 1622
3745 3 1595 1596 1619 1582
3746 3 1595 1596 1619 1620
3747 3 1597 1596 1619 1582
3748 3 1597 1596 1619 1620
3749 3 1596 1597 1622 1581
3750 3 1596 1597 1622 1623
3751 3 1598 1597 1622 1581
3752 3 1598 1597 1622 1623
3753 1 1361 1362 1363 1364
3754 1 1361 1362 1363 1415
3755 2 1362 1363 1364 1365
3756 2 1362 1363 1364 1416
3757 2 1415 1363 1364 1365
3758 2 1415 1363 1364 1416
3759 1 1362 1363 1415 1391
3760 1 1364 1363 1415 1391
3761 3 1363 1364 1365 459
3762 3 1363 1364 1365 1366
3763 3 1416 1364 1365 459
3764 3 1416 1364 1365 1366
3765 3 1363 1364 1416 453
3766 3 1363 1364 1416 1417
3767 3 1365 1364 1416 453
3768 3 1365 1364 1416 1417
3769 1 1391 1392 1393 1394
3770 1 1391 1392 1393 1403
3771 2 1392 1393 1394 1395
3772 2 1392 1393 1394 1404
3773 2 1403 1393 1394 1395
3774 2 1403 1393 1394 1404
3775 1 1392 1393 1403 1333
3776 1 1394 1393 1403 1333
3777 3 1393 1394 1395 2980
3778 3 1393 1394 1395 1396
3779 3 1404 1394 1395 2980
3780 3 1404 1394 1395 1396
3781 3 1393 1394 1404 2977
3782 3 1393 1394 1404 1405
3783 3 1395 1394 1404 2977
3784 3 1395 1394 1404 1405
3785 1 1391 1492 1493 1494
3786 1 1391 1492 1493 1530
3787 2 1492 1493 1494 1495
3788 2 1492 1493 1494 1531
3789 2 1530 1493 1494 1495
3790 2 1530 1493 1494 1531
3791 1 1492 1493 1530 1503
3792 1 1494 1493 1530 1503
3793 3 1493 1494 1495 1496
3794 3 1493 1494 1495 1552
3795 3 1531 1494 1495 1496
3796 3 1531 1494 1495 1552
3797 3 1493 1494 1531 1449
3798 3 1493 1494 1531 1532
3799 3 1495 1494 1531 1449
3800 3 1495 1494 1531 1532
3801 3 1494 1495 1552 1448
3802 3 1494 1495 1552 1553
3803 3 1496 1495 1552 1448
3804 3 1496 1495 1552 1553
3805 1 1503 1504 1505 1506
3806 1 1503 1504 1505 1539
3807 2 1504 1505 1506 1507
3808 2 1504 1505 1506 1540
3809 2 1539 1505 1506 1507
3810 2 1539 1505 1506 1540
3811 1 1504 1505 1539 1333
3812 1 1506 1505 1539 1333
3813 3 1505 1506 1507 1508
3814 3 1505 1506 1507 1558
3815 3 1540 1506 1507 1508
3816 3 1540 1506 1507 1558
3817 3 1505 1506 1540 1475
3818 3 1505 1506 1540 1541
3819 3 1507 1506 1540 1475
3820 3 1507 1506 1540 1541
3821 3 1506 1507 1558 1474
3822 3 1506 1507 1558 1559
3823 3 1508 1507 1558 1474
3824 3 1508 1507 1558 1559
3825 1 1333 1640 1661 1641
3826 1 1333 1640 1661 1662
3827 1 1361 1641 1661 1640
3828 1 1361 1641 1661 1662
3829 2 1640 1661 1662 1663
3830 2 1640 1661 1662 1665
3831 2 1641 1661 1662 1663
3832 2 1641 1661 1662 1665
3833 3 1661 1662 1663 1004
3834 3 1661 1662 1663 1664
3835 3 1665 1662 1663 1004
3836 3 1665 1662 1663 1664
3837 3 1661 1662 1665 899
3838 3 1661 1662 1665 1666
3839 3 1663 1662 1665 899
3840 3 1663 1662 1665 1666
3841 1 1713 1697 1698 1699
3842 1 1713 1697 1698 1710
3843 2 1697 1698 1699 1700
3844 2 1697 1698 1699 1711
3845 2 1710 1698 1699 1700
3846 2 1710 1698 1699 1711
3847 1 1697 1698 1710 1715
3848 1 1699 1698 1710 1715
3849 3 1698 1699 1700 1701
3850 3 1698 1699 1700 135
3851 3 1711 1699 1700 1701
3852 3 1711 1699 1700 135
3853 3 1698 1699 1711 1712
3854 3 1698 1699 1711 117
3855 3 1700 1699 1711 1712
3856 3 1700 1699 1711 117
3857 3 1699 1700 135 116
3858 3 1699 1700 135 136
3859 3 1701 1700 135 116
3860 3 1701 1700 135 136
3861 3 1699 1711 117 116
3862 3 1699 1711 117 118
3863 3 1712 1711 117 116
3864 3 1712 1711 117 118
3865 1 1715 1717 1718 1719
3866 1 1715 1717 1718 1727
3867 2 1717 1718 1719 1720
3868 2 1717 1718 1719 1728
3869 2 1727 1718 1719 1720
3870 2 1727 1718 1719 1728
3871 1 1717 1718 1727 1733
3872 1 1719 1718 1727 1733
3873 3 1718 1719 1720 1721
3874 3 1718 1719 1720 2691
3875 3 1728 1719 1720 1721
3876 3 1728 1719 1720 2691
3877 3 1718 1719 1728 1729
3878 3 1718 1719 1728 2643
3879 3 1720 1719 1728 1729
3880 3 1720 1719 1728 2643
3881 3 1719 1720 2691 2642
3882 3 1719 1720 2691 2692
3883 3 1721 1720 2691 2642
3884 3 1721 1720 2691 2692
3885 3 1719 1728 2643 2642
3886 3 1719 1728 2643 2644
3887 3 1729 1728 2643 2642
3888 3 1729 1728 2643 2644
3889 1 1733 1737 1738 1739
3890 1 1733 1737 1738 1854
3891 2 1737 1738 1739 1740
3892 2 1737 1738 1739 1855
3893 2 1854 1738 1739 1740
3894 2 1854 1738 1739 1855
3895 1 1737 1738 1854 1713
3896 1 1739 1738 1854 1713
3897 3 1738 1739 1740 1741
3898 3 1738 1739 1740 2515
3899 3 1855 1739 1740 1741
3900 3 1855 1739 1740 2515
3901 3 1738 1739 1855 1856
3902 3 1738 1739 1855 2507
3903 3 1740 1739 1855 1856
3904 3 1740 1739 1855 2507
3905 3 1739 1740 2515 2506
3906 3 1739 1740 2515 2516
3907 3 1741 1740 2515 2506
3908 3 1741 1740 2515 2516
3909 3 1739 1855 2507 2506
3910 3 1739 1855 2507 2508
3911 3 1856 1855 2507 2506
3912 3 1856 1855 2507 2508
3913 1 1875 1876 1877 1878
3914 1 1875 1876 1877 1978
3915 2 1876 1877 1878 1879
3916 2 1876 1877 1878 1979
3917 2 1978 1877 1878 1879
3918 2 1978 1877 1878 1979
3919 1 1876 1877 1978 1715
3920 1 1878 1877 1978 1715
3921 3 1877 1878 1879 1880
3922 3 1877 1878 1879 1952
3923 3 1979 1878 1879 1880
3924 3 1979 1878 1879 1952
3925 3 1877 1878 1979 1914
3926 3 1877 1878 1979 1980
3927 3 1879 1878 1979 1914
3928 3 1879 1878 1979 1980
3929 3 1878 1879 1952 1913
3930 3 1878 1879 1952 1953
3931 3 1880 1879 1952 1913
3932 3 1880 1879 1952 1953
3933 1 1713 1891 1892 1893
3934 1 1713 1891 1892 1984
3935 2 1891 1892 1893 1894
3936 2 1891 1892 1893 1985
3937 2 1984 1892 1893 1894
3938 2 1984 1892 1893 1985
3939 1 1891 1892 1984 1875
3940 1 1893 1892 1984 1875
3941 3 1892 1893 1894 1895
3942 3 1892 1893 1894 1967
3943 3 1985 1893 1894 1895
3944 3 1985 1893 1894 1967
3945 3 1892 1893 1985 1925
3946 3 1892 1893 1985 1986
3947 3 1894 1893 1985 1925
3948 3 1894 1893 1985 1986
3949 3 1893 1894 1967 1924
3950 3 1893 1894 1967 1968
3951 3 1895 1894 1967 1924
3952 3 1895 1894 1967 1968
3953 1 1875 2008 2009 2010
3954 1 1875 2008 2009 2048
3955 2 2008 2009 2010 2011
3956 2 2008 2009 2010 2049
3957 2 2048 2009 2010 2011
3958 2 2048 2009 2010 2049
3959 1 2008 2009 2048 1733
3960 1 2010 2009 2048 1733
3961 3 2009 2010 2011 2012
3962 3 2009 2010 2011 2040
3963 3 2049 2010 2011 2012
3964 3 2049 2010 2011 2040
3965 3 2009 2010 2049 2016
3966 3 2009 2010 2049 2050
3967 3 2011 2010 2049 2016
3968 3 2011 2010 2049 2050
3969 3 2010 2011 2040 2015
3970 3 2010 2011 2040 2041
3971 3 2012 2011 2040 2015
3972 3 2012 2011 2040 2041
3973 1 1779 2013 2014 2015
3974 1 1779 2013 2014 2039
3975 2 2013 2014 2015 2016
3976 2 2013 2014 2015 2040
3977 2 2039 2014 2015 2016
3978 2 2039 2014 2015 2040
3979 1 2013 2014 2039 1933
3980 1 2015 2014 2039 1933
3981 3 2014 2015 2016 2017
3982 3 2014 2015 2016 2049
3983 3 2040 2015 2016 2017
3984 3 2040 2015 2016 2049
3985 3 2014 2015 2040 2011
3986 3 2014 2015 2040 2041
3987 3 2016 2015 2040 2011
3988 3 2016 2015 2040 2041
3989 3 2015 2016 2049 2010
3990 3 2015 2016 2049 2050
3991 3 2017 2016 2049 2010
3992 3 2017 2016 2049 2050
3993 1 1766 1768 1769 1770
3994 1 1766 1768 1769 1824
3995 2 1768 1769 1770 1771
3996 2 1768 1769 1770 1825
3997 2 1824 1769 1770 1771
3998 2 1824 1769 1770 1825
3999 1 1768 1769 1824 1779
4000 1 1770 1769 1824 1779
4001 3 1769 1770 1771 1772
4002 3 1769 1770 1771 2517
4003 3 1825 1770 1771 1772
4004 3 1825 1770 1771 2517
4005 3 1769 1770 1825 1826
4006 3 1769 1770 1825 2499
4007 3 1771 1770 1825 1826
4008 3 1771 1770 1825 2499
4009 3 1770 1771 2517 2498
4010 3 1770 1771 2517 2518
4011 3 1772 1771 2517 2498
4012 3 1772 1771 2517 2518
4013 1 1779 1780 1781 1782
4014 1 1779 1780 1781 1845
4015 2 1780 1781 1782 1783
4016 2 1780 1781 1782 1846
4017 2 1845 1781 1782 1783
4018 2 1845 1781 1782 1846
4019 1 1780 1781 1845 1809
4020 1 1782 1781 1845 1809
4021 3 1781 1782 1783 1784
4022 3 1781 1782 1783 2953
4023 3 1846 1782 1783 1784
4024 3 1846 1782 1783 2953
4025 3 1781 1782 1846 1847
4026 3 1781 1782 1846 2951
4027 3 1783 1782 1846 1847
4028 3 1783 1782 1846 2951
4029 3 1782 1783 2953 2950
4030 3 1782 1783 2953 2954
4031 3 1784 1783 2953 2950
4032 3 1784 1783 2953 2954
4033 1 1809 1810 1811 1812
4034 1 1809 1810 1811 1830
4035 2 1810 1811 1812 1813
4036 2 1810 1811 1812 1831
4037 2 1830 1811 1812 1813
4038 2 1830 1811 1812 1831
4039 1 1810 1811 1830 1766
4040 1 1812 1811 1830 1766
4041 3 1811 1812 1813 15
4042 3 1811 1812 1813 1814
4043 3 1831 1812 1813 15
4044 3 1831 1812 1813 1814
4045 3 1811 1812 1831 4
4046 3 1811 1812 1831 1832
4047 3 1813 1812 1831 4
4048 3 1813 1812 1831 1832
4049 3 1770 1825 2499 2498
4050 3 1770 1825 2499 2500
4051 3 1826 1825 2499 2498
4052 3 1826 1825 2499 2500
4053 3 1782 1846 2951 2950
4054 3 1782 1846 2951 2952
4055 3 1847 1846 2951 2950
4056 3 1847 1846 2951 2952
4057 1 1809 1906 1907 1908
4058 1 1809 1906 1907 1945
4059 2 1906 1907 1908 1909
4060 2 1906 1907 1908 1946
4061 2 1945 1907 1908 1909
4062 2 1945 1907 1908 1946
4063 1 1906 1907 1945 1933
4064 1 1908 1907 1945 1933
4065 3 1907 1908 1909 1910
4066 3 1907 1908 1909 1970
4067 3 1946 1908 1909 1910
4068 3 1946 1908 1909 1970
4069 3 1907 1908 1946 1867
4070 3 1907 1908 1946 1947
4071 3 1909 1908 1946 1867
4072 3 1909 1908 1946 1947
4073 3 1908 1909 1970 1866
4074 3 1908 1909 1970 1971
4075 3 1910 1909 1970 1866
4076 3 1910 1909 1970 1971
4077 1 1933 1934 1935 1936
4078 1 1933 1934 1935 1957
4079 2 1934 1935 1936 1937
4080 2 1934 1935 1936 1958
4081 2 1957 1935 1936 1937
4082 2 1957 1935 1936 1958
4083 1 1934 1935 1957 1766
4084 1 1936 1935 1957 1766
4085 3 1935 1936 1937 1938
4086 3 1935 1936 1937 1991
4087 3 1958 1936 1937 1938
4088 3 1958 1936 1937 1991
4089 3 1935 1936 1958 1889
4090 3 1935 1936 1958 1959
4091 3 1937 1936 1958 1889
4092 3 1937 1936 1958 1959
4093 3 1936 1937 1991 1888
4094 3 1936 1937 1991 1992
4095 3 1938 1937 1991 1888
4096 3 1938 1937 1991 1992
4097 1 1773 1774 1775 1776
4098 1 1773 1774 1775 1848
4099 2 1774 1775 1776 1777
4100 2 1774 1775 1776 1849
4101 2 1848 1775 1776 1777
4102 2 1848 1775 1776 1849
4103 1 1774 1775 1848 1797
4104 1 1776 1775 1848 1797
4105 3 1775 1776 1777 1778
4106 3 1775 1776 1777 2955
4107 3 1849 1776 1777 1778
4108 3 1849 1776 1777 2955
4109 3 1775 1776 1849 1850
4110 3 1775 1776 1849 2947
4111 3 1777 1776 1849 1850
4112 3 1777 1776 1849 2947
4113 3 1776 1777 2955 2946
4114 3 1776 1777 2955 2956
4115 3 1778 1777 2955 2946
4116 3 1778 1777 2955 2956
4117 1 1797 1798 1799 1800
4118 1 1797 1798 1799 1833
4119 2 1798 1799 1800 1801
4120 2 1798 1799 1800 1834
4121 2 1833 1799 1800 1801
4122 2 1833 1799 1800 1834
4123 1 1798 1799 1833 1755
4124 1 1800 1799 1833 1755
4125 3 1799 1800 1801 1802
4126 3 1799 1800 1801 423
4127 3 1834 1800 1801 1802
4128 3 1834 1800 1801 423
4129 3 1799 1800 1834 1835
4130 3 1799 1800 1834 419
4131 3 1801 1800 1834 1835
4132 3 1801 1800 1834 419
4133 3 1800 1801 423 418
4134 3 1800 1801 423 424
4135 3 1802 1801 423 418
4136 3 1802 1801 423 424
4137 3 1800 1834 419 418
4138 3 1800 1834 419 420
4139 3 1835 1834 419 418
4140 3 1835 1834 419 420
4141 3 1776 1849 2947 2946
4142 3 1776 1849 2947 2948
4143 3 1850 1849 2947 2946
4144 3 1850 1849 2947 2948
4145 1 1797 1911 1912 1913
4146 1 1797 1911 1912 1951
4147 2 1911 1912 1913 1914
4148 2 1911 1912 1913 1952
4149 2 1951 1912 1913 1914
4150 2 1951 1912 1913 1952
4151 1 1911 1912 1951 1939
4152 1 1913 1912 1951 1939
4153 3 1912 1913 1914 1915
4154 3 1912 1913 1914 1979
4155 3 1952 1913 1914 1915
4156 3 1952 1913 1914 1979
4157 3 1912 1913 1952 1879
4158 3 1912 1913 1952 1953
4159 3 1914 1913 1952 1879
4160 3 1914 1913 1952 1953
4161 3 1913 1914 1979 1878
4162 3 1913 1914 1979 1980
4163 3 1915 1914 1979 1878
4164 3 1915 1914 1979 1980
4165 1 1939 1940 1941 1942
4166 1 1939 1940 1941 1960
4167 2 1940 1941 1942 1943
4168 2 1940 1941 1942 1961
4169 2 1960 1941 1942 1943
4170 2 1960 1941 1942 1961
4171 1 1940 1941 1960 1755
4172 1 1942 1941 1960 1755
4173 3 1941 1942 1943 1944
4174 3 1941 1942 1943 1988
4175 3 1961 1942 1943 1944
4176 3 1961 1942 1943 1988
4177 3 1941 1942 1961 1884
4178 3 1941 1942 1961 1962
4179 3 1943 1942 1961 1884
4180 3 1943 1942 1961 1962
4181 3 1942 1943 1988 1883
4182 3 1942 1943 1988 1989
4183 3 1944 1943 1988 1883
4184 3 1944 1943 1988 1989
4185 1 1755 2063 2081 2066
4186 1 1755 2063 2081 2082
4187 1 1773 2066 2081 2063
4188 1 1773 2066 2081 2082
4189 2 2063 2081 2082 2083
4190 2 2063 2081 2082 2091
4191 2 2066 2081 2082 2083
4192 2 2066 2081 2082 2091
4193 3 2081 2082 2083 2279
4194 3 2081 2082 2083 2084
4195 3 2091 2082 2083 2279
4196 3 2091 2082 2083 2084
4197 3 2081 2082 2091 2164
4198 3 2081 2082 2091 2092
4199 3 2083 2082 2091 2164
4200 3 2083 2082 2091 2092
4201 1 1863 1993 1994 1995
4202 1 1863 1993 1994 2054
4203 2 1993 1994 1995 1996
4204 2 1993 1994 1995 2055
4205 2 2054 1994 1995 1996
4206 2 2054 1994 1995 2055
4207 1 1993 1994 2054 1734
4208 1 1995 1994 2054 1734
4209 3 1994 1995 1996 1997
4210 3 1994 1995 1996 2037
4211 3 2055 1995 1996 1997
4212 3 2055 1995 1996 2037
4213 3 1994 1995 2055 2026
4214 3 1994 1995 2055 2056
4215 3 1996 1995 2055 2026
4216 3 1996 1995 2055 2056
4217 3 1995 1996 2037 2025
4218 3 1995 1996 2037 2038
4219 3 1997 1996 2037 2025
4220 3 1997 1996 2037 2038
4221 1 1773 2023 2024 2025
4222 1 1773 2023 2024 2036
4223 2 2023 2024 2025 2026
4224 2 2023 2024 2025 2037
4225 2 2036 2024 2025 2026
4226 2 2036 2024 2025 2037
4227 1 2023 2024 2036 1939
4228 1 2025 2024 2036 1939
4229 3 2024 2025 2026 2027
4230 3 2024 2025 2026 2055
4231 3 2037 2025 2026 2027
4232 3 2037 2025 2026 2055
4233 3 2024 2025 2037 1996
4234 3 2024 2025 2037 2038
4235 3 2026 2025 2037 1996
4236 3 2026 2025 2037 2038
4237 3 2025 2026 2055 1995
4238 3 2025 2026 2055 2056
4239 3 2027 2026 2055 1995
4240 3 2027 2026 2055 2056
4241 1 1735 1722 1723 1724
4242 1 1735 1722 1723 1730
4243 2 1722 1723 1724 1725
4244 2 1722 1723 1724 1731
4245 2 1730 1723 1724 1725
4246 2 1730 1723 1724 1731
4247 1 1722 1723 1730 1734
4248 1 1724 1723 1730 1734
4249 3 1723 1724 1725 1726
4250 3 1723 1724 1725 2688
4251 3 1731 1724 1725 1726
4252 3 1731 1724 1725 2688
4253 3 1723 1724 1731 1732
4254 3 1723 1724 1731 2637
4255 3 1725 1724 1731 1732
4256 3 1725 1724 1731 2637
4257 3 1724 1725 2688 2636
4258 3 1724 1725 2688 2689
4259 3 1726 1725 2688 2636
4260 3 1726 1725 2688 2689
4261 3 1724 1731 2637 2636
4262 3 1724 1731 2637 2638
4263 3 1732 1731 2637 2636
4264 3 1732 1731 2637 2638
4265 1 1863 1864 1865 1866
4266 1 1863 1864 1865 1969
4267 2 1864 1865 1866 1867
4268 2 1864 1865 1866 1970
4269 2 1969 1865 1866 1867
4270 2 1969 1865 1866 1970
4271 1 1864 1865 1969 1735
4272 1 1866 1865 1969 1735
4273 3 1865 1866 1867 1868
4274 3 1865 1866 1867 1946
4275 3 1970 1866 1867 1868
4276 3 1970 1866 1867 1946
4277 3 1865 1866 1970 1909
4278 3 1865 1866 1970 1971
4279 3 1867 1866 1970 1909
4280 3 1867 1866 1970 1971
4281 3 1866 1867 1946 1908
4282 3 1866 1867 1946 1947
4283 3 1868 1867 1946 1908
4284 3 1868 1867 1946 1947
4285 1 1753 1896 1897 1898
4286 1 1753 1896 1897 1981
4287 2 1896 1897 1898 1899
4288 2 1896 1897 1898 1982
4289 2 1981 1897 1898 1899
4290 2 1981 1897 1898 1982
4291 1 1896 1897 1981 1863
4292 1 1898 1897 1981 1863
4293 3 1897 1898 1899 1900
4294 3 1897 1898 1899 1964
4295 3 1982 1898 1899 1900
4296 3 1982 1898 1899 1964
4297 3 1897 1898 1982 1931
4298 3 1897 1898 1982 1983
4299 3 1899 1898 1982 1931
4300 3 1899 1898 1982 1983
4301 3 1898 1899 1964 1930
4302 3 1898 1899 1964 1965
4303 3 1900 1899 1964 1930
4304 3 1900 1899 1964 1965
4305 1 1734 2057 2073 2067
4306 1 1734 2057 2073 2074
4307 1 1753 2060 2113 2072
4308 1 1753 2060 2113 2114
4309 1 1753 2067 2073 2057
4310 1 1753 2067 2073 2074
4311 1 1735 2072 2113 2060
4312 1 1735 2072 2113 2114
4313 2 2057 2073 2074 2075
4314 2 2057 2073 2074 2093
4315 2 2067 2073 2074 2075
4316 2 2067 2073 2074 2093
4317 3 2073 2074 2075 2249
4318 3 2073 2074 2075 2076
4319 3 2093 2074 2075 2249
4320 3 2093 2074 2075 2076
4321 3 2073 2074 2093 2195
4322 3 2073 2074 2093 2094
4323 3 2075 2074 2093 2195
4324 3 2075 2074 2093 2094
4325 2 2060 2113 2114 2115
4326 2 2060 2113 2114 2119
4327 2 2072 2113 2114 2115
4328 2 2072 2113 2114 2119
4329 3 2113 2114 2115 138
4330 3 2113 2114 2115 2116
4331 3 2119 2114 2115 138
4332 3 2119 2114 2115 2116
4333 3 2113 2114 2119 105
4334 3 2113 2114 2119 2120
4335 3 2115 2114 2119 105
4336 3 2115 2114 2119 2120
4337 1 2137 2121 2122 2123
4338 1 2137 2121 2122 2134
4339 2 2121 2122 2123 2124
4340 2 2121 2122 2123 2135
4341 2 2134 2122 2123 2124
4342 2 2134 2122 2123 2135
4343 1 2121 2122 2134 2139
4344 1 2123 2122 2134 2139
4345 3 2122 2123 2124 2125
4346 3 2122 2123 2124 559
4347 3 2135 2123 2124 2125
4348 3 2135 2123 2124 559
4349 3 2122 2123 2135 2136
4350 3 2122 2123 2135 541
4351 3 2124 2123 2135 2136
4352 3 2124 2123 2135 541
4353 3 2123 2124 559 540
4354 3 2123 2124 559 560
4355 3 2125 2124 559 540
4356 3 2125 2124 559 560
4357 3 2123 2135 541 540
4358 3 2123 2135 541 542
4359 3 2136 2135 541 540
4360 3 2136 2135 541 542
4361 1 2139 2141 2142 2143
4362 1 2139 2141 2142 2151
4363 2 2141 2142 2143 2144
4364 2 2141 2142 2143 2152
4365 2 2151 2142 2143 2144
4366 2 2151 2142 2143 2152
4367 1 2141 2142 2151 2157
4368 1 2143 2142 2151 2157
4369 3 2142 2143 2144 2145
4370 3 2142 2143 2144 3115
4371 3 2152 2143 2144 2145
4372 3 2152 2143 2144 3115
4373 3 2142 2143 2152 2153
4374 3 2142 2143 2152 3067
4375 3 2144 2143 2152 2153
4376 3 2144 2143 2152 3067
4377 3 2143 2144 3115 3066
4378 3 2143 2144 3115 3116
4379 3 2145 2144 3115 3066
4380 3 2145 2144 3115 3116
4381 3 2143 2152 3067 3066
4382 3 2143 2152 3067 3068
4383 3 2153 2152 3067 3066
4384 3 2153 2152 3067 3068
4385 1 2157 2161 2162 2163
4386 1 2157 2161 2162 2278
4387 2 2161 2162 2163 2164
4388 2 2161 2162 2163 2279
4389 2 2278 2162 2163 2164
4390 2 2278 2162 2163 2279
4391 1 2161 2162 2278 2137
4392 1 2163 2162 2278 2137
4393 3 2162 2163 2164 2165
4394 3 2162 2163 2164 2091
4395 3 2279 2163 2164 2165
4396 3 2279 2163 2164 2091
4397 3 2162 2163 2279 2280
4398 3 2162 2163 2279 2083
4399 3 2164 2163 2279 2280
4400 3 2164 2163 2279 2083
4401 3 2163 2164 2091 2082
4402 3 2163 2164 2091 2092
4403 3 2165 2164 2091 2082
4404 3 2165 2164 2091 2092
4405 3 2163 2279 2083 2082
4406 3 2163 2279 2083 2084
4407 3 2280 2279 2083 2082
4408 3 2280 2279 2083 2084
4409 1 2299 2300 2301 2302
4410 1 2299 2300 2301 2402
4411 2 2300 2301 2302 2303
4412 2 2300 2301 2302 2403
4413 2 2402 2301 2302 2303
4414 2 2402 2301 2302 2403
4415 1 2300 2301 2402 2139
4416 1 2302 2301 2402 2139
4417 3 2301 2302 2303 2304
4418 3 2301 2302 2303 2376
4419 3 2403 2302 2303 2304
4420 3 2403 2302 2303 2376
4421 3 2301 2302 2403 2338
4422 3 2301 2302 2403 2404
4423 3 2303 2302 2403 2338
4424 3 2303 2302 2403 2404
4425 3 2302 2303 2376 2337
4426 3 2302 2303 2376 2377
4427 3 2304 2303 2376 2337
4428 3 2304 2303 2376 2377
4429 1 2137 2315 2316 2317
4430 1 2137 2315 2316 2408
4431 2 2315 2316 2317 2318
4432 2 2315 2316 2317 2409
4433 2 2408 2316 2317 2318
4434 2 2408 2316 2317 2409
4435 1 2315 2316 2408 2299
4436 1 2317 2316 2408 2299
4437 3 2316 2317 2318 2319
4438 3 2316 2317 2318 2391
4439 3 2409 2317 2318 2319
4440 3 2409 2317 2318 2391
4441 3 2316 2317 2409 2349
4442 3 2316 2317 2409 2410
4443 3 2318 2317 2409 2349
4444 3 2318 2317 2409 2410
4445 3 2317 2318 2391 2348
4446 3 2317 2318 2391 2392
4447 3 2319 2318 2391 2348
4448 3 2319 2318 2391 2392
4449 1 2299 2432 2433 2434
4450 1 2299 2432 2433 2472
4451 2 2432 2433 2434 2435
4452 2 2432 2433 2434 2473
4453 2 2472 2433 2434 2435
4454 2 2472 2433 2434 2473
4455 1 2432 2433 2472 2157
4456 1 2434 2433 2472 2157
4457 3 2433 2434 2435 2436
4458 3 2433 2434 2435 2464
4459 3 2473 2434 2435 2436
4460 3 2473 2434 2435 2464
4461 3 2433 2434 2473 2440
4462 3 2433 2434 2473 2474
4463 3 2435 2434 2473 2440
4464 3 2435 2434 2473 2474
4465 3 2434 2435 2464 2439
4466 3 2434 2435 2464 2465
4467 3 2436 2435 2464 2439
4468 3 2436 2435 2464 2465
4469 1 2203 2437 2438 2439
4470 1 2203 2437 2438 2463
4471 2 2437 2438 2439 2440
4472 2 2437 2438 2439 2464
4473 2 2463 2438 2439 2440
4474 2 2463 2438 2439 2464
4475 1 2437 2438 2463 2357
4476 1 2439 2438 2463 2357
4477 3 2438 2439 2440 2441
4478 3 2438 2439 2440 2473
4479 3 2464 2439 2440 2441
4480 3 2464 2439 2440 2473
4481 3 2438 2439 2464 2435
4482 3 2438 2439 2464 2465
4483 3 2440 2439 2464 2435
4484 3 2440 2439 2464 2465
4485 3 2439 2440 2473 2434
4486 3 2439 2440 2473 2474
4487 3 2441 2440 2473 2434
4488 3 2441 2440 2473 2474
4489 1 2190 2192 2193 2194
4490 1 2190 2192 2193 2248
4491 2 2192 2193 2194 2195
4492 2 2192 2193 2194 2249
4493 2 2248 2193 2194 2195
4494 2 2248 2193 2194 2249
4495 1 2192 2193 2248 2203
4496 1 2194 2193 2248 2203
4497 3 2193 2194 2195 2196
4498 3 2193 2194 2195 2093
4499 3 2249 2194 2195 2196
4500 3 2249 2194 2195 2093
4501 3 2193 2194 2249 2250
4502 3 2193 2194 2249 2075
4503 3 2195 2194 2249 2250
4504 3 2195 2194 2249 2075
4505 3 2194 2195 2093 2074
4506 3 2194 2195 2093 2094
4507 3 2196 2195 2093 2074
4508 3 2196 2195 2093 2094
4509 1 2203 2204 2205 2206
4510 1 2203 2204 2205 2269
4511 2 2204 2205 2206 2207
4512 2 2204 2205 2206 2270
4513 2 2269 2205 2206 2207
4514 2 2269 2205 2206 2270
4515 1 2204 2205 2269 2233
4516 1 2206 2205 2269 2233
4517 3 2205 2206 2207 2208
4518 3 2205 2206 2207 3377
4519 3 2270 2206 2207 2208
4520 3 2270 2206 2207 3377
4521 3 2205 2206 2270 2271
4522 3 2205 2206 2270 3375
4523 3 2207 2206 2270 2271
4524 3 2207 2206 2270 3375
4525 3 2206 2207 3377 3374
4526 3 2206 2207 3377 3378
4527 3 2208 2207 3377 3374
4528 3 2208 2207 3377 3378
4529 1 2233 2234 2235 2236
4530 1 2233 2234 2235 2254
4531 2 2234 2235 2236 2237
4532 2 2234 2235 2236 2255
4533 2 2254 2235 2236 2237
4534 2 2254 2235 2236 2255
4535 1 2234 2235 2254 2190
4536 1 2236 2235 2254 2190
4537 3 2235 2236 2237 439
4538 3 2235 2236 2237 2238
4539 3 2255 2236 2237 439
4540 3 2255 2236 2237 2238
4541 3 2235 2236 2255 428
4542 3 2235 2236 2255 2256
4543 3 2237 2236 2255 428
4544 3 2237 2236 2255 2256
4545 3 2194 2249 2075 2074
4546 3 2194 2249 2075 2076
4547 3 2250 2249 2075 2074
4548 3 2250 2249 2075 2076
4549 3 2206 2270 3375 3374
4550 3 2206 2270 3375 3376
4551 3 2271 2270 3375 3374
4552 3 2271 2270 3375 3376
4553 1 2233 2330 2331 2332
4554 1 2233 2330 2331 2369
4555 2 2330 2331 2332 2333
4556 2 2330 2331 2332 2370
4557 2 2369 2331 2332 2333
4558 2 2369 2331 2332 2370
4559 1 2330 2331 2369 2357
4560 1 2332 2331 2369 2357
4561 3 2331 2332 2333 2334
4562 3 2331 2332 2333 2394
4563 3 2370 2332 2333 2334
4564 3 2370 2332 2333 2394
4565 3 2331 2332 2370 2291
4566 3 2331 2332 2370 2371
4567 3 2333 2332 2370 2291
4568 3 2333 2332 2370 2371
4569 3 2332 2333 2394 2290
4570 3 2332 2333 2394 2395
4571 3 2334 2333 2394 2290
4572 3 2334 2333 2394 2395
4573 1 2357 2358 2359 2360
4574 1 2357 2358 2359 2381
4575 2 2358 2359 2360 2361
4576 2 2358 2359 2360 2382
4577 2 2381 2359 2360 2361
4578 2 2381 2359 2360 2382
4579 1 2358 2359 2381 2190
4580 1 2360 2359 2381 2190
4581 3 2359 2360 2361 2362
4582 3 2359 2360 2361 2415
4583 3 2382 2360 2361 2362
4584 3 2382 2360 2361 2415
4585 3 2359 2360 2382 2313
4586 3 2359 2360 2382 2383
4587 3 2361 2360 2382 2313
4588 3 2361 2360 2382 2383
4589 3 2360 2361 2415 2312
4590 3 2360 2361 2415 2416
4591 3 2362 2361 2415 2312
4592 3 2362 2361 2415 2416
4593 1 2197 2198 2199 2200
4594 1 2197 2198 2199 2272
4595 2 2198 2199 2200 2201
4596 2 2198 2199 2200 2273
4597 2 2272 2199 2200 2201
4598 2 2272 2199 2200 2273
4599 1 2198 2199 2272 2221
4600 1 2200 2199 2272 2221
4601 3 2199 2200 2201 2202
4602 3 2199 2200 2201 3379
4603 3 2273 2200 2201 2202
4604 3 2273 2200 2201 3379
4605 3 2199 2200 2273 2274
4606 3 2199 2200 2273 3371
4607 3 2201 2200 2273 2274
4608 3 2201 2200 2273 3371
4609 3 2200 2201 3379 3370
4610 3 2200 2201 3379 3380
4611 3 2202 2201 3379 3370
4612 3 2202 2201 3379 3380
4613 1 2221 2222 2223 2224
4614 1 2221 2222 2223 2257
4615 2 2222 2223 2224 2225
4616 2 2222 2223 2224 2258
4617 2 2257 2223 2224 2225
4618 2 2257 2223 2224 2258
4619 1 2222 2223 2257 2179
4620 1 2224 2223 2257 2179
4621 3 2223 2224 2225 2226
4622 3 2223 2224 2225 847
4623 3 2258 2224 2225 2226
4624 3 2258 2224 2225 847
4625 3 2223 2224 2258 2259
4626 3 2223 2224 2258 843
4627 3 2225 2224 2258 2259
4628 3 2225 2224 2258 843
4629 3 2224 2225 847 842
4630 3 2224 2225 847 848
4631 3 2226 2225 847 842
4632 3 2226 2225 847 848
4633 3 2224 2258 843 842
4634 3 2224 2258 843 844
4635 3 2259 2258 843 842
4636 3 2259 2258 843 844
4637 3 2200 2273 3371 3370
4638 3 2200 2273 3371 3372
4639 3 2274 2273 3371 3370
4640 3 2274 2273 3371 3372
4641 1 2221 2335 2336 2337
4642 1 2221 2335 2336 2375
4643 2 2335 2336 2337 2338
4644 2 2335 2336 2337 2376
4645 2 2375 2336 2337 2338
4646 2 2375 2336 2337 2376
4647 1 2335 2336 2375 2363
4648 1 2337 2336 2375 2363
4649 3 2336 2337 2338 2339
4650 3 2336 2337 2338 2403
4651 3 2376 2337 2338 2339
4652 3 2376 2337 2338 2403
4653 3 2336 2337 2376 2303
4654 3 2336 2337 2376 2377
4655 3 2338 2337 2376 2303
4656 3 2338 2337 2376 2377
4657 3 2337 2338 2403 2302
4658 3 2337 2338 2403 2404
4659 3 2339 2338 2403 2302
4660 3 2339 2338 2403 2404
4661 1 2363 2364 2365 2366
4662 1 2363 2364 2365 2384
4663 2 2364 2365 2366 2367
4664 2 2364 2365 2366 2385
4665 2 2384 2365 2366 2367
4666 2 2384 2365 2366 2385
4667 1 2364 2365 2384 2179
4668 1 2366 2365 2384 2179
4669 3 2365 2366 2367 2368
4670 3 2365 2366 2367 2412
4671 3 2385 2366 2367 2368
4672 3 2385 2366 2367 2412
4673 3 2365 2366 2385 2308
4674 3 2365 2366 2385 2386
4675 3 2367 2366 2385 2308
4676 3 2367 2366 2385 2386
4677 3 2366 2367 2412 2307
4678 3 2366 2367 2412 2413
4679 3 2368 2367 2412 2307
4680 3 2368 2367 2412 2413
4681 1 2179 2487 2505 2490
4682 1 2179 2487 2505 2506
4683 1 2197 2490 2505 2487
4684 1 2197 2490 2505 2506
4685 2 2487 2505 2506 2507
4686 2 2487 2505 2506 2515
4687 2 2490 2505 2506 2507
4688 2 2490 2505 2506 2515
4689 3 2505 2506 2507 1855
4690 3 2505 2506 2507 2508
4691 3 2515 2506 2507 1855
4692 3 2515 2506 2507 2508
4693 3 2505 2506 2515 1740
4694 3 2505 2506 2515 2516
4695 3 2507 2506 2515 1740
4696 3 2507 2506 2515 2516
4697 1 2287 2417 2418 2419
4698 1 2287 2417 2418 2478
4699 2 2417 2418 2419 2420
4700 2 2417 2418 2419 2479
4701 2 2478 2418 2419 2420
4702 2 2478 2418 2419 2479
4703 1 2417 2418 2478 2158
4704 1 2419 2418 2478 2158
4705 3 2418 2419 2420 2421
4706 3 2418 2419 2420 2461
4707 3 2479 2419 2420 2421
4708 3 2479 2419 2420 2461
4709 3 2418 2419 2479 2450
4710 3 2418 2419 2479 2480
4711 3 2420 2419 2479 2450
4712 3 2420 2419 2479 2480
4713 3 2419 2420 2461 2449
4714 3 2419 2420 2461 2462
4715 3 2421 2420 2461 2449
4716 3 2421 2420 2461 2462
4717 1 2197 2447 2448 2449
4718 1 2197 2447 2448 2460
4719 2 2447 2448 2449 2450
4720 2 2447 2448 2449 2461
4721 2 2460 2448 2449 2450
4722 2 2460 2448 2449 2461
4723 1 2447 2448 2460 2363
4724 1 2449 2448 2460 2363
4725 3 2448 2449 2450 2451
4726 3 2448 2449 2450 2479
4727 3 2461 2449 2450 2451
4728 3 2461 2449 2450 2479
4729 3 2448 2449 2461 2420
4730 3 2448 2449 2461 2462
4731 3 2450 2449 2461 2420
4732 3 2450 2449 2461 2462
4733 3 2449 2450 2479 2419
4734 3 2449 2450 2479 2480
4735 3 2451 2450 2479 2419
4736 3 2451 2450 2479 2480
4737 1 2159 2146 2147 2148
4738 1 2159 2146 2147 2154
4739 2 2146 2147 2148 2149
4740 2 2146 2147 2148 2155
4741 2 2154 2147 2148 2149
4742 2 2154 2147 2148 2155
4743 1 2146 2147 2154 2158
4744 1 2148 2147 2154 2158
4745 3 2147 2148 2149 2150
4746 3 2147 2148 2149 3112
4747 3 2155 2148 2149 2150
4748 3 2155 2148 2149 3112
4749 3 2147 2148 2155 2156
4750 3 2147 2148 2155 3061
4751 3 2149 2148 2155 2156
4752 3 2149 2148 2155 3061
4753 3 2148 2149 3112 3060
4754 3 2148 2149 3112 3113
4755 3 2150 2149 3112 3060
4756 3 2150 2149 3112 3113
4757 3 2148 2155 3061 3060
4758 3 2148 2155 3061 3062
4759 3 2156 2155 3061 3060
4760 3 2156 2155 3061 3062
4761 1 2287 2288 2289 2290
4762 1 2287 2288 2289 2393
4763 2 2288 2289 2290 2291
4764 2 2288 2289 2290 2394
4765 2 2393 2289 2290 2291
4766 2 2393 2289 2290 2394
4767 1 2288 2289 2393 2159
4768 1 2290 2289 2393 2159
4769 3 2289 2290 2291 2292
4770 3 2289 2290 2291 2370
4771 3 2394 2290 2291 2292
4772 3 2394 2290 2291 2370
4773 3 2289 2290 2394 2333
4774 3 2289 2290 2394 2395
4775 3 2291 2290 2394 2333
4776 3 2291 2290 2394 2395
4777 3 2290 2291 2370 2332
4778 3 2290 2291 2370 2371
4779 3 2292 2291 2370 2332
4780 3 2292 2291 2370 2371
4781 1 2177 2320 2321 2322
4782 1 2177 2320 2321 2405
4783 2 2320 2321 2322 2323
4784 2 2320 2321 2322 2406
4785 2 2405 2321 2322 2323
4786 2 2405 2321 2322 2406
4787 1 2320 2321 2405 2287
4788 1 2322 2321 2405 2287
4789 3 2321 2322 2323 2324
4790 3 2321 2322 2323 2388
4791 3 2406 2322 2323 2324
4792 3 2406 2322 2323 2388
4793 3 2321 2322 2406 2355
4794 3 2321 2322 2406 2407
4795 3 2323 2322 2406 2355
4796 3 2323 2322 2406 2407
4797 3 2322 2323 2388 2354
4798 3 2322 2323 2388 2389
4799 3 2324 2323 2388 2354
4800 3 2324 2323 2388 2389
4801 1 2158 2481 2497 2491
4802 1 2158 2481 2497 2498
4803 1 2177 2484 2537 2496
4804 1 2177 2484 2537 2538
4805 1 2177 2491 2497 2481
4806 1 2177 2491 2497 2498
4807 1 2159 2496 2537 2484
4808 1 2159 2496 2537 2538
4809 2 2481 2497 2498 2499
4810 2 2481 2497 2498 2517
4811 2 2491 2497 2498 2499
4812 2 2491 2497 2498 2517
4813 3 2497 2498 2499 1825
4814 3 2497 2498 2499 2500
4815 3 2517 2498 2499 1825
4816 3 2517 2498 2499 2500
4817 3 2497 2498 2517 1771
4818 3 2497 2498 2517 2518
4819 3 2499 2498 2517 1771
4820 3 2499 2498 2517 2518
4821 2 2484 2537 2538 2539
4822 2 2484 2537 2538 2543
4823 2 2496 2537 2538 2539
4824 2 2496 2537 2538 2543
4825 3 2537 2538 2539 562
4826 3 2537 2538 2539 2540
4827 3 2543 2538 2539 562
4828 3 2543 2538 2539 2540
4829 3 2537 2538 2543 529
4830 3 2537 2538 2543 2544
4831 3 2539 2538 2543 529
4832 3 2539 2538 2543 2544
4833 1 1759 1761 1762 1763
4834 1 1759 1761 1762 1821
4835 2 1761 1762 1763 1764
4836 2 1761 1762 1763 1822
4837 2 1821 1762 1763 1764
4838 2 1821 1762 1763 1822
4839 1 1761 1762 1821 1791
4840 1 1763 1762 1821 1791
4841 3 1762 1763 1764 1765
4842 3 1762 1763 1764 2519
4843 3 1822 1763 1764 1765
4844 3 1822 1763 1764 2519
4845 3 1762 1763 1822 1823
4846 3 1762 1763 1822 2503
4847 3 1764 1763 1822 1823
4848 3 1764 1763 1822 2503
4849 3 1763 1764 2519 2502
4850 3 1763 1764 2519 2520
4851 3 1765 1764 2519 2502
4852 3 1765 1764 2519 2520
4853 1 1791 1792 1793 1794
4854 1 1791 1792 1793 1842
4855 2 1792 1793 1794 1795
4856 2 1792 1793 1794 1843
4857 2 1842 1793 1794 1795
4858 2 1842 1793 1794 1843
4859 1 1792 1793 1842 1803
4860 1 1794 1793 1842 1803
4861 3 1793 1794 1795 2576
4862 3 1793 1794 1795 1796
4863 3 1843 1794 1795 2576
4864 3 1843 1794 1795 1796
4865 3 1793 1794 1843 2568
4866 3 1793 1794 1843 1844
4867 3 1795 1794 1843 2568
4868 3 1795 1794 1843 1844
4869 1 1803 1804 1805 1806
4870 1 1803 1804 1805 1836
4871 2 1804 1805 1806 1807
4872 2 1804 1805 1806 1837
4873 2 1836 1805 1806 1807
4874 2 1836 1805 1806 1837
4875 1 1804 1805 1836 1759
4876 1 1806 1805 1836 1759
4877 3 1805 1806 1807 1808
4878 3 1805 1806 1807 421
4879 3 1837 1806 1807 1808
4880 3 1837 1806 1807 421
4881 3 1805 1806 1837 1838
4882 3 1805 1806 1837 415
4883 3 1807 1806 1837 1838
4884 3 1807 1806 1837 415
4885 3 1806 1807 421 414
4886 3 1806 1807 421 422
4887 3 1808 1807 421 414
4888 3 1808 1807 421 422
4889 3 1763 1822 2503 2502
4890 3 1763 1822 2503 2504
4891 3 1823 1822 2503 2502
4892 3 1823 1822 2503 2504
4893 3 1806 1837 415 414
4894 3 1806 1837 415 416
4895 3 1838 1837 415 414
4896 3 1838 1837 415 416
4897 1 1803 1901 1902 1903
4898 1 1803 1901 1902 1948
4899 2 1901 1902 1903 1904
4900 2 1901 1902 1903 1949
4901 2 1948 1902 1903 1904
4902 2 1948 1902 1903 1949
4903 1 1901 1902 1948 1921
4904 1 1903 1902 1948 1921
4905 3 1902 1903 1904 1905
4906 3 1902 1903 1904 1973
4907 3 1949 1903 1904 1905
4908 3 1949 1903 1904 1973
4909 3 1902 1903 1949 1861
4910 3 1902 1903 1949 1950
4911 3 1904 1903 1949 1861
4912 3 1904 1903 1949 1950
4913 3 1903 1904 1973 1860
4914 3 1903 1904 1973 1974
4915 3 1905 1904 1973 1860
4916 3 1905 1904 1973 1974
4917 1 1921 1922 1923 1924
4918 1 1921 1922 1923 1966
4919 2 1922 1923 1924 1925
4920 2 1922 1923 1924 1967
4921 2 1966 1923 1924 1925
4922 2 1966 1923 1924 1967
4923 1 1922 1923 1966 1759
4924 1 1924 1923 1966 1759
4925 3 1923 1924 1925 1926
4926 3 1923 1924 1925 1985
4927 3 1967 1924 1925 1926
4928 3 1967 1924 1925 1985
4929 3 1923 1924 1967 1894
4930 3 1923 1924 1967 1968
4931 3 1925 1924 1967 1894
4932 3 1925 1924 1967 1968
4933 3 1924 1925 1985 1893
4934 3 1924 1925 1985 1986
4935 3 1926 1925 1985 1893
4936 3 1926 1925 1985 1986
4937 1 1869 1998 1999 2000
4938 1 1869 1998 1999 2051
4939 2 1998 1999 2000 2001
4940 2 1998 1999 2000 2052
4941 2 2051 1999 2000 2001
4942 2 2051 1999 2000 2052
4943 1 1998 1999 2051 1742
4944 1 2000 1999 2051 1742
4945 3 1999 2000 2001 2002
4946 3 1999 2000 2001 2034
4947 3 2052 2000 2001 2002
4948 3 2052 2000 2001 2034
4949 3 1999 2000 2052 2031
4950 3 1999 2000 2052 2053
4951 3 2001 2000 2052 2031
4952 3 2001 2000 2052 2053
4953 3 2000 2001 2034 2030
4954 3 2000 2001 2034 2035
4955 3 2002 2001 2034 2030
4956 3 2002 2001 2034 2035
4957 1 1791 2028 2029 2030
4958 1 1791 2028 2029 2033
4959 2 2028 2029 2030 2031
4960 2 2028 2029 2030 2034
4961 2 2033 2029 2030 2031
4962 2 2033 2029 2030 2034
4963 1 2028 2029 2033 1921
4964 1 2030 2029 2033 1921
4965 3 2029 2030 2031 2032
4966 3 2029 2030 2031 2052
4967 3 2034 2030 2031 2032
4968 3 2034 2030 2031 2052
4969 3 2029 2030 2034 2001
4970 3 2029 2030 2034 2035
4971 3 2031 2030 2034 2001
4972 3 2031 2030 2034 2035
4973 3 2030 2031 2052 2000
4974 3 2030 2031 2052 2053
4975 3 2032 2031 2052 2000
4976 3 2032 2031 2052 2053
4977 1 1742 1744 1745 1746
4978 1 1742 1744 1745 1851
4979 2 1744 1745 1746 1747
4980 2 1744 1745 1746 1852
4981 2 1851 1745 1746 1747
4982 2 1851 1745 1746 1852
4983 1 1744 1745 1851 1752
4984 1 1746 1745 1851 1752
4985 3 1745 1746 1747 1748
4986 3 1745 1746 1747 2513
4987 3 1852 1746 1747 1748
4988 3 1852 1746 1747 2513
4989 3 1745 1746 1852 1853
4990 3 1745 1746 1852 2511
4991 3 1747 1746 1852 1853
4992 3 1747 1746 1852 2511
4993 3 1746 1747 2513 2510
4994 3 1746 1747 2513 2514
4995 3 1748 1747 2513 2510
4996 3 1748 1747 2513 2514
4997 3 1746 1852 2511 2510
4998 3 1746 1852 2511 2512
4999 3 1853 1852 2511 2510
5000 3 1853 1852 2511 2512
5001 1 1869 1870 1871 1872
5002 1 1869 1870 1871 1975
5003 2 1870 1871 1872 1873
5004 2 1870 1871 1872 1976
5005 2 1975 1871 1872 1873
5006 2 1975 1871 1872 1976
5007 1 1870 1871 1975 1754
5008 1 1872 1871 1975 1754
5009 3 1871 1872 1873 1874
5010 3 1871 1872 1873 1955
5011 3 1976 1872 1873 1874
5012 3 1976 1872 1873 1955
5013 3 1871 1872 1976 1919
5014 3 1871 1872 1976 1977
5015 3 1873 1872 1976 1919
5016 3 1873 1872 1976 1977
5017 3 1872 1873 1955 1918
5018 3 1872 1873 1955 1956
5019 3 1874 1873 1955 1918
5020 3 1874 1873 1955 1956
5021 1 1752 1886 1887 1888
5022 1 1752 1886 1887 1990
5023 2 1886 1887 1888 1889
5024 2 1886 1887 1888 1991
5025 2 1990 1887 1888 1889
5026 2 1990 1887 1888 1991
5027 1 1886 1887 1990 1869
5028 1 1888 1887 1990 1869
5029 3 1887 1888 1889 1890
5030 3 1887 1888 1889 1958
5031 3 1991 1888 1889 1890
5032 3 1991 1888 1889 1958
5033 3 1887 1888 1991 1937
5034 3 1887 1888 1991 1992
5035 3 1889 1888 1991 1937
5036 3 1889 1888 1991 1992
5037 3 1888 1889 1958 1936
5038 3 1888 1889 1958 1959
5039 3 1890 1889 1958 1936
5040 3 1890 1889 1958 1959
5041 1 1752 2059 2109 2071
5042 1 1752 2059 2109 2110
5043 1 1754 2062 2101 2069
5044 1 1754 2062 2101 2102
5045 1 1742 2069 2101 2062
5046 1 1742 2069 2101 2102
5047 1 1754 2071 2109 2059
5048 1 1754 2071 2109 2110
5049 2 2062 2101 2102 2103
5050 2 2062 2101 2102 2105
5051 2 2069 2101 2102 2103
5052 2 2069 2101 2102 2105
5053 3 2101 2102 2103 2694
5054 3 2101 2102 2103 2104
5055 3 2105 2102 2103 2694
5056 3 2105 2102 2103 2104
5057 3 2101 2102 2105 2631
5058 3 2101 2102 2105 2106
5059 3 2103 2102 2105 2631
5060 3 2103 2102 2105 2106
5061 2 2059 2109 2110 2111
5062 2 2059 2109 2110 2117
5063 2 2071 2109 2110 2111
5064 2 2071 2109 2110 2117
5065 3 2109 2110 2111 141
5066 3 2109 2110 2111 2112
5067 3 2117 2110 2111 141
5068 3 2117 2110 2111 2112
5069 3 2109 2110 2117 111
5070 3 2109 2110 2117 2118
5071 3 2111 2110 2117 111
5072 3 2111 2110 2117 2118
5073 1 1714 1702 1703 1704
5074 1 1714 1702 1703 1707
5075 2 1702 1703 1704 1705
5076 2 1702 1703 1704 1708
5077 2 1707 1703 1704 1705
5078 2 1707 1703 1704 1708
5079 1 1702 1703 1707 1716
5080 1 1704 1703 1707 1716
5081 3 1703 1704 1705 1706
5082 3 1703 1704 1705 132
5083 3 1708 1704 1705 1706
5084 3 1708 1704 1705 132
5085 3 1703 1704 1708 1709
5086 3 1703 1704 1708 123
5087 3 1705 1704 1708 1709
5088 3 1705 1704 1708 123
5089 3 1704 1705 132 122
5090 3 1704 1705 132 133
5091 3 1706 1705 132 122
5092 3 1706 1705 132 133
5093 3 1704 1708 123 122
5094 3 1704 1708 123 124
5095 3 1709 1708 123 122
5096 3 1709 1708 123 124
5097 1 1857 1858 1859 1860
5098 1 1857 1858 1859 1972
5099 2 1858 1859 1860 1861
5100 2 1858 1859 1860 1973
5101 2 1972 1859 1860 1861
5102 2 1972 1859 1860 1973
5103 1 1858 1859 1972 1716
5104 1 1860 1859 1972 1716
5105 3 1859 1860 1861 1862
5106 3 1859 1860 1861 1949
5107 3 1973 1860 1861 1862
5108 3 1973 1860 1861 1949
5109 3 1859 1860 1973 1904
5110 3 1859 1860 1973 1974
5111 3 1861 1860 1973 1904
5112 3 1861 1860 1973 1974
5113 3 1860 1861 1949 1903
5114 3 1860 1861 1949 1950
5115 3 1862 1861 1949 1903
5116 3 1862 1861 1949 1950
5117 1 1714 1881 1882 1883
5118 1 1714 1881 1882 1987
5119 2 1881 1882 1883 1884
5120 2 1881 1882 1883 1988
5121 2 1987 1882 1883 1884
5122 2 1987 1882 1883 1988
5123 1 1881 1882 1987 1857
5124 1 1883 1882 1987 1857
5125 3 1882 1883 1884 1885
5126 3 1882 1883 1884 1961
5127 3 1988 1883 1884 1885
5128 3 1988 1883 1884 1961
5129 3 1882 1883 1988 1943
5130 3 1882 1883 1988 1989
5131 3 1884 1883 1988 1943
5132 3 1884 1883 1988 1989
5133 3 1883 1884 1961 1942
5134 3 1883 1884 1961 1962
5135 3 1885 1884 1961 1942
5136 3 1885 1884 1961 1962
5137 1 1750 2058 2077 2068
5138 1 1750 2058 2077 2078
5139 1 1716 2061 2097 2070
5140 1 1716 2061 2097 2098
5141 1 1714 2068 2077 2058
5142 1 1714 2068 2077 2078
5143 1 1750 2070 2097 2061
5144 1 1750 2070 2097 2098
5145 2 2058 2077 2078 2079
5146 2 2058 2077 2078 2095
5147 2 2068 2077 2078 2079
5148 2 2068 2077 2078 2095
5149 3 2077 2078 2079 2246
5150 3 2077 2078 2079 2080
5151 3 2095 2078 2079 2246
5152 3 2095 2078 2079 2080
5153 3 2077 2078 2095 2188
5154 3 2077 2078 2095 2096
5155 3 2079 2078 2095 2188
5156 3 2079 2078 2095 2096
5157 2 2061 2097 2098 2099
5158 2 2061 2097 2098 2107
5159 2 2070 2097 2098 2099
5160 2 2070 2097 2098 2107
5161 3 2097 2098 2099 2697
5162 3 2097 2098 2099 2100
5163 3 2107 2098 2099 2697
5164 3 2107 2098 2099 2100
5165 3 2097 2098 2107 2625
5166 3 2097 2098 2107 2108
5167 3 2099 2098 2107 2625
5168 3 2099 2098 2107 2108
5169 1 1857 2003 2004 2005
5170 1 1857 2003 2004 2045
5171 2 2003 2004 2005 2006
5172 2 2003 2004 2005 2046
5173 2 2045 2004 2005 2006
5174 2 2045 2004 2005 2046
5175 1 2003 2004 2045 1750
5176 1 2005 2004 2045 1750
5177 3 2004 2005 2006 2007
5178 3 2004 2005 2006 2043
5179 3 2046 2005 2006 2007
5180 3 2046 2005 2006 2043
5181 3 2004 2005 2046 2021
5182 3 2004 2005 2046 2047
5183 3 2006 2005 2046 2021
5184 3 2006 2005 2046 2047
5185 3 2005 2006 2043 2020
5186 3 2005 2006 2043 2044
5187 3 2007 2006 2043 2020
5188 3 2007 2006 2043 2044
5189 1 1785 2018 2019 2020
5190 1 1785 2018 2019 2042
5191 2 2018 2019 2020 2021
5192 2 2018 2019 2020 2043
5193 2 2042 2019 2020 2021
5194 2 2042 2019 2020 2043
5195 1 2018 2019 2042 1927
5196 1 2020 2019 2042 1927
5197 3 2019 2020 2021 2022
5198 3 2019 2020 2021 2046
5199 3 2043 2020 2021 2022
5200 3 2043 2020 2021 2046
5201 3 2019 2020 2043 2006
5202 3 2019 2020 2043 2044
5203 3 2021 2020 2043 2006
5204 3 2021 2020 2043 2044
5205 3 2020 2021 2046 2005
5206 3 2020 2021 2046 2047
5207 3 2022 2021 2046 2005
5208 3 2022 2021 2046 2047
5209 1 1785 1786 1787 1788
5210 1 1785 1786 1787 1839
5211 2 1786 1787 1788 1789
5212 2 1786 1787 1788 1840
5213 2 1839 1787 1788 1789
5214 2 1839 1787 1788 1840
5215 1 1786 1787 1839 1815
5216 1 1788 1787 1839 1815
5217 3 1787 1788 1789 2579
5218 3 1787 1788 1789 1790
5219 3 1840 1788 1789 2579
5220 3 1840 1788 1789 1790
5221 3 1787 1788 1840 2573
5222 3 1787 1788 1840 1841
5223 3 1789 1788 1840 2573
5224 3 1789 1788 1840 1841
5225 1 1815 1816 1817 1818
5226 1 1815 1816 1817 1827
5227 2 1816 1817 1818 1819
5228 2 1816 1817 1818 1828
5229 2 1827 1817 1818 1819
5230 2 1827 1817 1818 1828
5231 1 1816 1817 1827 1757
5232 1 1818 1817 1827 1757
5233 3 1817 1818 1819 12
5234 3 1817 1818 1819 1820
5235 3 1828 1818 1819 12
5236 3 1828 1818 1819 1820
5237 3 1817 1818 1828 9
5238 3 1817 1818 1828 1829
5239 3 1819 1818 1828 9
5240 3 1819 1818 1828 1829
5241 1 1815 1916 1917 1918
5242 1 1815 1916 1917 1954
5243 2 1916 1917 1918 1919
5244 2 1916 1917 1918 1955
5245 2 1954 1917 1918 1919
5246 2 1954 1917 1918 1955
5247 1 1916 1917 1954 1927
5248 1 1918 1917 1954 1927
5249 3 1917 1918 1919 1920
5250 3 1917 1918 1919 1976
5251 3 1955 1918 1919 1920
5252 3 1955 1918 1919 1976
5253 3 1917 1918 1955 1873
5254 3 1917 1918 1955 1956
5255 3 1919 1918 1955 1873
5256 3 1919 1918 1955 1956
5257 3 1918 1919 1976 1872
5258 3 1918 1919 1976 1977
5259 3 1920 1919 1976 1872
5260 3 1920 1919 1976 1977
5261 1 1927 1928 1929 1930
5262 1 1927 1928 1929 1963
5263 2 1928 1929 1930 1931
5264 2 1928 1929 1930 1964
5265 2 1963 1929 1930 1931
5266 2 1963 1929 1930 1964
5267 1 1928 1929 1963 1757
5268 1 1930 1929 1963 1757
5269 3 1929 1930 1931 1932
5270 3 1929 1930 1931 1982
5271 3 1964 1930 1931 1932
5272 3 1964 1930 1931 1982
5273 3 1929 1930 1964 1899
5274 3 1929 1930 1964 1965
5275 3 1931 1930 1964 1899
5276 3 1931 1930 1964 1965
5277 3 1930 1931 1982 1898
5278 3 1930 1931 1982 1983
5279 3 1932 1931 1982 1898
5280 3 1932 1931 1982 1983
5281 1 1757 2064 2085 2065
5282 1 1757 2064 2085 2086
5283 1 1785 2065 2085 2064
5284 1 1785 2065 2085 2086
5285 2 2064 2085 2086 2087
5286 2 2064 2085 2086 2089
5287 2 2065 2085 2086 2087
5288 2 2065 2085 2086 2089
5289 3 2085 2086 2087 2276
5290 3 2085 2086 2087 2088
5291 3 2089 2086 2087 2276
5292 3 2089 2086 2087 2088
5293 3 2085 2086 2089 2171
5294 3 2085 2086 2089 2090
5295 3 2087 2086 2089 2171
5296 3 2087 2086 2089 2090
5297 1 2183 2185 2186 2187
5298 1 2183 2185 2186 2245
5299 2 2185 2186 2187 2188
5300 2 2185 2186 2187 2246
5301 2 2245 2186 2187 2188
5302 2 2245 2186 2187 2246
5303 1 2185 2186 2245 2215
5304 1 2187 2186 2245 2215
5305 3 2186 2187 2188 2189
5306 3 2186 2187 2188 2095
5307 3 2246 2187 2188 2189
5308 3 2246 2187 2188 2095
5309 3 2186 2187 2246 2247
5310 3 2186 2187 2246 2079
5311 3 2188 2187 2246 2247
5312 3 2188 2187 2246 2079
5313 3 2187 2188 2095 2078
5314 3 2187 2188 2095 2096
5315 3 2189 2188 2095 2078
5316 3 2189 2188 2095 2096
5317 1 2215 2216 2217 2218
5318 1 2215 2216 2217 2266
5319 2 2216 2217 2218 2219
5320 2 2216 2217 2218 2267
5321 2 2266 2217 2218 2219
5322 2 2266 2217 2218 2267
5323 1 2216 2217 2266 2227
5324 1 2218 2217 2266 2227
5325 3 2217 2218 2219 3000
5326 3 2217 2218 2219 2220
5327 3 2267 2218 2219 3000
5328 3 2267 2218 2219 2220
5329 3 2217 2218 2267 2992
5330 3 2217 2218 2267 2268
5331 3 2219 2218 2267 2992
5332 3 2219 2218 2267 2268
5333 1 2227 2228 2229 2230
5334 1 2227 2228 2229 2260
5335 2 2228 2229 2230 2231
5336 2 2228 2229 2230 2261
5337 2 2260 2229 2230 2231
5338 2 2260 2229 2230 2261
5339 1 2228 2229 2260 2183
5340 1 2230 2229 2260 2183
5341 3 2229 2230 2231 2232
5342 3 2229 2230 2231 845
5343 3 2261 2230 2231 2232
5344 3 2261 2230 2231 845
5345 3 2229 2230 2261 2262
5346 3 2229 2230 2261 839
5347 3 2231 2230 2261 2262
5348 3 2231 2230 2261 839
5349 3 2230 2231 845 838
5350 3 2230 2231 845 846
5351 3 2232 2231 845 838
5352 3 2232 2231 845 846
5353 3 2187 2246 2079 2078
5354 3 2187 2246 2079 2080
5355 3 2247 2246 2079 2078
5356 3 2247 2246 2079 2080
5357 3 2230 2261 839 838
5358 3 2230 2261 839 840
5359 3 2262 2261 839 838
5360 3 2262 2261 839 840
5361 1 2227 2325 2326 2327
5362 1 2227 2325 2326 2372
5363 2 2325 2326 2327 2328
5364 2 2325 2326 2327 2373
5365 2 2372 2326 2327 2328
5366 2 2372 2326 2327 2373
5367 1 2325 2326 2372 2345
5368 1 2327 2326 2372 2345
5369 3 2326 2327 2328 2329
5370 3 2326 2327 2328 2397
5371 3 2373 2327 2328 2329
5372 3 2373 2327 2328 2397
5373 3 2326 2327 2373 2285
5374 3 2326 2327 2373 2374
5375 3 2328 2327 2373 2285
5376 3 2328 2327 2373 2374
5377 3 2327 2328 2397 2284
5378 3 2327 2328 2397 2398
5379 3 2329 2328 2397 2284
5380 3 2329 2328 2397 2398
5381 1 2345 2346 2347 2348
5382 1 2345 2346 2347 2390
5383 2 2346 2347 2348 2349
5384 2 2346 2347 2348 2391
5385 2 2390 2347 2348 2349
5386 2 2390 2347 2348 2391
5387 1 2346 2347 2390 2183
5388 1 2348 2347 2390 2183
5389 3 2347 2348 2349 2350
5390 3 2347 2348 2349 2409
5391 3 2391 2348 2349 2350
5392 3 2391 2348 2349 2409
5393 3 2347 2348 2391 2318
5394 3 2347 2348 2391 2392
5395 3 2349 2348 2391 2318
5396 3 2349 2348 2391 2392
5397 3 2348 2349 2409 2317
5398 3 2348 2349 2409 2410
5399 3 2350 2349 2409 2317
5400 3 2350 2349 2409 2410
5401 1 2293 2422 2423 2424
5402 1 2293 2422 2423 2475
5403 2 2422 2423 2424 2425
5404 2 2422 2423 2424 2476
5405 2 2475 2423 2424 2425
5406 2 2475 2423 2424 2476
5407 1 2422 2423 2475 2166
5408 1 2424 2423 2475 2166
5409 3 2423 2424 2425 2426
5410 3 2423 2424 2425 2458
5411 3 2476 2424 2425 2426
5412 3 2476 2424 2425 2458
5413 3 2423 2424 2476 2455
5414 3 2423 2424 2476 2477
5415 3 2425 2424 2476 2455
5416 3 2425 2424 2476 2477
5417 3 2424 2425 2458 2454
5418 3 2424 2425 2458 2459
5419 3 2426 2425 2458 2454
5420 3 2426 2425 2458 2459
5421 1 2215 2452 2453 2454
5422 1 2215 2452 2453 2457
5423 2 2452 2453 2454 2455
5424 2 2452 2453 2454 2458
5425 2 2457 2453 2454 2455
5426 2 2457 2453 2454 2458
5427 1 2452 2453 2457 2345
5428 1 2454 2453 2457 2345
5429 3 2453 2454 2455 2456
5430 3 2453 2454 2455 2476
5431 3 2458 2454 2455 2456
5432 3 2458 2454 2455 2476
5433 3 2453 2454 2458 2425
5434 3 2453 2454 2458 2459
5435 3 2455 2454 2458 2425
5436 3 2455 2454 2458 2459
5437 3 2454 2455 2476 2424
5438 3 2454 2455 2476 2477
5439 3 2456 2455 2476 2424
5440 3 2456 2455 2476 2477
5441 1 2166 2168 2169 2170
5442 1 2166 2168 2169 2275
5443 2 2168 2169 2170 2171
5444 2 2168 2169 2170 2276
5445 2 2275 2169 2170 2171
5446 2 2275 2169 2170 2276
5447 1 2168 2169 2275 2176
5448 1 2170 2169 2275 2176
5449 3 2169 2170 2171 2172
5450 3 2169 2170 2171 2089
5451 3 2276 2170 2171 2172
5452 3 2276 2170 2171 2089
5453 3 2169 2170 2276 2277
5454 3 2169 2170 2276 2087
5455 3 2171 2170 2276 2277
5456 3 2171 2170 2276 2087
5457 3 2170 2171 2089 2086
5458 3 2170 2171 2089 2090
5459 3 2172 2171 2089 2086
5460 3 2172 2171 2089 2090
5461 3 2170 2276 2087 2086
5462 3 2170 2276 2087 2088
5463 3 2277 2276 2087 2086
5464 3 2277 2276 2087 2088
5465 1 2293 2294 2295 2296
5466 1 2293 2294 2295 2399
5467 2 2294 2295 2296 2297
5468 2 2294 2295 2296 2400
5469 2 2399 2295 2296 2297
5470 2 2399 2295 2296 2400
5471 1 2294 2295 2399 2178
5472 1 2296 2295 2399 2178
5473 3 2295 2296 2297 2298
5474 3 2295 2296 2297 2379
5475 3 2400 2296 2297 2298
5476 3 2400 2296 2297 2379
5477 3 2295 2296 2400 2343
5478 3 2295 2296 2400 2401
5479 3 2297 2296 2400 2343
5480 3 2297 2296 2400 2401
5481 3 2296 2297 2379 2342
5482 3 2296 2297 2379 2380
5483 3 2298 2297 2379 2342
5484 3 2298 2297 2379 2380
5485 1 2176 2310 2311 2312
5486 1 2176 2310 2311 2414
5487 2 2310 2311 2312 2313
5488 2 2310 2311 2312 2415
5489 2 2414 2311 2312 2313
5490 2 2414 2311 2312 2415
5491 1 2310 2311 2414 2293
5492 1 2312 2311 2414 2293
5493 3 2311 2312 2313 2314
5494 3 2311 2312 2313 2382
5495 3 2415 2312 2313 2314
5496 3 2415 2312 2313 2382
5497 3 2311 2312 2415 2361
5498 3 2311 2312 2415 2416
5499 3 2313 2312 2415 2361
5500 3 2313 2312 2415 2416
5501 3 2312 2313 2382 2360
5502 3 2312 2313 2382 2383
5503 3 2314 2313 2382 2360
5504 3 2314 2313 2382 2383
5505 1 2176 2483 2533 2495
5506 1 2176 2483 2533 2534
5507 1 2178 2486 2525 2493
5508 1 2178 2486 2525 2526
5509 1 2166 2493 2525 2486
5510 1 2166 2493 2525 2526
5511 1 2178 2495 2533 2483
5512 1 2178 2495 2533 2534
5513 2 2486 2525 2526 2527
5514 2 2486 2525 2526 2529
5515 2 2493 2525 2526 2527
5516 2 2493 2525 2526 2529
5517 3 2525 2526 2527 3118
5518 3 2525 2526 2527 2528
5519 3 2529 2526 2527 3118
5520 3 2529 2526 2527 2528
5521 3 2525 2526 2529 3055
5522 3 2525 2526 2529 2530
5523 3 2527 2526 2529 3055
5524 3 2527 2526 2529 2530
5525 2 2483 2533 2534 2535
5526 2 2483 2533 2534 2541
5527 2 2495 2533 2534 2535
5528 2 2495 2533 2534 2541
5529 3 2533 2534 2535 565
5530 3 2533 2534 2535 2536
5531 3 2541 2534 2535 565
5532 3 2541 2534 2535 2536
5533 3 2533 2534 2541 535
5534 3 2533 2534 2541 2542
5535 3 2535 2534 2541 535
5536 3 2535 2534 2541 2542
5537 1 2138 2126 2127 2128
5538 1 2138 2126 2127 2131
5539 2 2126 2127 2128 2129
5540 2 2126 2127 2128 2132
5541 2 2131 2127 2128 2129
5542 2 2131 2127 2128 2132
5543 1 2126 2127 2131 2140
5544 1 2128 2127 2131 2140
5545 3 2127 2128 2129 2130
5546 3 2127 2128 2129 556
5547 3 2132 2128 2129 2130
5548 3 2132 2128 2129 556
5549 3 2127 2128 2132 2133
5550 3 2127 2128 2132 547
5551 3 2129 2128 2132 2133
5552 3 2129 2128 2132 547
5553 3 2128 2129 556 546
5554 3 2128 2129 556 557
5555 3 2130 2129 556 546
5556 3 2130 2129 556 557
5557 3 2128 2132 547 546
5558 3 2128 2132 547 548
5559 3 2133 2132 547 546
5560 3 2133 2132 547 548
5561 1 2281 2282 2283 2284
5562 1 2281 2282 2283 2396
5563 2 2282 2283 2284 2285
5564 2 2282 2283 2284 2397
5565 2 2396 2283 2284 2285
5566 2 2396 2283 2284 2397
5567 1 2282 2283 2396 2140
5568 1 2284 2283 2396 2140
5569 3 2283 2284 2285 2286
5570 3 2283 2284 2285 2373
5571 3 2397 2284 2285 2286
5572 3 2397 2284 2285 2373
5573 3 2283 2284 2397 2328
5574 3 2283 2284 2397 2398
5575 3 2285 2284 2397 2328
5576 3 2285 2284 2397 2398
5577 3 2284 2285 2373 2327
5578 3 2284 2285 2373 2374
5579 3 2286 2285 2373 2327
5580 3 2286 2285 2373 2374
5581 1 2138 2305 2306 2307
5582 1 2138 2305 2306 2411
5583 2 2305 2306 2307 2308
5584 2 2305 2306 2307 2412
5585 2 2411 2306 2307 2308
5586 2 2411 2306 2307 2412
5587 1 2305 2306 2411 2281
5588 1 2307 2306 2411 2281
5589 3 2306 2307 2308 2309
5590 3 2306 2307 2308 2385
5591 3 2412 2307 2308 2309
5592 3 2412 2307 2308 2385
5593 3 2306 2307 2412 2367
5594 3 2306 2307 2412 2413
5595 3 2308 2307 2412 2367
5596 3 2308 2307 2412 2413
5597 3 2307 2308 2385 2366
5598 3 2307 2308 2385 2386
5599 3 2309 2308 2385 2366
5600 3 2309 2308 2385 2386
5601 1 2174 2482 2501 2492
5602 1 2174 2482 2501 2502
5603 1 2140 2485 2521 2494
5604 1 2140 2485 2521 2522
5605 1 2138 2492 2501 2482
5606 1 2138 2492 2501 2502
5607 1 2174 2494 2521 2485
5608 1 2174 2494 2521 2522
5609 2 2482 2501 2502 2503
5610 2 2482 2501 2502 2519
5611 2 2492 2501 2502 2503
5612 2 2492 2501 2502 2519
5613 3 2501 2502 2503 1822
5614 3 2501 2502 2503 2504
5615 3 2519 2502 2503 1822
5616 3 2519 2502 2503 2504
5617 3 2501 2502 2519 1764
5618 3 2501 2502 2519 2520
5619 3 2503 2502 2519 1764
5620 3 2503 2502 2519 2520
5621 2 2485 2521 2522 2523
5622 2 2485 2521 2522 2531
5623 2 2494 2521 2522 2523
5624 2 2494 2521 2522 2531
5625 3 2521 2522 2523 3121
5626 3 2521 2522 2523 2524
5627 3 2531 2522 2523 3121
5628 3 2531 2522 2523 2524
5629 3 2521 2522 2531 3049
5630 3 2521 2522 2531 2532
5631 3 2523 2522 2531 3049
5632 3 2523 2522 2531 2532
5633 1 2281 2427 2428 2429
5634 1 2281 2427 2428 2469
5635 2 2427 2428 2429 2430
5636 2 2427 2428 2429 2470
5637 2 2469 2428 2429 2430
5638 2 2469 2428 2429 2470
5639 1 2427 2428 2469 2174
5640 1 2429 2428 2469 2174
5641 3 2428 2429 2430 2431
5642 3 2428 2429 2430 2467
5643 3 2470 2429 2430 2431
5644 3 2470 2429 2430 2467
5645 3 2428 2429 2470 2445
5646 3 2428 2429 2470 2471
5647 3 2430 2429 2470 2445
5648 3 2430 2429 2470 2471
5649 3 2429 2430 2467 2444
5650 3 2429 2430 2467 2468
5651 3 2431 2430 2467 2444
5652 3 2431 2430 2467 2468
5653 1 2209 2442 2443 2444
5654 1 2209 2442 2443 2466
5655 2 2442 2443 2444 2445
5656 2 2442 2443 2444 2467
5657 2 2466 2443 2444 2445
5658 2 2466 2443 2444 2467
5659 1 2442 2443 2466 2351
5660 1 2444 2443 2466 2351
5661 3 2443 2444 2445 2446
5662 3 2443 2444 2445 2470
5663 3 2467 2444 2445 2446
5664 3 2467 2444 2445 2470
5665 3 2443 2444 2467 2430
5666 3 2443 2444 2467 2468
5667 3 2445 2444 2467 2430
5668 3 2445 2444 2467 2468
5669 3 2444 2445 2470 2429
5670 3 2444 2445 2470 2471
5671 3 2446 2445 2470 2429
5672 3 2446 2445 2470 2471
5673 1 2209 2210 2211 2212
5674 1 2209 2210 2211 2263
5675 2 2210 2211 2212 2213
5676 2 2210 2211 2212 2264
5677 2 2263 2211 2212 2213
5678 2 2263 2211 2212 2264
5679 1 2210 2211 2263 2239
5680 1 2212 2211 2263 2239
5681 3 2211 2212 2213 3003
5682 3 2211 2212 2213 2214
5683 3 2264 2212 2213 3003
5684 3 2264 2212 2213 2214
5685 3 2211 2212 2264 2997
5686 3 2211 2212 2264 2265
5687 3 2213 2212 2264 2997
5688 3 2213 2212 2264 2265
5689 1 2239 2240 2241 2242
5690 1 2239 2240 2241 2251
5691 2 2240 2241 2242 2243
5692 2 2240 2241 2242 2252
5693 2 2251 2241 2242 2243
5694 2 2251 2241 2242 2252
5695 1 2240 2241 2251 2181
5696 1 2242 2241 2251 2181
5697 3 2241 2242 2243 436
5698 3 2241 2242 2243 2244
5699 3 2252 2242 2243 436
5700 3 2252 2242 2243 2244
5701 3 2241 2242 2252 433
5702 3 2241 2242 2252 2253
5703 3 2243 2242 2252 433
5704 3 2243 2242 2252 2253
5705 1 2239 2340 2341 2342
5706 1 2239 2340 2341 2378
5707 2 2340 2341 2342 2343
5708 2 2340 2341 2342 2379
5709 2 2378 2341 2342 2343
5710 2 2378 2341 2342 2379
5711 1 2340 2341 2378 2351
5712 1 2342 2341 2378 2351
5713 3 2341 2342 2343 2344
5714 3 2341 2342 2343 2400
5715 3 2379 2342 2343 2344
5716 3 2379 2342 2343 2400
5717 3 2341 2342 2379 2297
5718 3 2341 2342 2379 2380
5719 3 2343 2342 2379 2297
5720 3 2343 2342 2379 2380
5721 3 2342 2343 2400 2296
5722 3 2342 2343 2400 2401
5723 3 2344 2343 2400 2296
5724 3 2344 2343 2400 2401
5725 1 2351 2352 2353 2354
5726 1 2351 2352 2353 2387
5727 2 2352 2353 2354 2355
5728 2 2352 2353 2354 2388
5729 2 2387 2353 2354 2355
5730 2 2387 2353 2354 2388
5731 1 2352 2353 2387 2181
5732 1 2354 2353 2387 2181
5733 3 2353 2354 2355 2356
5734 3 2353 2354 2355 2406
5735 3 2388 2354 2355 2356
5736 3 2388 2354 2355 2406
5737 3 2353 2354 2388 2323
5738 3 2353 2354 2388 2389
5739 3 2355 2354 2388 2323
5740 3 2355 2354 2388 2389
5741 3 2354 2355 2406 2322
5742 3 2354 2355 2406 2407
5743 3 2356 2355 2406 2322
5744 3 2356 2355 2406 2407
5745 1 2181 2488 2509 2489
5746 1 2181 2488 2509 2510
5747 1 2209 2489 2509 2488
5748 1 2209 2489 2509 2510
5749 2 2488 2509 2510 2511
5750 2 2488 2509 2510 2513
5751 2 2489 2509 2510 2511
5752 2 2489 2509 2510 2513
5753 3 2509 2510 2511 1852
5754 3 2509 2510 2511 2512
5755 3 2513 2510 2511 1852
5756 3 2513 2510 2511 2512
5757 3 2509 2510 2513 1747
5758 3 2509 2510 2513 2514
5759 3 2511 2510 2513 1747
5760 3 2511 2510 2513 2514
5761 1 2561 2545 2546 2547
5762 1 2561 2545 2546 2558
5763 2 2545 2546 2547 2548
5764 2 2545 2546 2547 2559
5765 2 2558 2546 2547 2548
5766 2 2558 2546 2547 2559
5767 1 2545 2546 2558 2563
5768 1 2547 2546 2558 2563
5769 3 2546 2547 2548 2549
5770 3 2546 2547 2548 983
5771 3 2559 2547 2548 2549
5772 3 2559 2547 2548 983
5773 3 2546 2547 2559 2560
5774 3 2546 2547 2559 965
5775 3 2548 2547 2559 2560
5776 3 2548 2547 2559 965
5777 3 2547 2548 983 964
5778 3 2547 2548 983 984
5779 3 2549 2548 983 964
5780 3 2549 2548 983 984
5781 3 2547 2559 965 964
5782 3 2547 2559 965 966
5783 3 2560 2559 965 964
5784 3 2560 2559 965 966
5785 1 2563 2565 2566 2567
5786 1 2563 2565 2566 2575
5787 2 2565 2566 2567 2568
5788 2 2565 2566 2567 2576
5789 2 2575 2566 2567 2568
5790 2 2575 2566 2567 2576
5791 1 2565 2566 2575 2581
5792 1 2567 2566 2575 2581
5793 3 2566 2567 2568 2569
5794 3 2566 2567 2568 1843
5795 3 2576 2567 2568 2569
5796 3 2576 2567 2568 1843
5797 3 2566 2567 2576 2577
5798 3 2566 2567 2576 1795
5799 3 2568 2567 2576 2577
5800 3 2568 2567 2576 1795
5801 3 2567 2568 1843 1794
5802 3 2567 2568 1843 1844
5803 3 2569 2568 1843 1794
5804 3 2569 2568 1843 1844
5805 3 2567 2576 1795 1794
5806 3 2567 2576 1795 1796
5807 3 2577 2576 1795 1794
5808 3 2577 2576 1795 1796
5809 1 2581 2585 2586 2587
5810 1 2581 2585 2586 2702
5811 2 2585 2586 2587 2588
5812 2 2585 2586 2587 2703
5813 2 2702 2586 2587 2588
5814 2 2702 2586 2587 2703
5815 1 2585 2586 2702 2561
5816 1 2587 2586 2702 2561
5817 3 2586 2587 2588 2589
5818 3 2586 2587 2588 3363
5819 3 2703 2587 2588 2589
5820 3 2703 2587 2588 3363
5821 3 2586 2587 2703 2704
5822 3 2586 2587 2703 3355
5823 3 2588 2587 2703 2704
5824 3 2588 2587 2703 3355
5825 3 2587 2588 3363 3354
5826 3 2587 2588 3363 3364
5827 3 2589 2588 3363 3354
5828 3 2589 2588 3363 3364
5829 3 2587 2703 3355 3354
5830 3 2587 2703 3355 3356
5831 3 2704 2703 3355 3354
5832 3 2704 2703 3355 3356
5833 1 2723 2724 2725 2726
5834 1 2723 2724 2725 2826
5835 2 2724 2725 2726 2727
5836 2 2724 2725 2726 2827
5837 2 2826 2725 2726 2727
5838 2 2826 2725 2726 2827
5839 1 2724 2725 2826 2563
5840 1 2726 2725 2826 2563
5841 3 2725 2726 2727 2728
5842 3 2725 2726 2727 2800
5843 3 2827 2726 2727 2728
5844 3 2827 2726 2727 2800
5845 3 2725 2726 2827 2762
5846 3 2725 2726 2827 2828
5847 3 2727 2726 2827 2762
5848 3 2727 2726 2827 2828
5849 3 2726 2727 2800 2761
5850 3 2726 2727 2800 2801
5851 3 2728 2727 2800 2761
5852 3 2728 2727 2800 2801
5853 1 2561 2739 2740 2741
5854 1 2561 2739 2740 2832
5855 2 2739 2740 2741 2742
5856 2 2739 2740 2741 2833
5857 2 2832 2740 2741 2742
5858 2 2832 2740 2741 2833
5859 1 2739 2740 2832 2723
5860 1 2741 2740 2832 2723
5861 3 2740 2741 2742 2743
5862 3 2740 2741 2742 2815
5863 3 2833 2741 2742 2743
5864 3 2833 2741 2742 2815
5865 3 2740 2741 2833 2773
5866 3 2740 2741 2833 2834
5867 3 2742 2741 2833 2773
5868 3 2742 2741 2833 2834
5869 3 2741 2742 2815 2772
5870 3 2741 2742 2815 2816
5871 3 2743 2742 2815 2772
5872 3 2743 2742 2815 2816
5873 1 2723 2856 2857 2858
5874 1 2723 2856 2857 2896
5875 2 2856 2857 2858 2859
5876 2 2856 2857 2858 2897
5877 2 2896 2857 2858 2859
5878 2 2896 2857 2858 2897
5879 1 2856 2857 2896 2581
5880 1 2858 2857 2896 2581
5881 3 2857 2858 2859 2860
5882 3 2857 2858 2859 2888
5883 3 2897 2858 2859 2860
5884 3 2897 2858 2859 2888
5885 3 2857 2858 2897 2864
5886 3 2857 2858 2897 2898
5887 3 2859 2858 2897 2864
5888 3 2859 2858 2897 2898
5889 3 2858 2859 2888 2863
5890 3 2858 2859 2888 2889
5891 3 2860 2859 2888 2863
5892 3 2860 2859 2888 2889
5893 1 2627 2861 2862 2863
5894 1 2627 2861 2862 2887
5895 2 2861 2862 2863 2864
5896 2 2861 2862 2863 2888
5897 2 2887 2862 2863 2864
5898 2 2887 2862 2863 2888
5899 1 2861 2862 2887 2781
5900 1 2863 2862 2887 2781
5901 3 2862 2863 2864 2865
5902 3 2862 2863 2864 2897
5903 3 2888 2863 2864 2865
5904 3 2888 2863 2864 2897
5905 3 2862 2863 2888 2859
5906 3 2862 2863 2888 2889
5907 3 2864 2863 2888 2859
5908 3 2864 2863 2888 2889
5909 3 2863 2864 2897 2858
5910 3 2863 2864 2897 2898
5911 3 2865 2864 2897 2858
5912 3 2865 2864 2897 2898
5913 1 2614 2616 2617 2618
5914 1 2614 2616 2617 2672
5915 2 2616 2617 2618 2619
5916 2 2616 2617 2618 2673
5917 2 2672 2617 2618 2619
5918 2 2672 2617 2618 2673
5919 1 2616 2617 2672 2627
5920 1 2618 2617 2672 2627
5921 3 2617 2618 2619 2620
5922 3 2617 2618 2619 3365
5923 3 2673 2618 2619 2620
5924 3 2673 2618 2619 3365
5925 3 2617 2618 2673 2674
5926 3 2617 2618 2673 3347
5927 3 2619 2618 2673 2674
5928 3 2619 2618 2673 3347
5929 3 2618 2619 3365 3346
5930 3 2618 2619 3365 3366
5931 3 2620 2619 3365 3346
5932 3 2620 2619 3365 3366
5933 1 2627 2628 2629 2630
5934 1 2627 2628 2629 2693
5935 2 2628 2629 2630 2631
5936 2 2628 2629 2630 2694
5937 2 2693 2629 2630 2631
5938 2 2693 2629 2630 2694
5939 1 2628 2629 2693 2657
5940 1 2630 2629 2693 2657
5941 3 2629 2630 2631 2632
5942 3 2629 2630 2631 2105
5943 3 2694 2630 2631 2632
5944 3 2694 2630 2631 2105
5945 3 2629 2630 2694 2695
5946 3 2629 2630 2694 2103
5947 3 2631 2630 2694 2695
5948 3 2631 2630 2694 2103
5949 3 2630 2631 2105 2102
5950 3 2630 2631 2105 2106
5951 3 2632 2631 2105 2102
5952 3 2632 2631 2105 2106
5953 1 2657 2658 2659 2660
5954 1 2657 2658 2659 2678
5955 2 2658 2659 2660 2661
5956 2 2658 2659 2660 2679
5957 2 2678 2659 2660 2661
5958 2 2678 2659 2660 2679
5959 1 2658 2659 2678 2614
5960 1 2660 2659 2678 2614
5961 3 2659 2660 2661 863
5962 3 2659 2660 2661 2662
5963 3 2679 2660 2661 863
5964 3 2679 2660 2661 2662
5965 3 2659 2660 2679 852
5966 3 2659 2660 2679 2680
5967 3 2661 2660 2679 852
5968 3 2661 2660 2679 2680
5969 3 2618 2673 3347 3346
5970 3 2618 2673 3347 3348
5971 3 2674 2673 3347 3346
5972 3 2674 2673 3347 3348
5973 3 2630 2694 2103 2102
5974 3 2630 2694 2103 2104
5975 3 2695 2694 2103 2102
5976 3 2695 2694 2103 2104
5977 1 2657 2754 2755 2756
5978 1 2657 2754 2755 2793
5979 2 2754 2755 2756 2757
5980 2 2754 2755 2756 2794
5981 2 2793 2755 2756 2757
5982 2 2793 2755 2756 2794
5983 1 2754 2755 2793 2781
5984 1 2756 2755 2793 2781
5985 3 2755 2756 2757 2758
5986 3 2755 2756 2757 2818
5987 3 2794 2756 2757 2758
5988 3 2794 2756 2757 2818
5989 3 2755 2756 2794 2715
5990 3 2755 2756 2794 2795
5991 3 2757 2756 2794 2715
5992 3 2757 2756 2794 2795
5993 3 2756 2757 2818 2714
5994 3 2756 2757 2818 2819
5995 3 2758 2757 2818 2714
5996 3 2758 2757 2818 2819
5997 1 2781 2782 2783 2784
5998 1 2781 2782 2783 2805
5999 2 2782 2783 2784 2785
6000 2 2782 2783 2784 2806
6001 2 2805 2783 2784 2785
6002 2 2805 2783 2784 2806
6003 1 2782 2783 2805 2614
6004 1 2784 2783 2805 2614
6005 3 2783 2784 2785 2786
6006 3 2783 2784 2785 2839
6007 3 2806 2784 2785 2786
6008 3 2806 2784 2785 2839
6009 3 2783 2784 2806 2737
6010 3 2783 2784 2806 2807
6011 3 2785 2784 2806 2737
6012 3 2785 2784 2806 2807
6013 3 2784 2785 2839 2736
6014 3 2784 2785 2839 2840
6015 3 2786 2785 2839 2736
6016 3 2786 2785 2839 2840
6017 1 2621 2622 2623 2624
6018 1 2621 2622 2623 2696
6019 2 2622 2623 2624 2625
6020 2 2622 2623 2624 2697
6021 2 2696 2623 2624 2625
6022 2 2696 2623 2624 2697
6023 1 2622 2623 2696 2645
6024 1 2624 2623 2696 2645
6025 3 2623 2624 2625 2626
6026 3 2623 2624 2625 2107
6027 3 2697 2624 2625 2626
6028 3 2697 2624 2625 2107
6029 3 2623 2624 2697 2698
6030 3 2623 2624 2697 2099
6031 3 2625 2624 2697 2698
6032 3 2625 2624 2697 2099
6033 3 2624 2625 2107 2098
6034 3 2624 2625 2107 2108
6035 3 2626 2625 2107 2098
6036 3 2626 2625 2107 2108
6037 1 2645 2646 2647 2648
6038 1 2645 2646 2647 2681
6039 2 2646 2647 2648 2649
6040 2 2646 2647 2648 2682
6041 2 2681 2647 2648 2649
6042 2 2681 2647 2648 2682
6043 1 2646 2647 2681 2603
6044 1 2648 2647 2681 2603
6045 3 2647 2648 2649 2650
6046 3 2647 2648 2649 1271
6047 3 2682 2648 2649 2650
6048 3 2682 2648 2649 1271
6049 3 2647 2648 2682 2683
6050 3 2647 2648 2682 1267
6051 3 2649 2648 2682 2683
6052 3 2649 2648 2682 1267
6053 3 2648 2649 1271 1266
6054 3 2648 2649 1271 1272
6055 3 2650 2649 1271 1266
6056 3 2650 2649 1271 1272
6057 3 2648 2682 1267 1266
6058 3 2648 2682 1267 1268
6059 3 2683 2682 1267 1266
6060 3 2683 2682 1267 1268
6061 3 2624 2697 2099 2098
6062 3 2624 2697 2099 2100
6063 3 2698 2697 2099 2098
6064 3 2698 2697 2099 2100
6065 1 2645 2759 2760 2761
6066 1 2645 2759 2760 2799
6067 2 2759 2760 2761 2762
6068 2 2759 2760 2761 2800
6069 2 2799 2760 2761 2762
6070 2 2799 2760 2761 2800
6071 1 2759 2760 2799 2787
6072 1 2761 2760 2799 2787
6073 3 2760 2761 2762 2763
6074 3 2760 2761 2762 2827
6075 3 2800 2761 2762 2763
6076 3 2800 2761 2762 2827
6077 3 2760 2761 2800 2727
6078 3 2760 2761 2800 2801
6079 3 2762 2761 2800 2727
6080 3 2762 2761 2800 2801
6081 3 2761 2762 2827 2726
6082 3 2761 2762 2827 2828
6083 3 2763 2762 2827 2726
6084 3 2763 2762 2827 2828
6085 1 2787 2788 2789 2790
6086 1 2787 2788 2789 2808
6087 2 2788 2789 2790 2791
6088 2 2788 2789 2790 2809
6089 2 2808 2789 2790 2791
6090 2 2808 2789 2790 2809
6091 1 2788 2789 2808 2603
6092 1 2790 2789 2808 2603
6093 3 2789 2790 2791 2792
6094 3 2789 2790 2791 2836
6095 3 2809 2790 2791 2792
6096 3 2809 2790 2791 2836
6097 3 2789 2790 2809 2732
6098 3 2789 2790 2809 2810
6099 3 2791 2790 2809 2732
6100 3 2791 2790 2809 2810
6101 3 2790 2791 2836 2731
6102 3 2790 2791 2836 2837
6103 3 2792 2791 2836 2731
6104 3 2792 2791 2836 2837
6105 1 2603 2911 2929 2914
6106 1 2603 2911 2929 2930
6107 1 2621 2914 2929 2911
6108 1 2621 2914 2929 2930
6109 2 2911 2929 2930 2931
6110 2 2911 2929 2930 2939
6111 2 2914 2929 2930 2931
6112 2 2914 2929 2930 2939
6113 3 2929 2930 2931 3127
6114 3 2929 2930 2931 2932
6115 3 2939 2930 2931 3127
6116 3 2939 2930 2931 2932
6117 3 2929 2930 2939 3012
6118 3 2929 2930 2939 2940
6119 3 2931 2930 2939 3012
6120 3 2931 2930 2939 2940
6121 1 2711 2841 2842 2843
6122 1 2711 2841 2842 2902
6123 2 2841 2842 2843 2844
6124 2 2841 2842 2843 2903
6125 2 2902 2842 2843 2844
6126 2 2902 2842 2843 2903
6127 1 2841 2842 2902 2582
6128 1 2843 2842 2902 2582
6129 3 2842 2843 2844 2845
6130 3 2842 2843 2844 2885
6131 3 2903 2843 2844 2845
6132 3 2903 2843 2844 2885
6133 3 2842 2843 2903 2874
6134 3 2842 2843 2903 2904
6135 3 2844 2843 2903 2874
6136 3 2844 2843 2903 2904
6137 3 2843 2844 2885 2873
6138 3 2843 2844 2885 2886
6139 3 2845 2844 2885 2873
6140 3 2845 2844 2885 2886
6141 1 2621 2871 2872 2873
6142 1 2621 2871 2872 2884
6143 2 2871 2872 2873 2874
6144 2 2871 2872 2873 2885
6145 2 2884 2872 2873 2874
6146 2 2884 2872 2873 2885
6147 1 2871 2872 2884 2787
6148 1 2873 2872 2884 2787
6149 3 2872 2873 2874 2875
6150 3 2872 2873 2874 2903
6151 3 2885 2873 2874 2875
6152 3 2885 2873 2874 2903
6153 3 2872 2873 2885 2844
6154 3 2872 2873 2885 2886
6155 3 2874 2873 2885 2844
6156 3 2874 2873 2885 2886
6157 3 2873 2874 2903 2843
6158 3 2873 2874 2903 2904
6159 3 2875 2874 2903 2843
6160 3 2875 2874 2903 2904
6161 1 2583 2570 2571 2572
6162 1 2583 2570 2571 2578
6163 2 2570 2571 2572 2573
6164 2 2570 2571 2572 2579
6165 2 2578 2571 2572 2573
6166 2 2578 2571 2572 2579
6167 1 2570 2571 2578 2582
6168 1 2572 2571 2578 2582
6169 3 2571 2572 2573 2574
6170 3 2571 2572 2573 1840
6171 3 2579 2572 2573 2574
6172 3 2579 2572 2573 1840
6173 3 2571 2572 2579 2580
6174 3 2571 2572 2579 1789
6175 3 2573 2572 2579 2580
6176 3 2573 2572 2579 1789
6177 3 2572 2573 1840 1788
6178 3 2572 2573 1840 1841
6179 3 2574 2573 1840 1788
6180 3 2574 2573 1840 1841
6181 3 2572 2579 1789 1788
6182 3 2572 2579 1789 1790
6183 3 2580 2579 1789 1788
6184 3 2580 2579 1789 1790
6185 1 2711 2712 2713 2714
6186 1 2711 2712 2713 2817
6187 2 2712 2713 2714 2715
6188 2 2712 2713 2714 2818
6189 2 2817 2713 2714 2715
6190 2 2817 2713 2714 2818
6191 1 2712 2713 2817 2583
6192 1 2714 2713 2817 2583
6193 3 2713 2714 2715 2716
6194 3 2713 2714 2715 2794
6195 3 2818 2714 2715 2716
6196 3 2818 2714 2715 2794
6197 3 2713 2714 2818 2757
6198 3 2713 2714 2818 2819
6199 3 2715 2714 2818 2757
6200 3 2715 2714 2818 2819
6201 3 2714 2715 2794 2756
6202 3 2714 2715 2794 2795
6203 3 2716 2715 2794 2756
6204 3 2716 2715 2794 2795
6205 1 2601 2744 2745 2746
6206 1 2601 2744 2745 2829
6207 2 2744 2745 2746 2747
6208 2 2744 2745 2746 2830
6209 2 2829 2745 2746 2747
6210 2 2829 2745 2746 2830
6211 1 2744 2745 2829 2711
6212 1 2746 2745 2829 2711
6213 3 2745 2746 2747 2748
6214 3 2745 2746 2747 2812
6215 3 2830 2746 2747 2748
6216 3 2830 2746 2747 2812
6217 3 2745 2746 2830 2779
6218 3 2745 2746 2830 2831
6219 3 2747 2746 2830 2779
6220 3 2747 2746 2830 2831
6221 3 2746 2747 2812 2778
6222 3 2746 2747 2812 2813
6223 3 2748 2747 2812 2778
6224 3 2748 2747 2812 2813
6225 1 2582 2905 2921 2915
6226 1 2582 2905 2921 2922
6227 1 2601 2908 2961 2920
6228 1 2601 2908 2961 2962
6229 1 2601 2915 2921 2905
6230 1 2601 2915 2921 2922
6231 1 2583 2920 2961 2908
6232 1 2583 2920 2961 2962
6233 2 2905 2921 2922 2923
6234 2 2905 2921 2922 2941
6235 2 2915 2921 2922 2923
6236 2 2915 2921 2922 2941
6237 3 2921 2922 2923 3097
6238 3 2921 2922 2923 2924
6239 3 2941 2922 2923 3097
6240 3 2941 2922 2923 2924
6241 3 2921 2922 2941 3043
6242 3 2921 2922 2941 2942
6243 3 2923 2922 2941 3043
6244 3 2923 2922 2941 2942
6245 2 2908 2961 2962 2963
6246 2 2908 2961 2962 2967
6247 2 2920 2961 2962 2963
6248 2 2920 2961 2962 2967
6249 3 2961 2962 2963 986
6250 3 2961 2962 2963 2964
6251 3 2967 2962 2963 986
6252 3 2967 2962 2963 2964
6253 3 2961 2962 2967 953
6254 3 2961 2962 2967 2968
6255 3 2963 2962 2967 953
6256 3 2963 2962 2967 2968
6257 1 2985 2969 2970 2971
6258 1 2985 2969 2970 2982
6259 2 2969 2970 2971 2972
6260 2 2969 2970 2971 2983
6261 2 2982 2970 2971 2972
6262 2 2982 2970 2971 2983
6263 1 2969 2970 2982 2987
6264 1 2971 2970 2982 2987
6265 3 2970 2971 2972 2973
6266 3 2970 2971 2972 1407
6267 3 2983 2971 2972 2973
6268 3 2983 2971 2972 1407
6269 3 2970 2971 2983 2984
6270 3 2970 2971 2983 1389
6271 3 2972 2971 2983 2984
6272 3 2972 2971 2983 1389
6273 3 2971 2972 1407 1388
6274 3 2971 2972 1407 1408
6275 3 2973 2972 1407 1388
6276 3 2973 2972 1407 1408
6277 3 2971 2983 1389 1388
6278 3 2971 2983 1389 1390
6279 3 2984 2983 1389 1388
6280 3 2984 2983 1389 1390
6281 1 2987 2989 2990 2991
6282 1 2987 2989 2990 2999
6283 2 2989 2990 2991 2992
6284 2 2989 2990 2991 3000
6285 2 2999 2990 2991 2992
6286 2 2999 2990 2991 3000
6287 1 2989 2990 2999 3005
6288 1 2991 2990 2999 3005
6289 3 2990 2991 2992 2993
6290 3 2990 2991 2992 2267
6291 3 3000 2991 2992 2993
6292 3 3000 2991 2992 2267
6293 3 2990 2991 3000 3001
6294 3 2990 2991 3000 2219
6295 3 2992 2991 3000 3001
6296 3 2992 2991 3000 2219
6297 3 2991 2992 2267 2218
6298 3 2991 2992 2267 2268
6299 3 2993 2992 2267 2218
6300 3 2993 2992 2267 2268
6301 3 2991 3000 2219 2218
6302 3 2991 3000 2219 2220
6303 3 3001 3000 2219 2218
6304 3 3001 3000 2219 2220
6305 1 3005 3009 3010 3011
6306 1 3005 3009 3010 3126
6307 2 3009 3010 3011 3012
6308 2 3009 3010 3011 3127
6309 2 3126 3010 3011 3012
6310 2 3126 3010 3011 3127
6311 1 3009 3010 3126 2985
6312 1 3011 3010 3126 2985
6313 3 3010 3011 3012 3013
6314 3 3010 3011 3012 2939
6315 3 3127 3011 3012 3013
6316 3 3127 3011 3012 2939
6317 3 3010 3011 3127 3128
6318 3 3010 3011 3127 2931
6319 3 3012 3011 3127 3128
6320 3 3012 3011 3127 2931
6321 3 3011 3012 2939 2930
6322 3 3011 3012 2939 2940
6323 3 3013 3012 2939 2930
6324 3 3013 3012 2939 2940
6325 3 3011 3127 2931 2930
6326 3 3011 3127 2931 2932
6327 3 3128 3127 2931 2930
6328 3 3128 3127 2931 2932
6329 1 3147 3148 3149 3150
6330 1 3147 3148 3149 3250
6331 2 3148 3149 3150 3151
6332 2 3148 3149 3150 3251
6333 2 3250 3149 3150 3151
6334 2 3250 3149 3150 3251
6335 1 3148 3149 3250 2987
6336 1 3150 3149 3250 2987
6337 3 3149 3150 3151 3152
6338 3 3149 3150 3151 3224
6339 3 3251 3150 3151 3152
6340 3 3251 3150 3151 3224
6341 3 3149 3150 3251 3186
6342 3 3149 3150 3251 3252
6343 3 3151 3150 3251 3186
6344 3 3151 3150 3251 3252
6345 3 3150 3151 3224 3185
6346 3 3150 3151 3224 3225
6347 3 3152 3151 3224 3185
6348 3 3152 3151 3224 3225
6349 1 2985 3163 3164 3165
6350 1 2985 3163 3164 3256
6351 2 3163 3164 3165 3166
6352 2 3163 3164 3165 3257
6353 2 3256 3164 3165 3166
6354 2 3256 3164 3165 3257
6355 1 3163 3164 3256 3147
6356 1 3165 3164 3256 3147
6357 3 3164 3165 3166 3167
6358 3 3164 3165 3166 3239
6359 3 3257 3165 3166 3167
6360 3 3257 3165 3166 3239
6361 3 3164 3165 3257 3197
6362 3 3164 3165 3257 3258
6363 3 3166 3165 3257 3197
6364 3 3166 3165 3257 3258
6365 3 3165 3166 3239 3196
6366 3 3165 3166 3239 3240
6367 3 3167 3166 3239 3196
6368 3 3167 3166 3239 3240
6369 1 3147 3280 3281 3282
6370 1 3147 3280 3281 3320
6371 2 3280 3281 3282 3283
6372 2 3280 3281 3282 3321
6373 2 3320 3281 3282 3283
6374 2 3320 3281 3282 3321
6375 1 3280 3281 3320 3005
6376 1 3282 3281 3320 3005
6377 3 3281 3282 3283 3284
6378 3 3281 3282 3283 3312
6379 3 3321 3282 3283 3284
6380 3 3321 3282 3283 3312
6381 3 3281 3282 3321 3288
6382 3 3281 3282 3321 3322
6383 3 3283 3282 3321 3288
6384 3 3283 3282 3321 3322
6385 3 3282 3283 3312 3287
6386 3 3282 3283 3312 3313
6387 3 3284 3283 3312 3287
6388 3 3284 3283 3312 3313
6389 1 3051 3285 3286 3287
6390 1 3051 3285 3286 3311
6391 2 3285 3286 3287 3288
6392 2 3285 3286 3287 3312
6393 2 3311 3286 3287 3288
6394 2 3311 3286 3287 3312
6395 1 3285 3286 3311 3205
6396 1 3287 3286 3311 3205
6397 3 3286 3287 3288 3289
6398 3 3286 3287 3288 3321
6399 3 3312 3287 3288 3289
6400 3 3312 3287 3288 3321
6401 3 3286 3287 3312 3283
6402 3 3286 3287 3312 3313
6403 3 3288 3287 3312 3283
6404 3 3288 3287 3312 3313
6405 3 3287 3288 3321 3282
6406 3 3287 3288 3321 3322
6407 3 3289 3288 3321 3282
6408 3 3289 3288 3321 3322
6409 1 3038 3040 3041 3042
6410 1 3038 3040 3041 3096
6411 2 3040 3041 3042 3043
6412 2 3040 3041 3042 3097
6413 2 3096 3041 3042 3043
6414 2 3096 3041 3042 3097
6415 1 3040 3041 3096 3051
6416 1 3042 3041 3096 3051
6417 3 3041 3042 3043 3044
6418 3 3041 3042 3043 2941
6419 3 3097 3042 3043 3044
6420 3 3097 3042 3043 2941
6421 3 3041 3042 3097 3098
6422 3 3041 3042 3097 2923
6423 3 3043 3042 3097 3098
6424 3 3043 3042 3097 2923
6425 3 3042 3043 2941 2922
6426 3 3042 3043 2941 2942
6427 3 3044 3043 2941 2922
6428 3 3044 3043 2941 2942
6429 1 3051 3052 3053 3054
6430 1 3051 3052 3053 3117
6431 2 3052 3053 3054 3055
6432 2 3052 3053 3054 3118
6433 2 3117 3053 3054 3055
6434 2 3117 3053 3054 3118
6435 1 3052 3053 3117 3081
6436 1 3054 3053 3117 3081
6437 3 3053 3054 3055 3056
6438 3 3053 3054 3055 2529
6439 3 3118 3054 3055 3056
6440 3 3118 3054 3055 2529
6441 3 3053 3054 3118 3119
6442 3 3053 3054 3118 2527
6443 3 3055 3054 3118 3119
6444 3 3055 3054 3118 2527
6445 3 3054 3055 2529 2526
6446 3 3054 3055 2529 2530
6447 3 3056 3055 2529 2526
6448 3 3056 3055 2529 2530
6449 1 3081 3082 3083 3084
6450 1 3081 3082 3083 3102
6451 2 3082 3083 3084 3085
6452 2 3082 3083 3084 3103
6453 2 3102 3083 3084 3085
6454 2 3102 3083 3084 3103
6455 1 3082 3083 3102 3038
6456 1 3084 3083 3102 3038
6457 3 3083 3084 3085 1287
6458 3 3083 3084 3085 3086
6459 3 3103 3084 3085 1287
6460 3 3103 3084 3085 3086
6461 3 3083 3084 3103 1276
6462 3 3083 3084 3103 3104
6463 3 3085 3084 3103 1276
6464 3 3085 3084 3103 3104
6465 3 3042 3097 2923 2922
6466 3 3042 3097 2923 2924
6467 3 3098 3097 2923 2922
6468 3 3098 3097 2923 2924
6469 3 3054 3118 2527 2526
6470 3 3054 3118 2527 2528
6471 3 3119 3118 2527 2526
6472 3 3119 3118 2527 2528
6473 1 3081 3178 3179 3180
6474 1 3081 3178 3179 3217
6475 2 3178 3179 3180 3181
6476 2 3178 3179 3180 3218
6477 2 3217 3179 3180 3181
6478 2 3217 3179 3180 3218
6479 1 3178 3179 3217 3205
6480 1 3180 3179 3217 3205
6481 3 3179 3180 3181 3182
6482 3 3179 3180 3181 3242
6483 3 3218 3180 3181 3182
6484 3 3218 3180 3181 3242
6485 3 3179 3180 3218 3139
6486 3 3179 3180 3218 3219
6487 3 3181 3180 3218 3139
6488 3 3181 3180 3218 3219
6489 3 3180 3181 3242 3138
6490 3 3180 3181 3242 3243
6491 3 3182 3181 3242 3138
6492 3 3182 3181 3242 3243
6493 1 3205 3206 3207 3208
6494 1 3205 3206 3207 3229
6495 2 3206 3207 3208 3209
6496 2 3206 3207 3208 3230
6497 2 3229 3207 3208 3209
6498 2 3229 3207 3208 3230
6499 1 3206 3207 3229 3038
6500 1 3208 3207 3229 3038
6501 3 3207 3208 3209 3210
6502 3 3207 3208 3209 3263
6503 3 3230 3208 3209 3210
6504 3 3230 3208 3209 3263
6505 3 3207 3208 3230 3161
6506 3 3207 3208 3230 3231
6507 3 3209 3208 3230 3161
6508 3 3209 3208 3230 3231
6509 3 3208 3209 3263 3160
6510 3 3208 3209 3263 3264
6511 3 3210 3209 3263 3160
6512 3 3210 3209 3263 3264
6513 1 3045 3046 3047 3048
6514 1 3045 3046 3047 3120
6515 2 3046 3047 3048 3049
6516 2 3046 3047 3048 3121
6517 2 3120 3047 3048 3049
6518 2 3120 3047 3048 3121
6519 1 3046 3047 3120 3069
6520 1 3048 3047 3120 3069
6521 3 3047 3048 3049 3050
6522 3 3047 3048 3049 2531
6523 3 3121 3048 3049 3050
6524 3 3121 3048 3049 2531
6525 3 3047 3048 3121 3122
6526 3 3047 3048 3121 2523
6527 3 3049 3048 3121 3122
6528 3 3049 3048 3121 2523
6529 3 3048 3049 2531 2522
6530 3 3048 3049 2531 2532
6531 3 3050 3049 2531 2522
6532 3 3050 3049 2531 2532
6533 1 3069 3070 3071 3072
6534 1 3069 3070 3071 3105
6535 2 3070 3071 3072 3073
6536 2 3070 3071 3072 3106
6537 2 3105 3071 3072 3073
6538 2 3105 3071 3072 3106
6539 1 3070 3071 3105 3027
6540 1 3072 3071 3105 3027
6541 3 3071 3072 3073 3074
6542 3 3071 3072 3073 1695
6543 3 3106 3072 3073 3074
6544 3 3106 3072 3073 1695
6545 3 3071 3072 3106 3107
6546 3 3071 3072 3106 1691
6547 3 3073 3072 3106 3107
6548 3 3073 3072 3106 1691
6549 3 3072 3073 1695 1690
6550 3 3072 3073 1695 1696
6551 3 3074 3073 1695 1690
6552 3 3074 3073 1695 1696
6553 3 3072 3106 1691 1690
6554 3 3072 3106 1691 1692
6555 3 3107 3106 1691 1690
6556 3 3107 3106 1691 1692
6557 3 3048 3121 2523 2522
6558 3 3048 3121 2523 2524
6559 3 3122 3121 2523 2522
6560 3 3122 3121 2523 2524
6561 1 3069 3183 3184 3185
6562 1 3069 3183 3184 3223
6563 2 3183 3184 3185 3186
6564 2 3183 3184 3185 3224
6565 2 3223 3184 3185 3186
6566 2 3223 3184 3185 3224
6567 1 3183 3184 3223 3211
6568 1 3185 3184 3223 3211
6569 3 3184 3185 3186 3187
6570 3 3184 3185 3186 3251
6571 3 3224 3185 3186 3187
6572 3 3224 3185 3186 3251
6573 3 3184 3185 3224 3151
6574 3 3184 3185 3224 3225
6575 3 3186 3185 3224 3151
6576 3 3186 3185 3224 3225
6577 3 3185 3186 3251 3150
6578 3 3185 3186 3251 3252
6579 3 3187 3186 3251 3150
6580 3 3187 3186 3251 3252
6581 1 3211 3212 3213 3214
6582 1 3211 3212 3213 3232
6583 2 3212 3213 3214 3215
6584 2 3212 3213 3214 3233
6585 2 3232 3213 3214 3215
6586 2 3232 3213 3214 3233
6587 1 3212 3213 3232 3027
6588 1 3214 3213 3232 3027
6589 3 3213 3214 3215 3216
6590 3 3213 3214 3215 3260
6591 3 3233 3214 3215 3216
6592 3 3233 3214 3215 3260
6593 3 3213 3214 3233 3156
6594 3 3213 3214 3233 3234
6595 3 3215 3214 3233 3156
6596 3 3215 3214 3233 3234
6597 3 3214 3215 3260 3155
6598 3 3214 3215 3260 3261
6599 3 3216 3215 3260 3155
6600 3 3216 3215 3260 3261
6601 1 3027 3335 3353 3338
6602 1 3027 3335 3353 3354
6603 1 3045 3338 3353 3335
6604 1 3045 3338 3353 3354
6605 2 3335 3353 3354 3355
6606 2 3335 3353 3354 3363
6607 2 3338 3353 3354 3355
6608 2 3338 3353 3354 3363
6609 3 3353 3354 3355 2703
6610 3 3353 3354 3355 3356
6611 3 3363 3354 3355 2703
6612 3 3363 3354 3355 3356
6613 3 3353 3354 3363 2588
6614 3 3353 3354 3363 3364
6615 3 3355 3354 3363 2588
6616 3 3355 3354 3363 3364
6617 1 3135 3265 3266 3267
6618 1 3135 3265 3266 3326
6619 2 3265 3266 3267 3268
6620 2 3265 3266 3267 3327
6621 2 3326 3266 3267 3268
6622 2 3326 3266 3267 3327
6623 1 3265 3266 3326 3006
6624 1 3267 3266 3326 3006
6625 3 3266 3267 3268 3269
6626 3 3266 3267 3268 3309
6627 3 3327 3267 3268 3269
6628 3 3327 3267 3268 3309
6629 3 3266 3267 3327 3298
6630 3 3266 3267 3327 3328
6631 3 3268 3267 3327 3298
6632 3 3268 3267 3327 3328
6633 3 3267 3268 3309 3297
6634 3 3267 3268 3309 3310
6635 3 3269 3268 3309 3297
6636 3 3269 3268 3309 3310
6637 1 3045 3295 3296 3297
6638 1 3045 3295 3296 3308
6639 2 3295 3296 3297 3298
6640 2 3295 3296 3297 3309
6641 2 3308 3296 3297 3298
6642 2 3308 3296 3297 3309
6643 1 3295 3296 3308 3211
6644 1 3297 3296 3308 3211
6645 3 3296 3297 3298 3299
6646 3 3296 3297 3298 3327
6647 3 3309 3297 3298 3299
6648 3 3309 3297 3298 3327
6649 3 3296 3297 3309 3268
6650 3 3296 3297 3309 3310
6651 3 3298 3297 3309 3268
6652 3 3298 3297 3309 3310
6653 3 3297 3298 3327 3267
6654 3 3297 3298 3327 3328
6655 3 3299 3298 3327 3267
6656 3 3299 3298 3327 3328
6657 1 3007 2994 2995 2996
6658 1 3007 2994 2995 3002
6659 2 2994 2995 2996 2997
6660 2 2994 2995 2996 3003
6661 2 3002 2995 2996 2997
6662 2 3002 2995 2996 3003
6663 1 2994 2995 3002 3006
6664 1 2996 2995 3002 3006
6665 3 2995 2996 2997 2998
6666 3 2995 2996 2997 2264
6667 3 3003 2996 2997 2998
6668 3 3003 2996 2997 2264
6669 3 2995 2996 3003 3004
6670 3 2995 2996 3003 2213
6671 3 2997 2996 3003 3004
6672 3 2997 2996 3003 2213
6673 3 2996 2997 2264 2212
6674 3 2996 2997 2264 2265
6675 3 2998 2997 2264 2212
6676 3 2998 2997 2264 2265
6677 3 2996 3003 2213 2212
6678 3 2996 3003 2213 2214
6679 3 3004 3003 2213 2212
6680 3 3004 3003 2213 2214
6681 1 3135 3136 3137 3138
6682 1 3135 3136 3137 3241
6683 2 3136 3137 3138 3139
6684 2 3136 3137 3138 3242
6685 2 3241 3137 3138 3139
6686 2 3241 3137 3138 3242
6687 1 3136 3137 3241 3007
6688 1 3138 3137 3241 3007
6689 3 3137 3138 3139 3140
6690 3 3137 3138 3139 3218
6691 3 3242 3138 3139 3140
6692 3 3242 3138 3139 3218
6693 3 3137 3138 3242 3181
6694 3 3137 3138 3242 3243
6695 3 3139 3138 3242 3181
6696 3 3139 3138 3242 3243
6697 3 3138 3139 3218 3180
6698 3 3138 3139 3218 3219
6699 3 3140 3139 3218 3180
6700 3 3140 3139 3218 3219
6701 1 3025 3168 3169 3170
6702 1 3025 3168 3169 3253
6703 2 3168 3169 3170 3171
6704 2 3168 3169 3170 3254
6705 2 3253 3169 3170 3171
6706 2 3253 3169 3170 3254
6707 1 3168 3169 3253 3135
6708 1 3170 3169 3253 3135
6709 3 3169 3170 3171 3172
6710 3 3169 3170 3171 3236
6711 3 3254 3170 3171 3172
6712 3 3254 3170 3171 3236
6713 3 3169 3170 3254 3203
6714 3 3169 3170 3254 3255
6715 3 3171 3170 3254 3203
6716 3 3171 3170 3254 3255
6717 3 3170 3171 3236 3202
6718 3 3170 3171 3236 3237
6719 3 3172 3171 3236 3202
6720 3 3172 3171 3236 3237
6721 1 3006 3329 3345 3339
6722 1 3006 3329 3345 3346
6723 1 3025 3332 3385 3344
6724 1 3025 3332 3385 3386
6725 1 3025 3339 3345 3329
6726 1 3025 3339 3345 3346
6727 1 3007 3344 3385 3332
6728 1 3007 3344 3385 3386
6729 2 3329 3345 3346 3347
6730 2 3329 3345 3346 3365
6731 2 3339 3345 3346 3347
6732 2 3339 3345 3346 3365
6733 3 3345 3346 3347 2673
6734 3 3345 3346 3347 3348
6735 3 3365 3346 3347 2673
6736 3 3365 3346 3347 3348
6737 3 3345 3346 3365 2619
6738 3 3345 3346 3365 3366
6739 3 3347 3346 3365 2619
6740 3 3347 3346 3365 3366
6741 2 3332 3385 3386 3387
6742 2 3332 3385 3386 3391
6743 2 3344 3385 3386 3387
6744 2 3344 3385 3386 3391
6745 3 3385 3386 3387 1410
6746 3 3385 3386 3387 3388
6747 3 3391 3386 3387 1410
6748 3 3391 3386 3387 3388
6749 3 3385 3386 3391 1377
6750 3 3385 3386 3391 3392
6751 3 3387 3386 3391 1377
6752 3 3387 3386 3391 3392
6753 1 2607 2609 2610 2611
6754 1 2607 2609 2610 2669
6755 2 2609 2610 2611 2612
6756 2 2609 2610 2611 2670
6757 2 2669 2610 2611 2612
6758 2 2669 2610 2611 2670
6759 1 2609 2610 2669 2639
6760 1 2611 2610 2669 2639
6761 3 2610 2611 2612 2613
6762 3 2610 2611 2612 3367
6763 3 2670 2611 2612 2613
6764 3 2670 2611 2612 3367
6765 3 2610 2611 2670 2671
6766 3 2610 2611 2670 3351
6767 3 2612 2611 2670 2671
6768 3 2612 2611 2670 3351
6769 3 2611 2612 3367 3350
6770 3 2611 2612 3367 3368
6771 3 2613 2612 3367 3350
6772 3 2613 2612 3367 3368
6773 1 2639 2640 2641 2642
6774 1 2639 2640 2641 2690
6775 2 2640 2641 2642 2643
6776 2 2640 2641 2642 2691
6777 2 2690 2641 2642 2643
6778 2 2690 2641 2642 2691
6779 1 2640 2641 2690 2651
6780 1 2642 2641 2690 2651
6781 3 2641 2642 2643 1728
6782 3 2641 2642 2643 2644
6783 3 2691 2642 2643 1728
6784 3 2691 2642 2643 2644
6785 3 2641 2642 2691 1720
6786 3 2641 2642 2691 2692
6787 3 2643 2642 2691 1720
6788 3 2643 2642 2691 2692
6789 1 2651 2652 2653 2654
6790 1 2651 2652 2653 2684
6791 2 2652 2653 2654 2655
6792 2 2652 2653 2654 2685
6793 2 2684 2653 2654 2655
6794 2 2684 2653 2654 2685
6795 1 2652 2653 2684 2607
6796 1 2654 2653 2684 2607
6797 3 2653 2654 2655 2656
6798 3 2653 2654 2655 1269
6799 3 2685 2654 2655 2656
6800 3 2685 2654 2655 1269
6801 3 2653 2654 2685 2686
6802 3 2653 2654 2685 1263
6803 3 2655 2654 2685 2686
6804 3 2655 2654 2685 1263
6805 3 2654 2655 1269 1262
6806 3 2654 2655 1269 1270
6807 3 2656 2655 1269 1262
6808 3 2656 2655 1269 1270
6809 3 2611 2670 3351 3350
6810 3 2611 2670 3351 3352
6811 3 2671 2670 3351 3350
6812 3 2671 2670 3351 3352
6813 3 2654 2685 1263 1262
6814 3 2654 2685 1263 1264
6815 3 2686 2685 1263 1262
6816 3 2686 2685 1263 1264
6817 1 2651 2749 2750 2751
6818 1 2651 2749 2750 2796
6819 2 2749 2750 2751 2752
6820 2 2749 2750 2751 2797
6821 2 2796 2750 2751 2752
6822 2 2796 2750 2751 2797
6823 1 2749 2750 2796 2769
6824 1 2751 2750 2796 2769
6825 3 2750 2751 2752 2753
6826 3 2750 2751 2752 2821
6827 3 2797 2751 2752 2753
6828 3 2797 2751 2752 2821
6829 3 2750 2751 2797 2709
6830 3 2750 2751 2797 2798
6831 3 2752 2751 2797 2709
6832 3 2752 2751 2797 2798
6833 3 2751 2752 2821 2708
6834 3 2751 2752 2821 2822
6835 3 2753 2752 2821 2708
6836 3 2753 2752 2821 2822
6837 1 2769 2770 2771 2772
6838 1 2769 2770 2771 2814
6839 2 2770 2771 2772 2773
6840 2 2770 2771 2772 2815
6841 2 2814 2771 2772 2773
6842 2 2814 2771 2772 2815
6843 1 2770 2771 2814 2607
6844 1 2772 2771 2814 2607
6845 3 2771 2772 2773 2774
6846 3 2771 2772 2773 2833
6847 3 2815 2772 2773 2774
6848 3 2815 2772 2773 2833
6849 3 2771 2772 2815 2742
6850 3 2771 2772 2815 2816
6851 3 2773 2772 2815 2742
6852 3 2773 2772 2815 2816
6853 3 2772 2773 2833 2741
6854 3 2772 2773 2833 2834
6855 3 2774 2773 2833 2741
6856 3 2774 2773 2833 2834
6857 1 2717 2846 2847 2848
6858 1 2717 2846 2847 2899
6859 2 2846 2847 2848 2849
6860 2 2846 2847 2848 2900
6861 2 2899 2847 2848 2849
6862 2 2899 2847 2848 2900
6863 1 2846 2847 2899 2590
6864 1 2848 2847 2899 2590
6865 3 2847 2848 2849 2850
6866 3 2847 2848 2849 2882
6867 3 2900 2848 2849 2850
6868 3 2900 2848 2849 2882
6869 3 2847 2848 2900 2879
6870 3 2847 2848 2900 2901
6871 3 2849 2848 2900 2879
6872 3 2849 2848 2900 2901
6873 3 2848 2849 2882 2878
6874 3 2848 2849 2882 2883
6875 3 2850 2849 2882 2878
6876 3 2850 2849 2882 2883
6877 1 2639 2876 2877 2878
6878 1 2639 2876 2877 2881
6879 2 2876 2877 2878 2879
6880 2 2876 2877 2878 2882
6881 2 2881 2877 2878 2879
6882 2 2881 2877 2878 2882
6883 1 2876 2877 2881 2769
6884 1 2878 2877 2881 2769
6885 3 2877 2878 2879 2880
6886 3 2877 2878 2879 2900
6887 3 2882 2878 2879 2880
6888 3 2882 2878 2879 2900
6889 3 2877 2878 2882 2849
6890 3 2877 2878 2882 2883
6891 3 2879 2878 2882 2849
6892 3 2879 2878 2882 2883
6893 3 2878 2879 2900 2848
6894 3 2878 2879 2900 2901
6895 3 2880 2879 2900 2848
6896 3 2880 2879 2900 2901
6897 1 2590 2592 2593 2594
6898 1 2590 2592 2593 2699
6899 2 2592 2593 2594 2595
6900 2 2592 2593 2594 2700
6901 2 2699 2593 2594 2595
6902 2 2699 2593 2594 2700
6903 1 2592 2593 2699 2600
6904 1 2594 2593 2699 2600
6905 3 2593 2594 2595 2596
6906 3 2593 2594 2595 3361
6907 3 2700 2594 2595 2596
6908 3 2700 2594 2595 3361
6909 3 2593 2594 2700 2701
6910 3 2593 2594 2700 3359
6911 3 2595 2594 2700 2701
6912 3 2595 2594 2700 3359
6913 3 2594 2595 3361 3358
6914 3 2594 2595 3361 3362
6915 3 2596 2595 3361 3358
6916 3 2596 2595 3361 3362
6917 3 2594 2700 3359 3358
6918 3 2594 2700 3359 3360
6919 3 2701 2700 3359 3358
6920 3 2701 2700 3359 3360
6921 1 2717 2718 2719 2720
6922 1 2717 2718 2719 2823
6923 2 2718 2719 2720 2721
6924 2 2718 2719 2720 2824
6925 2 2823 2719 2720 2721
6926 2 2823 2719 2720 2824
6927 1 2718 2719 2823 2602
6928 1 2720 2719 2823 2602
6929 3 2719 2720 2721 2722
6930 3 2719 2720 2721 2803
6931 3 2824 2720 2721 2722
6932 3 2824 2720 2721 2803
6933 3 2719 2720 2824 2767
6934 3 2719 2720 2824 2825
6935 3 2721 2720 2824 2767
6936 3 2721 2720 2824 2825
6937 3 2720 2721 2803 2766
6938 3 2720 2721 2803 2804
6939 3 2722 2721 2803 2766
6940 3 2722 2721 2803 2804
6941 1 2600 2734 2735 2736
6942 1 2600 2734 2735 2838
6943 2 2734 2735 2736 2737
6944 2 2734 2735 2736 2839
6945 2 2838 2735 2736 2737
6946 2 2838 2735 2736 2839
6947 1 2734 2735 2838 2717
6948 1 2736 2735 2838 2717
6949 3 2735 2736 2737 2738
6950 3 2735 2736 2737 2806
6951 3 2839 2736 2737 2738
6952 3 2839 2736 2737 2806
6953 3 2735 2736 2839 2785
6954 3 2735 2736 2839 2840
6955 3 2737 2736 2839 2785
6956 3 2737 2736 2839 2840
6957 3 2736 2737 2806 2784
6958 3 2736 2737 2806 2807
6959 3 2738 2737 2806 2784
6960 3 2738 2737 2806 2807
6961 1 2600 2907 2957 2919
6962 1 2600 2907 2957 2958
6963 1 2602 2910 2949 2917
6964 1 2602 2910 2949 2950
6965 1 2590 2917 2949 2910
6966 1 2590 2917 2949 2950
6967 1 2602 2919 2957 2907
6968 1 2602 2919 2957 2958
6969 2 2910 2949 2950 2951
6970 2 2910 2949 2950 2953
6971 2 2917 2949 2950 2951
6972 2 2917 2949 2950 2953
6973 3 2949 2950 2951 1846
6974 3 2949 2950 2951 2952
6975 3 2953 2950 2951 1846
6976 3 2953 2950 2951 2952
6977 3 2949 2950 2953 1783
6978 3 2949 2950 2953 2954
6979 3 2951 2950 2953 1783
6980 3 2951 2950 2953 2954
6981 2 2907 2957 2958 2959
6982 2 2907 2957 2958 2965
6983 2 2919 2957 2958 2959
6984 2 2919 2957 2958 2965
6985 3 2957 2958 2959 989
6986 3 2957 2958 2959 2960
6987 3 2965 2958 2959 989
6988 3 2965 2958 2959 2960
6989 3 2957 2958 2965 959
6990 3 2957 2958 2965 2966
6991 3 2959 2958 2965 959
6992 3 2959 2958 2965 2966
6993 1 2562 2550 2551 2552
6994 1 2562 2550 2551 2555
6995 2 2550 2551 2552 2553
6996 2 2550 2551 2552 2556
6997 2 2555 2551 2552 2553
6998 2 2555 2551 2552 2556
6999 1 2550 2551 2555 2564
7000 1 2552 2551 2555 2564
7001 3 2551 2552 2553 2554
7002 3 2551 2552 2553 980
7003 3 2556 2552 2553 2554
7004 3 2556 2552 2553 980
7005 3 2551 2552 2556 2557
7006 3 2551 2552 2556 971
7007 3 2553 2552 2556 2557
7008 3 2553 2552 2556 971
7009 3 2552 2553 980 970
7010 3 2552 2553 980 981
7011 3 2554 2553 980 970
7012 3 2554 2553 980 981
7013 3 2552 2556 971 970
7014 3 2552 2556 971 972
7015 3 2557 2556 971 970
7016 3 2557 2556 971 972
7017 1 2705 2706 2707 2708
7018 1 2705 2706 2707 2820
7019 2 2706 2707 2708 2709
7020 2 2706 2707 2708 2821
7021 2 2820 2707 2708 2709
7022 2 2820 2707 2708 2821
7023 1 2706 2707 2820 2564
7024 1 2708 2707 2820 2564
7025 3 2707 2708 2709 2710
7026 3 2707 2708 2709 2797
7027 3 2821 2708 2709 2710
7028 3 2821 2708 2709 2797
7029 3 2707 2708 2821 2752
7030 3 2707 2708 2821 2822
7031 3 2709 2708 2821 2752
7032 3 2709 2708 2821 2822
7033 3 2708 2709 2797 2751
7034 3 2708 2709 2797 2798
7035 3 2710 2709 2797 2751
7036 3 2710 2709 2797 2798
7037 1 2562 2729 2730 2731
7038 1 2562 2729 2730 2835
7039 2 2729 2730 2731 2732
7040 2 2729 2730 2731 2836
7041 2 2835 2730 2731 2732
7042 2 2835 2730 2731 2836
7043 1 2729 2730 2835 2705
7044 1 2731 2730 2835 2705
7045 3 2730 2731 2732 2733
7046 3 2730 2731 2732 2809
7047 3 2836 2731 2732 2733
7048 3 2836 2731 2732 2809
7049 3 2730 2731 2836 2791
7050 3 2730 2731 2836 2837
7051 3 2732 2731 2836 2791
7052 3 2732 2731 2836 2837
7053 3 2731 2732 2809 2790
7054 3 2731 2732 2809 2810
7055 3 2733 2732 2809 2790
7056 3 2733 2732 2809 2810
7057 1 2598 2906 2925 2916
7058 1 2598 2906 2925 2926
7059 1 2564 2909 2945 2918
7060 1 2564 2909 2945 2946
7061 1 2562 2916 2925 2906
7062 1 2562 2916 2925 2926
7063 1 2598 2918 2945 2909
7064 1 2598 2918 2945 2946
7065 2 2906 2925 2926 2927
7066 2 2906 2925 2926 2943
7067 2 2916 2925 2926 2927
7068 2 2916 2925 2926 2943
7069 3 2925 2926 2927 3094
7070 3 2925 2926 2927 2928
7071 3 2943 2926 2927 3094
7072 3 2943 2926 2927 2928
7073 3 2925 2926 2943 3036
7074 3 2925 2926 2943 2944
7075 3 2927 2926 2943 3036
7076 3 2927 2926 2943 2944
7077 2 2909 2945 2946 2947
7078 2 2909 2945 2946 2955
7079 2 2918 2945 2946 2947
7080 2 2918 2945 2946 2955
7081 3 2945 2946 2947 1849
7082 3 2945 2946 2947 2948
7083 3 2955 2946 2947 1849
7084 3 2955 2946 2947 2948
7085 3 2945 2946 2955 1777
7086 3 2945 2946 2955 2956
7087 3 2947 2946 2955 1777
7088 3 2947 2946 2955 2956
7089 1 2705 2851 2852 2853
7090 1 2705 2851 2852 2893
7091 2 2851 2852 2853 2854
7092 2 2851 2852 2853 2894
7093 2 2893 2852 2853 2854
7094 2 2893 2852 2853 2894
7095 1 2851 2852 2893 2598
7096 1 2853 2852 2893 2598
7097 3 2852 2853 2854 2855
7098 3 2852 2853 2854 2891
7099 3 2894 2853 2854 2855
7100 3 2894 2853 2854 2891
7101 3 2852 2853 2894 2869
7102 3 2852 2853 2894 2895
7103 3 2854 2853 2894 2869
7104 3 2854 2853 2894 2895
7105 3 2853 2854 2891 2868
7106 3 2853 2854 2891 2892
7107 3 2855 2854 2891 2868
7108 3 2855 2854 2891 2892
7109 1 2633 2866 2867 2868
7110 1 2633 2866 2867 2890
7111 2 2866 2867 2868 2869
7112 2 2866 2867 2868 2891
7113 2 2890 2867 2868 2869
7114 2 2890 2867 2868 2891
7115 1 2866 2867 2890 2775
7116 1 2868 2867 2890 2775
7117 3 2867 2868 2869 2870
7118 3 2867 2868 2869 2894
7119 3 2891 2868 2869 2870
7120 3 2891 2868 2869 2894
7121 3 2867 2868 2891 2854
7122 3 2867 2868 2891 2892
7123 3 2869 2868 2891 2854
7124 3 2869 2868 2891 2892
7125 3 2868 2869 2894 2853
7126 3 2868 2869 2894 2895
7127 3 2870 2869 2894 2853
7128 3 2870 2869 2894 2895
7129 1 2633 2634 2635 2636
7130 1 2633 2634 2635 2687
7131 2 2634 2635 2636 2637
7132 2 2634 2635 2636 2688
7133 2 2687 2635 2636 2637
7134 2 2687 2635 2636 2688
7135 1 2634 2635 2687 2663
7136 1 2636 2635 2687 2663
7137 3 2635 2636 2637 1731
7138 3 2635 2636 2637 2638
7139 3 2688 2636 2637 1731
7140 3 2688 2636 2637 2638
7141 3 2635 2636 2688 1725
7142 3 2635 2636 2688 2689
7143 3 2637 2636 2688 1725
7144 3 2637 2636 2688 2689
7145 1 2663 2664 2665 2666
7146 1 2663 2664 2665 2675
7147 2 2664 2665 2666 2667
7148 2 2664 2665 2666 2676
7149 2 2675 2665 2666 2667
7150 2 2675 2665 2666 2676
7151 1 2664 2665 2675 2605
7152 1 2666 2665 2675 2605
7153 3 2665 2666 2667 860
7154 3 2665 2666 2667 2668
7155 3 2676 2666 2667 860
7156 3 2676 2666 2667 2668
7157 3 2665 2666 2676 857
7158 3 2665 2666 2676 2677
7159 3 2667 2666 2676 857
7160 3 2667 2666 2676 2677
7161 1 2663 2764 2765 2766
7162 1 2663 2764 2765 2802
7163 2 2764 2765 2766 2767
7164 2 2764 2765 2766 2803
7165 2 2802 2765 2766 2767
7166 2 2802 2765 2766 2803
7167 1 2764 2765 2802 2775
7168 1 2766 2765 2802 2775
7169 3 2765 2766 2767 2768
7170 3 2765 2766 2767 2824
7171 3 2803 2766 2767 2768
7172 3 2803 2766 2767 2824
7173 3 2765 2766 2803 2721
7174 3 2765 2766 2803 2804
7175 3 2767 2766 2803 2721
7176 3 2767 2766 2803 2804
7177 3 2766 2767 2824 2720
7178 3 2766 2767 2824 2825
7179 3 2768 2767 2824 2720
7180 3 2768 2767 2824 2825
7181 1 2775 2776 2777 2778
7182 1 2775 2776 2777 2811
7183 2 2776 2777 2778 2779
7184 2 2776 2777 2778 2812
7185 2 2811 2777 2778 2779
7186 2 2811 2777 2778 2812
7187 1 2776 2777 2811 2605
7188 1 2778 2777 2811 2605
7189 3 2777 2778 2779 2780
7190 3 2777 2778 2779 2830
7191 3 2812 2778 2779 2780
7192 3 2812 2778 2779 2830
7193 3 2777 2778 2812 2747
7194 3 2777 2778 2812 2813
7195 3 2779 2778 2812 2747
7196 3 2779 2778 2812 2813
7197 3 2778 2779 2830 2746
7198 3 2778 2779 2830 2831
7199 3 2780 2779 2830 2746
7200 3 2780 2779 2830 2831
7201 1 2605 2912 2933 2913
7202 1 2605 2912 2933 2934
7203 1 2633 2913 2933 2912
7204 1 2633 2913 2933 2934
7205 2 2912 2933 2934 2935
7206 2 2912 2933 2934 2937
7207 2 2913 2933 2934 2935
7208 2 2913 2933 2934 2937
7209 3 2933 2934 2935 3124
7210 3 2933 2934 2935 2936
7211 3 2937 2934 2935 3124
7212 3 2937 2934 2935 2936
7213 3 2933 2934 2937 3019
7214 3 2933 2934 2937 2938
7215 3 2935 2934 2937 3019
7216 3 2935 2934 2937 2938
7217 1 3031 3033 3034 3035
7218 1 3031 3033 3034 3093
7219 2 3033 3034 3035 3036
7220 2 3033 3034 3035 3094
7221 2 3093 3034 3035 3036
7222 2 3093 3034 3035 3094
7223 1 3033 3034 3093 3063
7224 1 3035 3034 3093 3063
7225 3 3034 3035 3036 3037
7226 3 3034 3035 3036 2943
7227 3 3094 3035 3036 3037
7228 3 3094 3035 3036 2943
7229 3 3034 3035 3094 3095
7230 3 3034 3035 3094 2927
7231 3 3036 3035 3094 3095
7232 3 3036 3035 3094 2927
7233 3 3035 3036 2943 2926
7234 3 3035 3036 2943 2944
7235 3 3037 3036 2943 2926
7236 3 3037 3036 2943 2944
7237 1 3063 3064 3065 3066
7238 1 3063 3064 3065 3114
7239 2 3064 3065 3066 3067
7240 2 3064 3065 3066 3115
7241 2 3114 3065 3066 3067
7242 2 3114 3065 3066 3115
7243 1 3064 3065 3114 3075
7244 1 3066 3065 3114 3075
7245 3 3065 3066 3067 2152
7246 3 3065 3066 3067 3068
7247 3 3115 3066 3067 2152
7248 3 3115 3066 3067 3068
7249 3 3065 3066 3115 2144
7250 3 3065 3066 3115 3116
7251 3 3067 3066 3115 2144
7252 3 3067 3066 3115 3116
7253 1 3075 3076 3077 3078
7254 1 3075 3076 3077 3108
7255 2 3076 3077 3078 3079
7256 2 3076 3077 3078 3109
7257 2 3108 3077 3078 3079
7258 2 3108 3077 3078 3109
7259 1 3076 3077 3108 3031
7260 1 3078 3077 3108 3031
7261 3 3077 3078 3079 3080
7262 3 3077 3078 3079 1693
7263 3 3109 3078 3079 3080
7264 3 3109 3078 3079 1693
7265 3 3077 3078 3109 3110
7266 3 3077 3078 3109 1687
7267 3 3079 3078 3109 3110
7268 3 3079 3078 3109 1687
7269 3 3078 3079 1693 1686
7270 3 3078 3079 1693 1694
7271 3 3080 3079 1693 1686
7272 3 3080 3079 1693 1694
7273 3 3035 3094 2927 2926
7274 3 3035 3094 2927 2928
7275 3 3095 3094 2927 2926
7276 3 3095 3094 2927 2928
7277 3 3078 3109 1687 1686
7278 3 3078 3109 1687 1688
7279 3 3110 3109 1687 1686
7280 3 3110 3109 1687 1688
7281 1 3075 3173 3174 3175
7282 1 3075 3173 3174 3220
7283 2 3173 3174 3175 3176
7284 2 3173 3174 3175 3221
7285 2 3220 3174 3175 3176
7286 2 3220 3174 3175 3221
7287 1 3173 3174 3220 3193
7288 1 3175 3174 3220 3193
7289 3 3174 3175 3176 3177
7290 3 3174 3175 3176 3245
7291 3 3221 3175 3176 3177
7292 3 3221 3175 3176 3245
7293 3 3174 3175 3221 3133
7294 3 3174 3175 3221 3222
7295 3 3176 3175 3221 3133
7296 3 3176 3175 3221 3222
7297 3 3175 3176 3245 3132
7298 3 3175 3176 3245 3246
7299 3 3177 3176 3245 3132
7300 3 3177 3176 3245 3246
7301 1 3193 3194 3195 3196
7302 1 3193 3194 3195 3238
7303 2 3194 3195 3196 3197
7304 2 3194 3195 3196 3239
7305 2 3238 3195 3196 3197
7306 2 3238 3195 3196 3239
7307 1 3194 3195 3238 3031
7308 1 3196 3195 3238 3031
7309 3 3195 3196 3197 3198
7310 3 3195 3196 3197 3257
7311 3 3239 3196 3197 3198
7312 3 3239 3196 3197 3257
7313 3 3195 3196 3239 3166
7314 3 3195 3196 3239 3240
7315 3 3197 3196 3239 3166
7316 3 3197 3196 3239 3240
7317 3 3196 3197 3257 3165
7318 3 3196 3197 3257 3258
7319 3 3198 3197 3257 3165
7320 3 3198 3197 3257 3258
7321 1 3141 3270 3271 3272
7322 1 3141 3270 3271 3323
7323 2 3270 3271 3272 3273
7324 2 3270 3271 3272 3324
7325 2 3323 3271 3272 3273
7326 2 3323 3271 3272 3324
7327 1 3270 3271 3323 3014
7328 1 3272 3271 3323 3014
7329 3 3271 3272 3273 3274
7330 3 3271 3272 3273 3306
7331 3 3324 3272 3273 3274
7332 3 3324 3272 3273 3306
7333 3 3271 3272 3324 3303
7334 3 3271 3272 3324 3325
7335 3 3273 3272 3324 3303
7336 3 3273 3272 3324 3325
7337 3 3272 3273 3306 3302
7338 3 3272 3273 3306 3307
7339 3 3274 3273 3306 3302
7340 3 3274 3273 3306 3307
7341 1 3063 3300 3301 3302
7342 1 3063 3300 3301 3305
7343 2 3300 3301 3302 3303
7344 2 3300 3301 3302 3306
7345 2 3305 3301 3302 3303
7346 2 3305 3301 3302 3306
7347 1 3300 3301 3305 3193
7348 1 3302 3301 3305 3193
7349 3 3301 3302 3303 3304
7350 3 3301 3302 3303 3324
7351 3 3306 3302 3303 3304
7352 3 3306 3302 3303 3324
7353 3 3301 3302 3306 3273
7354 3 3301 3302 3306 3307
7355 3 3303 3302 3306 3273
7356 3 3303 3302 3306 3307
7357 3 3302 3303 3324 3272
7358 3 3302 3303 3324 3325
7359 3 3304 3303 3324 3272
7360 3 3304 3303 3324 3325
7361 1 3014 3016 3017 3018
7362 1 3014 3016 3017 3123
7363 2 3016 3017 3018 3019
7364 2 3016 3017 3018 3124
7365 2 3123 3017 3018 3019
7366 2 3123 3017 3018 3124
7367 1 3016 3017 3123 3024
7368 1 3018 3017 3123 3024
7369 3 3017 3018 3019 3020
7370 3 3017 3018 3019 2937
7371 3 3124 3018 3019 3020
7372 3 3124 3018 3019 2937
7373 3 3017 3018 3124 3125
7374 3 3017 3018 3124 2935
7375 3 3019 3018 3124 3125
7376 3 3019 3018 3124 2935
7377 3 3018 3019 2937 2934
7378 3 3018 3019 2937 2938
7379 3 3020 3019 2937 2934
7380 3 3020 3019 2937 2938
7381 3 3018 3124 2935 2934
7382 3 3018 3124 2935 2936
7383 3 3125 3124 2935 2934
7384 3 3125 3124 2935 2936
7385 1 3141 3142 3143 3144
7386 1 3141 3142 3143 3247
7387 2 3142 3143 3144 3145
7388 2 3142 3143 3144 3248
7389 2 3247 3143 3144 3145
7390 2 3247 3143 3144 3248
7391 1 3142 3143 3247 3026
7392 1 3144 3143 3247 3026
7393 3 3143 3144 3145 3146
7394 3 3143 3144 3145 3227
7395 3 3248 3144 3145 3146
7396 3 3248 3144 3145 3227
7397 3 3143 3144 3248 3191
7398 3 3143 3144 3248 3249
7399 3 3145 3144 3248 3191
7400 3 3145 3144 3248 3249
7401 3 3144 3145 3227 3190
7402 3 3144 3145 3227 3228
7403 3 3146 3145 3227 3190
7404 3 3146 3145 3227 3228
7405 1 3024 3158 3159 3160
7406 1 3024 3158 3159 3262
7407 2 3158 3159 3160 3161
7408 2 3158 3159 3160 3263
7409 2 3262 3159 3160 3161
7410 2 3262 3159 3160 3263
7411 1 3158 3159 3262 3141
7412 1 3160 3159 3262 3141
7413 3 3159 3160 3161 3162
7414 3 3159 3160 3161 3230
7415 3 3263 3160 3161 3162
7416 3 3263 3160 3161 3230
7417 3 3159 3160 3263 3209
7418 3 3159 3160 3263 3264
7419 3 3161 3160 3263 3209
7420 3 3161 3160 3263 3264
7421 3 3160 3161 3230 3208
7422 3 3160 3161 3230 3231
7423 3 3162 3161 3230 3208
7424 3 3162 3161 3230 3231
7425 1 3024 3331 3381 3343
7426 1 3024 3331 3381 3382
7427 1 3026 3334 3373 3341
7428 1 3026 3334 3373 3374
7429 1 3014 3341 3373 3334
7430 1 3014 3341 3373 3374
7431 1 3026 3343 3381 3331
7432 1 3026 3343 3381 3382
7433 2 3334 3373 3374 3375
7434 2 3334 3373 3374 3377
7435 2 3341 3373 3374 3375
7436 2 3341 3373 3374 3377
7437 3 3373 3374 3375 2270
7438 3 3373 3374 3375 3376
7439 3 3377 3374 3375 2270
7440 3 3377 3374 3375 3376
7441 3 3373 3374 3377 2207
7442 3 3373 3374 3377 3378
7443 3 3375 3374 3377 2207
7444 3 3375 3374 3377 3378
7445 2 3331 3381 3382 3383
7446 2 3331 3381 3382 3389
7447 2 3343 3381 3382 3383
7448 2 3343 3381 3382 3389
7449 3 3381 3382 3383 1413
7450 3 3381 3382 3383 3384
7451 3 3389 3382 3383 1413
7452 3 3389 3382 3383 3384
7453 3 3381 3382 3389 1383
7454 3 3381 3382 3389 3390
7455 3 3383 3382 3389 1383
7456 3 3383 3382 3389 3390
7457 1 2986 2974 2975 2976
7458 1 2986 2974 2975 2979
7459 2 2974 2975 2976 2977
7460 2 2974 2975 2976 2980
7461 2 2979 2975 2976 2977
7462 2 2979 2975 2976 2980
7463 1 2974 2975 2979 2988
7464 1 2976 2975 2979 2988
7465 3 2975 2976 2977 2978
7466 3 2975 2976 2977 1404
7467 3 2980 2976 2977 2978
7468 3 2980 2976 2977 1404
7469 3 2975 2976 2980 2981
7470 3 2975 2976 2980 1395
7471 3 2977 2976 2980 2981
7472 3 2977 2976 2980 1395
7473 3 2976 2977 1404 1394
7474 3 2976 2977 1404 1405
7475 3 2978 2977 1404 1394
7476 3 2978 2977 1404 1405
7477 3 2976 2980 1395 1394
7478 3 2976 2980 1395 1396
7479 3 2981 2980 1395 1394
7480 3 2981 2980 1395 1396
7481 1 3129 3130 3131 3132
7482 1 3129 3130 3131 3244
7483 2 3130 3131 3132 3133
7484 2 3130 3131 3132 3245
7485 2 3244 3131 3132 3133
7486 2 3244 3131 3132 3245
7487 1 3130 3131 3244 2988
7488 1 3132 3131 3244 2988
7489 3 3131 3132 3133 3134
7490 3 3131 3132 3133 3221
7491 3 3245 3132 3133 3134
7492 3 3245 3132 3133 3221
7493 3 3131 3132 3245 3176
7494 3 3131 3132 3245 3246
7495 3 3133 3132 3245 3176
7496 3 3133 3132 3245 3246
7497 3 3132 3133 3221 3175
7498 3 3132 3133 3221 3222
7499 3 3134 3133 3221 3175
7500 3 3134 3133 3221 3222
7501 1 2986 3153 3154 3155
7502 1 2986 3153 3154 3259
7503 2 3153 3154 3155 3156
7504 2 3153 3154 3155 3260
7505 2 3259 3154 3155 3156
7506 2 3259 3154 3155 3260
7507 1 3153 3154 3259 3129
7508 1 3155 3154 3259 3129
7509 3 3154 3155 3156 3157
7510 3 3154 3155 3156 3233
7511 3 3260 3155 3156 3157
7512 3 3260 3155 3156 3233
7513 3 3154 3155 3260 3215
7514 3 3154 3155 3260 3261
7515 3 3156 3155 3260 3215
7516 3 3156 3155 3260 3261
7517 3 3155 3156 3233 3214
7518 3 3155 3156 3233 3234
7519 3 3157 3156 3233 3214
7520 3 3157 3156 3233 3234
7521 1 3022 3330 3349 3340
7522 1 3022 3330 3349 3350
7523 1 2988 3333 3369 3342
7524 1 2988 3333 3369 3370
7525 1 2986 3340 3349 3330
7526 1 2986 3340 3349 3350
7527 1 3022 3342 3369 3333
7528 1 3022 3342 3369 3370
7529 2 3330 3349 3350 3351
7530 2 3330 3349 3350 3367
7531 2 3340 3349 3350 3351
7532 2 3340 3349 3350 3367
7533 3 3349 3350 3351 2670
7534 3 3349 3350 3351 3352
7535 3 3367 3350 3351 2670
7536 3 3367 3350 3351 3352
7537 3 3349 3350 3367 2612
7538 3 3349 3350 3367 3368
7539 3 3351 3350 3367 2612
7540 3 3351 3350 3367 3368
7541 2 3333 3369 3370 3371
7542 2 3333 3369 3370 3379
7543 2 3342 3369 3370 3371
7544 2 3342 3369 3370 3379
7545 3 3369 3370 3371 2273
7546 3 3369 3370 3371 3372
7547 3 3379 3370 3371 2273
7548 3 3379 3370 3371 3372
7549 3 3369 3370 3379 2201
7550 3 3369 3370 3379 3380
7551 3 3371 3370 3379 2201
7552 3 3371 3370 3379 3380
7553 1 3129 3275 3276 3277
7554 1 3129 3275 3276 3317
7555 2 3275 3276 3277 3278
7556 2 3275 3276 3277 3318
7557 2 3317 3276 3277 3278
7558 2 3317 3276 3277 3318
7559 1 3275 3276 3317 3022
7560 1 3277 3276 3317 3022
7561 3 3276 3277 3278 3279
7562 3 3276 3277 3278 3315
7563 3 3318 3277 3278 3279
7564 3 3318 3277 3278 3315
7565 3 3276 3277 3318 3293
7566 3 3276 3277 3318 3319
7567 3 3278 3277 3318 3293
7568 3 3278 3277 3318 3319
7569 3 3277 3278 3315 3292
7570 3 3277 3278 3315 3316
7571 3 3279 3278 3315 3292
7572 3 3279 3278 3315 3316
7573 1 3057 3290 3291 3292
7574 1 3057 3290 3291 3314
7575 2 3290 3291 3292 3293
7576 2 3290 3291 3292 3315
7577 2 3314 3291 3292 3293
7578 2 3314 3291 3292 3315
7579 1 3290 3291 3314 3199
7580 1 3292 3291 3314 3199
7581 3 3291 3292 3293 3294
7582 3 3291 3292 3293 3318
7583 3 3315 3292 3293 3294
7584 3 3315 3292 3293 3318
7585 3 3291 3292 3315 3278
7586 3 3291 3292 3315 3316
7587 3 3293 3292 3315 3278
7588 3 3293 3292 3315 3316
7589 3 3292 3293 3318 3277
7590 3 3292 3293 3318 3319
7591 3 3294 3293 3318 3277
7592 3 3294 3293 3318 3319
7593 1 3057 3058 3059 3060
7594 1 3057 3058 3059 3111
7595 2 3058 3059 3060 3061
7596 2 3058 3059 3060 3112
7597 2 3111 3059 3060 3061
7598 2 3111 3059 3060 3112
7599 1 3058 3059 3111 3087
7600 1 3060 3059 3111 3087
7601 3 3059 3060 3061 2155
7602 3 3059 3060 3061 3062
7603 3 3112 3060 3061 2155
7604 3 3112 3060 3061 3062
7605 3 3059 3060 3112 2149
7606 3 3059 3060 3112 3113
7607 3 3061 3060 3112 2149
7608 3 3061 3060 3112 3113
7609 1 3087 3088 3089 3090
7610 1 3087 3088 3089 3099
7611 2 3088 3089 3090 3091
7612 2 3088 3089 3090 3100
7613 2 3099 3089 3090 3091
7614 2 3099 3089 3090 3100
7615 1 3088 3089 3099 3029
7616 1 3090 3089 3099 3029
7617 3 3089 3090 3091 1284
7618 3 3089 3090 3091 3092
7619 3 3100 3090 3091 1284
7620 3 3100 3090 3091 3092
7621 3 3089 3090 3100 1281
7622 3 3089 3090 3100 3101
7623 3 3091 3090 3100 1281
7624 3 3091 3090 3100 3101
7625 1 3087 3188 3189 3190
7626 1 3087 3188 3189 3226
7627 2 3188 3189 3190 3191
7628 2 3188 3189 3190 3227
7629 2 3226 3189 3190 3191
7630 2 3226 3189 3190 3227
7631 1 3188 3189 3226 3199
7632 1 3190 3189 3226 3199
7633 3 3189 3190 3191 3192
7634 3 3189 3190 3191 3248
7635 3 3227 3190 3191 3192
7636 3 3227 3190 3191 3248
7637 3 3189 3190 3227 3145
7638 3 3189 3190 3227 3228
7639 3 3191 3190 3227 3145
7640 3 3191 3190 3227 3228
7641 3 3190 3191 3248 3144
7642 3 3190 3191 3248 3249
7643 3 3192 3191 3248 3144
7644 3 3192 3191 3248 3249
7645 1 3199 3200 3201 3202
7646 1 3199 3200 3201 3235
7647 2 3200 3201 3202 3203
7648 2 3200 3201 3202 3236
7649 2 3235 3201 3202 3203
7650 2 3235 3201 3202 3236
7651 1 3200 3201 3235 3029
7652 1 3202 3201 3235 3029
7653 3 3201 3202 3203 3204
7654 3 3201 3202 3203 3254
7655 3 3236 3202 3203 3204
7656 3 3236 3202 3203 3254
7657 3 3201 3202 3236 3171
7658 3 3201 3202 3236 3237
7659 3 3203 3202 3236 3171
7660 3 3203 3202 3236 3237
7661 3 3202 3203 3254 3170
7662 3 3202 3203 3254 3255
7663 3 3204 3203 3254 3170
7664 3 3204 3203 3254 3255
7665 1 3029 3336 3357 3337
7666 1 3029 3336 3357 3358
7667 1 3057 3337 3357 3336
7668 1 3057 3337 3357 3358
7669 2 3336 3357 3358 3359
7670 2 3336 3357 3358 3361
7671 2 3337 3357 3358 3359
7672 2 3337 3357 3358 3361
7673 3 3357 3358 3359 2700
7674 3 3357 3358 3359 3360
7675 3 3361 3358 3359 2700
7676 3 3361 3358 3359 3360
7677 3 3357 3358 3361 2595
7678 3 3357 3358 3361 3362
7679 3 3359 3358 3361 2595
7680 3 3359 3358 3361 3362

Impropers

1 1 2 1 3 14
2 1 3 2 4 15
3 1 2 3 1 14
4 1 4 3 5 1831
5 1 15 3 16 1813
6 1 3 4 2 15
7 1 1831 4 1812 1832
8 1 4 5 3 1831
9 1 2 14 1 3
10 1 3 15 2 4
11 1 1813 15 1812 1814
12 1 15 16 3 1813
13 1 22 21 23 31
14 1 23 22 24 32
15 1 22 23 21 31
16 1 24 23 25 995
17 1 32 23 33 947
18 1 23 24 22 32
19 1 995 24 946 996
20 1 24 25 23 995
21 1 22 31 21 23
22 1 23 32 22 24
23 1 947 32 946 948
24 1 32 33 23 947
25 1 42 41 43 158
26 1 43 42 44 159
27 1 42 43 41 158
28 1 44 43 45 819
29 1 159 43 160 811
30 1 43 44 42 159
31 1 819 44 810 820
32 1 44 45 43 819
33 1 42 158 41 43
34 1 43 159 42 44
35 1 811 159 810 812
36 1 159 160 43 811
37 1 181 180 182 282
38 1 182 181 183 283
39 1 181 182 180 282
40 1 183 182 184 256
41 1 283 182 218 284
42 1 182 183 181 283
43 1 256 183 217 257
44 1 183 184 182 256
45 1 196 195 197 288
46 1 197 196 198 289
47 1 196 197 195 288
48 1 198 197 199 271
49 1 289 197 229 290
50 1 197 198 196 289
51 1 271 198 228 272
52 1 198 199 197 271
53 1 181 282 180 182
54 1 182 283 181 183
55 1 218 283 217 219
56 1 283 284 182 218
57 1 196 288 195 197
58 1 197 289 196 198
59 1 229 289 228 230
60 1 289 290 197 229
61 1 313 312 314 352
62 1 314 313 315 353
63 1 313 314 312 352
64 1 315 314 316 344
65 1 353 314 320 354
66 1 314 315 313 353
67 1 344 315 319 345
68 1 315 316 314 344
69 1 318 317 319 343
70 1 319 318 320 344
71 1 318 319 317 343
72 1 320 319 321 353
73 1 344 319 315 345
74 1 319 320 318 344
75 1 353 320 314 354
76 1 320 321 319 353
77 1 318 343 317 319
78 1 315 344 314 316
79 1 319 344 318 320
80 1 344 345 315 319
81 1 313 352 312 314
82 1 314 353 313 315
83 1 320 353 319 321
84 1 353 354 314 320
85 1 73 72 74 128
86 1 74 73 75 129
87 1 73 74 72 128
88 1 75 74 76 821
89 1 129 74 130 803
90 1 74 75 73 129
91 1 821 75 802 822
92 1 75 76 74 821
93 1 85 84 86 149
94 1 86 85 87 150
95 1 85 86 84 149
96 1 87 86 88 1257
97 1 150 86 151 1255
98 1 86 87 85 150
99 1 1257 87 1254 1258
100 1 87 88 86 1257
101 1 115 114 116 134
102 1 116 115 117 135
103 1 115 116 114 134
104 1 117 116 1711 118
105 1 135 116 1700 136
106 1 116 117 115 135
107 1 1711 117 1699 1712
108 1 117 118 1711 116
109 1 73 128 72 74
110 1 74 129 73 75
111 1 803 129 802 804
112 1 129 130 74 803
113 1 115 134 114 116
114 1 116 135 115 117
115 1 1700 135 1699 1701
116 1 135 136 1700 116
117 1 85 149 84 86
118 1 86 150 85 87
119 1 1255 150 1254 1256
120 1 150 151 86 1255
121 1 211 210 212 249
122 1 212 211 213 250
123 1 211 212 210 249
124 1 213 212 214 274
125 1 250 212 171 251
126 1 212 213 211 250
127 1 274 213 170 275
128 1 213 214 212 274
129 1 239 238 240 261
130 1 240 239 241 262
131 1 239 240 238 261
132 1 241 240 242 295
133 1 262 240 193 263
134 1 240 241 239 262
135 1 295 241 192 296
136 1 241 242 240 295
137 1 211 249 210 212
138 1 171 250 170 172
139 1 212 250 211 213
140 1 250 251 171 212
141 1 239 261 238 240
142 1 193 262 192 194
143 1 240 262 239 241
144 1 262 263 193 240
145 1 79 78 80 152
146 1 80 79 81 153
147 1 79 80 78 152
148 1 81 80 82 1259
149 1 153 80 154 1251
150 1 80 81 79 153
151 1 1259 81 1250 1260
152 1 81 82 80 1259
153 1 103 102 104 137
154 1 104 103 105 138
155 1 103 104 102 137
156 1 105 104 106 2119
157 1 138 104 139 2115
158 1 104 105 103 138
159 1 2119 105 2114 2120
160 1 105 106 104 2119
161 1 103 137 102 104
162 1 104 138 103 105
163 1 2115 138 2114 2116
164 1 138 139 104 2115
165 1 79 152 78 80
166 1 80 153 79 81
167 1 1251 153 1250 1252
168 1 153 154 80 1251
169 1 216 215 217 255
170 1 217 216 218 256
171 1 216 217 215 255
172 1 218 217 219 283
173 1 256 217 183 257
174 1 217 218 216 256
175 1 283 218 182 284
176 1 218 219 217 283
177 1 245 244 246 264
178 1 246 245 247 265
179 1 245 246 244 264
180 1 247 246 248 292
181 1 265 246 188 266
182 1 246 247 245 265
183 1 292 247 187 293
184 1 247 248 246 292
185 1 216 255 215 217
186 1 183 256 182 184
187 1 217 256 216 218
188 1 256 257 183 217
189 1 245 264 244 246
190 1 188 265 187 189
191 1 246 265 245 247
192 1 265 266 188 246
193 1 385 367 370 386
194 1 385 370 367 386
195 1 386 385 387 395
196 1 385 386 367 370
197 1 387 386 583 388
198 1 395 386 468 396
199 1 386 387 385 395
200 1 583 387 467 584
201 1 387 388 583 386
202 1 386 395 385 387
203 1 468 395 467 469
204 1 395 396 468 386
205 1 298 297 299 358
206 1 299 298 300 359
207 1 298 299 297 358
208 1 300 299 301 341
209 1 359 299 330 360
210 1 299 300 298 359
211 1 341 300 329 342
212 1 300 301 299 341
213 1 328 327 329 340
214 1 329 328 330 341
215 1 328 329 327 340
216 1 330 329 331 359
217 1 341 329 300 342
218 1 329 330 328 341
219 1 359 330 299 360
220 1 330 331 329 359
221 1 328 340 327 329
222 1 300 341 299 301
223 1 329 341 328 330
224 1 341 342 300 329
225 1 298 358 297 299
226 1 299 359 298 300
227 1 330 359 329 331
228 1 359 360 299 330
229 1 27 26 28 34
230 1 28 27 29 35
231 1 27 28 26 34
232 1 29 28 30 992
233 1 35 28 36 941
234 1 28 29 27 35
235 1 992 29 940 993
236 1 29 30 28 992
237 1 27 34 26 28
238 1 28 35 27 29
239 1 941 35 940 942
240 1 35 36 28 941
241 1 169 168 170 273
242 1 170 169 171 274
243 1 169 170 168 273
244 1 171 170 172 250
245 1 274 170 213 275
246 1 170 171 169 274
247 1 250 171 212 251
248 1 171 172 170 250
249 1 201 200 202 285
250 1 202 201 203 286
251 1 201 202 200 285
252 1 203 202 204 268
253 1 286 202 235 287
254 1 202 203 201 286
255 1 268 203 234 269
256 1 203 204 202 268
257 1 169 273 168 170
258 1 170 274 169 171
259 1 213 274 212 214
260 1 274 275 170 213
261 1 201 285 200 202
262 1 202 286 201 203
263 1 235 286 234 236
264 1 286 287 202 235
265 1 377 361 371 378
266 1 417 364 376 418
267 1 377 371 361 378
268 1 417 376 364 418
269 1 378 377 379 397
270 1 377 378 361 371
271 1 379 378 553 380
272 1 397 378 499 398
273 1 378 379 377 397
274 1 553 379 498 554
275 1 379 380 553 378
276 1 378 397 377 379
277 1 499 397 498 500
278 1 397 398 499 378
279 1 418 417 419 423
280 1 417 418 364 376
281 1 419 418 1834 420
282 1 423 418 1801 424
283 1 418 419 417 423
284 1 1834 419 1800 1835
285 1 419 420 1834 418
286 1 418 423 417 419
287 1 1801 423 1800 1802
288 1 423 424 1801 418
289 1 426 425 427 438
290 1 427 426 428 439
291 1 426 427 425 438
292 1 428 427 429 2255
293 1 439 427 440 2237
294 1 427 428 426 439
295 1 2255 428 2236 2256
296 1 428 429 427 2255
297 1 426 438 425 427
298 1 427 439 426 428
299 1 2237 439 2236 2238
300 1 439 440 427 2237
301 1 446 445 447 455
302 1 447 446 448 456
303 1 446 447 445 455
304 1 448 447 449 1419
305 1 456 447 457 1371
306 1 447 448 446 456
307 1 1419 448 1370 1420
308 1 448 449 447 1419
309 1 446 455 445 447
310 1 447 456 446 448
311 1 1371 456 1370 1372
312 1 456 457 447 1371
313 1 466 465 467 582
314 1 467 466 468 583
315 1 466 467 465 582
316 1 468 467 469 395
317 1 583 467 584 387
318 1 395 468 386 396
319 1 467 468 466 583
320 1 468 469 467 395
321 1 466 582 465 467
322 1 387 583 386 388
323 1 467 583 466 468
324 1 583 584 467 387
325 1 605 604 606 706
326 1 606 605 607 707
327 1 605 606 604 706
328 1 607 606 608 680
329 1 707 606 642 708
330 1 606 607 605 707
331 1 680 607 641 681
332 1 607 608 606 680
333 1 620 619 621 712
334 1 621 620 622 713
335 1 620 621 619 712
336 1 622 621 623 695
337 1 713 621 653 714
338 1 621 622 620 713
339 1 695 622 652 696
340 1 622 623 621 695
341 1 605 706 604 606
342 1 606 707 605 607
343 1 642 707 641 643
344 1 707 708 606 642
345 1 620 712 619 621
346 1 621 713 620 622
347 1 653 713 652 654
348 1 713 714 621 653
349 1 737 736 738 776
350 1 738 737 739 777
351 1 737 738 736 776
352 1 739 738 740 768
353 1 777 738 744 778
354 1 738 739 737 777
355 1 768 739 743 769
356 1 739 740 738 768
357 1 742 741 743 767
358 1 743 742 744 768
359 1 742 743 741 767
360 1 744 743 745 777
361 1 768 743 739 769
362 1 743 744 742 768
363 1 777 744 738 778
364 1 744 745 743 777
365 1 742 767 741 743
366 1 739 768 738 740
367 1 743 768 742 744
368 1 768 769 739 743
369 1 737 776 736 738
370 1 738 777 737 739
371 1 744 777 743 745
372 1 777 778 738 744
373 1 497 496 498 552
374 1 498 497 499 553
375 1 497 498 496 552
376 1 499 498 500 397
377 1 553 498 554 379
378 1 397 499 378 398
379 1 498 499 497 553
380 1 499 500 498 397
381 1 509 508 510 573
382 1 510 509 511 574
383 1 509 510 508 573
384 1 511 510 512 1681
385 1 574 510 575 1679
386 1 510 511 509 574
387 1 1681 511 1678 1682
388 1 511 512 510 1681
389 1 539 538 540 558
390 1 540 539 541 559
391 1 539 540 538 558
392 1 541 540 2135 542
393 1 559 540 2124 560
394 1 540 541 539 559
395 1 2135 541 2123 2136
396 1 541 542 2135 540
397 1 497 552 496 498
398 1 379 553 378 380
399 1 498 553 497 499
400 1 553 554 498 379
401 1 539 558 538 540
402 1 540 559 539 541
403 1 2124 559 2123 2125
404 1 559 560 2124 540
405 1 509 573 508 510
406 1 510 574 509 511
407 1 1679 574 1678 1680
408 1 574 575 510 1679
409 1 635 634 636 673
410 1 636 635 637 674
411 1 635 636 634 673
412 1 637 636 638 698
413 1 674 636 595 675
414 1 636 637 635 674
415 1 698 637 594 699
416 1 637 638 636 698
417 1 663 662 664 685
418 1 664 663 665 686
419 1 663 664 662 685
420 1 665 664 666 719
421 1 686 664 617 687
422 1 664 665 663 686
423 1 719 665 616 720
424 1 665 666 664 719
425 1 635 673 634 636
426 1 595 674 594 596
427 1 636 674 635 637
428 1 674 675 595 636
429 1 663 685 662 664
430 1 617 686 616 618
431 1 664 686 663 665
432 1 686 687 617 664
433 1 503 502 504 576
434 1 504 503 505 577
435 1 503 504 502 576
436 1 505 504 506 1683
437 1 577 504 578 1675
438 1 504 505 503 577
439 1 1683 505 1674 1684
440 1 505 506 504 1683
441 1 527 526 528 561
442 1 528 527 529 562
443 1 527 528 526 561
444 1 529 528 530 2543
445 1 562 528 563 2539
446 1 528 529 527 562
447 1 2543 529 2538 2544
448 1 529 530 528 2543
449 1 527 561 526 528
450 1 528 562 527 529
451 1 2539 562 2538 2540
452 1 562 563 528 2539
453 1 503 576 502 504
454 1 504 577 503 505
455 1 1675 577 1674 1676
456 1 577 578 504 1675
457 1 640 639 641 679
458 1 641 640 642 680
459 1 640 641 639 679
460 1 642 641 643 707
461 1 680 641 607 681
462 1 641 642 640 680
463 1 707 642 606 708
464 1 642 643 641 707
465 1 669 668 670 688
466 1 670 669 671 689
467 1 669 670 668 688
468 1 671 670 672 716
469 1 689 670 612 690
470 1 670 671 669 689
471 1 716 671 611 717
472 1 671 672 670 716
473 1 640 679 639 641
474 1 607 680 606 608
475 1 641 680 640 642
476 1 680 681 607 641
477 1 669 688 668 670
478 1 612 689 611 613
479 1 670 689 669 671
480 1 689 690 612 670
481 1 809 791 794 810
482 1 809 794 791 810
483 1 810 809 811 819
484 1 809 810 791 794
485 1 811 810 159 812
486 1 819 810 44 820
487 1 159 811 43 160
488 1 810 811 809 819
489 1 811 812 159 810
490 1 44 819 43 45
491 1 810 819 809 811
492 1 819 820 44 810
493 1 722 721 723 782
494 1 723 722 724 783
495 1 722 723 721 782
496 1 724 723 725 765
497 1 783 723 754 784
498 1 723 724 722 783
499 1 765 724 753 766
500 1 724 725 723 765
501 1 752 751 753 764
502 1 753 752 754 765
503 1 752 753 751 764
504 1 754 753 755 783
505 1 765 753 724 766
506 1 753 754 752 765
507 1 783 754 723 784
508 1 754 755 753 783
509 1 752 764 751 753
510 1 724 765 723 725
511 1 753 765 752 754
512 1 765 766 724 753
513 1 722 782 721 723
514 1 723 783 722 724
515 1 754 783 753 755
516 1 783 784 723 754
517 1 451 450 452 458
518 1 452 451 453 459
519 1 451 452 450 458
520 1 453 452 454 1416
521 1 459 452 460 1365
522 1 452 453 451 459
523 1 1416 453 1364 1417
524 1 453 454 452 1416
525 1 451 458 450 452
526 1 452 459 451 453
527 1 1365 459 1364 1366
528 1 459 460 452 1365
529 1 593 592 594 697
530 1 594 593 595 698
531 1 593 594 592 697
532 1 595 594 596 674
533 1 698 594 637 699
534 1 594 595 593 698
535 1 674 595 636 675
536 1 595 596 594 674
537 1 625 624 626 709
538 1 626 625 627 710
539 1 625 626 624 709
540 1 627 626 628 692
541 1 710 626 659 711
542 1 626 627 625 710
543 1 692 627 658 693
544 1 627 628 626 692
545 1 593 697 592 594
546 1 594 698 593 595
547 1 637 698 636 638
548 1 698 699 594 637
549 1 625 709 624 626
550 1 626 710 625 627
551 1 659 710 658 660
552 1 710 711 626 659
553 1 801 785 795 802
554 1 841 788 800 842
555 1 801 795 785 802
556 1 841 800 788 842
557 1 802 801 803 821
558 1 801 802 785 795
559 1 803 802 129 804
560 1 821 802 75 822
561 1 129 803 74 130
562 1 802 803 801 821
563 1 803 804 129 802
564 1 75 821 74 76
565 1 802 821 801 803
566 1 821 822 75 802
567 1 842 841 843 847
568 1 841 842 788 800
569 1 843 842 2258 844
570 1 847 842 2225 848
571 1 842 843 841 847
572 1 2258 843 2224 2259
573 1 843 844 2258 842
574 1 842 847 841 843
575 1 2225 847 2224 2226
576 1 847 848 2225 842
577 1 66 65 67 125
578 1 67 66 68 126
579 1 66 67 65 125
580 1 68 67 69 823
581 1 126 67 127 807
582 1 67 68 66 126
583 1 823 68 806 824
584 1 68 69 67 823
585 1 97 96 98 146
586 1 98 97 99 147
587 1 97 98 96 146
588 1 99 98 880 100
589 1 147 98 872 148
590 1 98 99 97 147
591 1 880 99 871 881
592 1 99 100 880 98
593 1 109 108 110 140
594 1 110 109 111 141
595 1 109 110 108 140
596 1 111 110 112 2117
597 1 141 110 142 2111
598 1 110 111 109 141
599 1 2117 111 2110 2118
600 1 111 112 110 2117
601 1 66 125 65 67
602 1 67 126 66 68
603 1 807 126 806 808
604 1 126 127 67 807
605 1 109 140 108 110
606 1 110 141 109 111
607 1 2111 141 2110 2112
608 1 141 142 110 2111
609 1 97 146 96 98
610 1 98 147 97 99
611 1 872 147 871 873
612 1 147 148 872 98
613 1 206 205 207 252
614 1 207 206 208 253
615 1 206 207 205 252
616 1 208 207 209 277
617 1 253 207 165 254
618 1 207 208 206 253
619 1 277 208 164 278
620 1 208 209 207 277
621 1 227 226 228 270
622 1 228 227 229 271
623 1 227 228 226 270
624 1 229 228 230 289
625 1 271 228 198 272
626 1 228 229 227 271
627 1 289 229 197 290
628 1 229 230 228 289
629 1 206 252 205 207
630 1 165 253 164 166
631 1 207 253 206 208
632 1 253 254 165 207
633 1 227 270 226 228
634 1 198 271 197 199
635 1 228 271 227 229
636 1 271 272 198 228
637 1 303 302 304 355
638 1 304 303 305 356
639 1 303 304 302 355
640 1 305 304 306 338
641 1 356 304 335 357
642 1 304 305 303 356
643 1 338 305 334 339
644 1 305 306 304 338
645 1 333 332 334 337
646 1 334 333 335 338
647 1 333 334 332 337
648 1 335 334 336 356
649 1 338 334 305 339
650 1 334 335 333 338
651 1 356 335 304 357
652 1 335 336 334 356
653 1 333 337 332 334
654 1 305 338 304 306
655 1 334 338 333 335
656 1 338 339 305 334
657 1 303 355 302 304
658 1 304 356 303 305
659 1 335 356 334 336
660 1 356 357 304 335
661 1 49 48 50 155
662 1 50 49 51 156
663 1 49 50 48 155
664 1 51 50 52 817
665 1 156 50 157 815
666 1 50 51 49 156
667 1 817 51 814 818
668 1 51 52 50 817
669 1 49 155 48 50
670 1 50 156 49 51
671 1 815 156 814 816
672 1 156 157 50 815
673 1 175 174 176 279
674 1 176 175 177 280
675 1 175 176 174 279
676 1 177 176 178 259
677 1 280 176 223 281
678 1 176 177 175 280
679 1 259 177 222 260
680 1 177 178 176 259
681 1 191 190 192 294
682 1 192 191 193 295
683 1 191 192 190 294
684 1 193 192 194 262
685 1 295 192 241 296
686 1 192 193 191 295
687 1 262 193 240 263
688 1 193 194 192 262
689 1 175 279 174 176
690 1 176 280 175 177
691 1 223 280 222 224
692 1 280 281 176 223
693 1 191 294 190 192
694 1 192 295 191 193
695 1 241 295 240 242
696 1 295 296 192 241
697 1 413 363 375 414
698 1 405 366 373 406
699 1 405 373 366 406
700 1 413 375 363 414
701 1 406 405 407 409
702 1 405 406 366 373
703 1 407 406 998 408
704 1 409 406 935 410
705 1 406 407 405 409
706 1 998 407 934 999
707 1 407 408 998 406
708 1 406 409 405 407
709 1 935 409 934 936
710 1 409 410 935 406
711 1 414 413 415 421
712 1 413 414 363 375
713 1 415 414 1837 416
714 1 421 414 1807 422
715 1 414 415 413 421
716 1 1837 415 1806 1838
717 1 415 416 1837 414
718 1 414 421 413 415
719 1 1807 421 1806 1808
720 1 421 422 1807 414
721 1 7 6 8 11
722 1 8 7 9 12
723 1 7 8 6 11
724 1 9 8 10 1828
725 1 12 8 13 1819
726 1 8 9 7 12
727 1 1828 9 1818 1829
728 1 9 10 8 1828
729 1 7 11 6 8
730 1 8 12 7 9
731 1 1819 12 1818 1820
732 1 12 13 8 1819
733 1 163 162 164 276
734 1 164 163 165 277
735 1 163 164 162 276
736 1 165 164 166 253
737 1 277 164 208 278
738 1 164 165 163 277
739 1 253 165 207 254
740 1 165 166 164 253
741 1 186 185 187 291
742 1 187 186 188 292
743 1 186 187 185 291
744 1 188 187 189 265
745 1 292 187 247 293
746 1 187 188 186 292
747 1 265 188 246 266
748 1 188 189 187 265
749 1 163 276 162 164
750 1 164 277 163 165
751 1 208 277 207 209
752 1 277 278 164 208
753 1 186 291 185 187
754 1 187 292 186 188
755 1 247 292 246 248
756 1 292 293 187 247
757 1 381 362 372 382
758 1 401 365 374 402
759 1 381 372 362 382
760 1 401 374 365 402
761 1 382 381 383 399
762 1 381 382 362 372
763 1 383 382 550 384
764 1 399 382 492 400
765 1 382 383 381 399
766 1 550 383 491 551
767 1 383 384 550 382
768 1 382 399 381 383
769 1 492 399 491 493
770 1 399 400 492 382
771 1 402 401 403 411
772 1 401 402 365 374
773 1 403 402 1001 404
774 1 411 402 929 412
775 1 402 403 401 411
776 1 1001 403 928 1002
777 1 403 404 1001 402
778 1 402 411 401 403
779 1 929 411 928 930
780 1 411 412 929 402
781 1 308 307 309 349
782 1 309 308 310 350
783 1 308 309 307 349
784 1 310 309 311 347
785 1 350 309 325 351
786 1 309 310 308 350
787 1 347 310 324 348
788 1 310 311 309 347
789 1 323 322 324 346
790 1 324 323 325 347
791 1 323 324 322 346
792 1 325 324 326 350
793 1 347 324 310 348
794 1 324 325 323 347
795 1 350 325 309 351
796 1 325 326 324 350
797 1 323 346 322 324
798 1 310 347 309 311
799 1 324 347 323 325
800 1 347 348 310 324
801 1 308 349 307 309
802 1 309 350 308 310
803 1 325 350 324 326
804 1 350 351 309 325
805 1 91 90 92 143
806 1 92 91 93 144
807 1 91 92 90 143
808 1 93 92 883 94
809 1 144 92 877 145
810 1 92 93 91 144
811 1 883 93 876 884
812 1 93 94 883 92
813 1 121 120 122 131
814 1 122 121 123 132
815 1 121 122 120 131
816 1 123 122 1708 124
817 1 132 122 1705 133
818 1 122 123 121 132
819 1 1708 123 1704 1709
820 1 123 124 1708 122
821 1 121 131 120 122
822 1 122 132 121 123
823 1 1705 132 1704 1706
824 1 132 133 1705 122
825 1 91 143 90 92
826 1 92 144 91 93
827 1 877 144 876 878
828 1 144 145 877 92
829 1 221 220 222 258
830 1 222 221 223 259
831 1 221 222 220 258
832 1 223 222 224 280
833 1 259 222 177 260
834 1 222 223 221 259
835 1 280 223 176 281
836 1 223 224 222 280
837 1 233 232 234 267
838 1 234 233 235 268
839 1 233 234 232 267
840 1 235 234 236 286
841 1 268 234 203 269
842 1 234 235 233 268
843 1 286 235 202 287
844 1 235 236 234 286
845 1 221 258 220 222
846 1 177 259 176 178
847 1 222 259 221 223
848 1 259 260 177 222
849 1 233 267 232 234
850 1 203 268 202 204
851 1 234 268 233 235
852 1 268 269 203 234
853 1 389 368 369 390
854 1 389 369 368 390
855 1 390 389 391 393
856 1 389 390 368 369
857 1 391 390 580 392
858 1 393 390 475 394
859 1 390 391 389 393
860 1 580 391 474 581
861 1 391 392 580 390
862 1 390 393 389 391
863 1 475 393 474 476
864 1 393 394 475 390
865 1 490 489 491 549
866 1 491 490 492 550
867 1 490 491 489 549
868 1 492 491 493 399
869 1 550 491 551 383
870 1 399 492 382 400
871 1 491 492 490 550
872 1 492 493 491 399
873 1 521 520 522 570
874 1 522 521 523 571
875 1 521 522 520 570
876 1 523 522 1304 524
877 1 571 522 1296 572
878 1 522 523 521 571
879 1 1304 523 1295 1305
880 1 523 524 1304 522
881 1 533 532 534 564
882 1 534 533 535 565
883 1 533 534 532 564
884 1 535 534 536 2541
885 1 565 534 566 2535
886 1 534 535 533 565
887 1 2541 535 2534 2542
888 1 535 536 534 2541
889 1 490 549 489 491
890 1 383 550 382 384
891 1 491 550 490 492
892 1 550 551 491 383
893 1 533 564 532 534
894 1 534 565 533 535
895 1 2535 565 2534 2536
896 1 565 566 534 2535
897 1 521 570 520 522
898 1 522 571 521 523
899 1 1296 571 1295 1297
900 1 571 572 1296 522
901 1 630 629 631 676
902 1 631 630 632 677
903 1 630 631 629 676
904 1 632 631 633 701
905 1 677 631 589 678
906 1 631 632 630 677
907 1 701 632 588 702
908 1 632 633 631 701
909 1 651 650 652 694
910 1 652 651 653 695
911 1 651 652 650 694
912 1 653 652 654 713
913 1 695 652 622 696
914 1 652 653 651 695
915 1 713 653 621 714
916 1 653 654 652 713
917 1 630 676 629 631
918 1 589 677 588 590
919 1 631 677 630 632
920 1 677 678 589 631
921 1 651 694 650 652
922 1 622 695 621 623
923 1 652 695 651 653
924 1 695 696 622 652
925 1 727 726 728 779
926 1 728 727 729 780
927 1 727 728 726 779
928 1 729 728 730 762
929 1 780 728 759 781
930 1 728 729 727 780
931 1 762 729 758 763
932 1 729 730 728 762
933 1 757 756 758 761
934 1 758 757 759 762
935 1 757 758 756 761
936 1 759 758 760 780
937 1 762 758 729 763
938 1 758 759 757 762
939 1 780 759 728 781
940 1 759 760 758 780
941 1 757 761 756 758
942 1 729 762 728 730
943 1 758 762 757 759
944 1 762 763 729 758
945 1 727 779 726 728
946 1 728 780 727 729
947 1 759 780 758 760
948 1 780 781 728 759
949 1 473 472 474 579
950 1 474 473 475 580
951 1 473 474 472 579
952 1 475 474 476 393
953 1 580 474 581 391
954 1 393 475 390 394
955 1 474 475 473 580
956 1 475 476 474 393
957 1 473 579 472 474
958 1 391 580 390 392
959 1 474 580 473 475
960 1 580 581 474 391
961 1 599 598 600 703
962 1 600 599 601 704
963 1 599 600 598 703
964 1 601 600 602 683
965 1 704 600 647 705
966 1 600 601 599 704
967 1 683 601 646 684
968 1 601 602 600 683
969 1 615 614 616 718
970 1 616 615 617 719
971 1 615 616 614 718
972 1 617 616 618 686
973 1 719 616 665 720
974 1 616 617 615 719
975 1 686 617 664 687
976 1 617 618 616 686
977 1 599 703 598 600
978 1 600 704 599 601
979 1 647 704 646 648
980 1 704 705 600 647
981 1 615 718 614 616
982 1 616 719 615 617
983 1 665 719 664 666
984 1 719 720 616 665
985 1 837 787 799 838
986 1 829 790 797 830
987 1 829 797 790 830
988 1 837 799 787 838
989 1 830 829 831 833
990 1 829 830 790 797
991 1 831 830 1422 832
992 1 833 830 1359 834
993 1 830 831 829 833
994 1 1422 831 1358 1423
995 1 831 832 1422 830
996 1 830 833 829 831
997 1 1359 833 1358 1360
998 1 833 834 1359 830
999 1 838 837 839 845
1000 1 837 838 787 799
1001 1 839 838 2261 840
1002 1 845 838 2231 846
1003 1 838 839 837 845
1004 1 2261 839 2230 2262
1005 1 839 840 2261 838
1006 1 838 845 837 839
1007 1 2231 845 2230 2232
1008 1 845 846 2231 838
1009 1 431 430 432 435
1010 1 432 431 433 436
1011 1 431 432 430 435
1012 1 433 432 434 2252
1013 1 436 432 437 2243
1014 1 432 433 431 436
1015 1 2252 433 2242 2253
1016 1 433 434 432 2252
1017 1 431 435 430 432
1018 1 432 436 431 433
1019 1 2243 436 2242 2244
1020 1 436 437 432 2243
1021 1 587 586 588 700
1022 1 588 587 589 701
1023 1 587 588 586 700
1024 1 589 588 590 677
1025 1 701 588 632 702
1026 1 588 589 587 701
1027 1 677 589 631 678
1028 1 589 590 588 677
1029 1 610 609 611 715
1030 1 611 610 612 716
1031 1 610 611 609 715
1032 1 612 611 613 689
1033 1 716 611 671 717
1034 1 611 612 610 716
1035 1 689 612 670 690
1036 1 612 613 611 689
1037 1 587 700 586 588
1038 1 588 701 587 589
1039 1 632 701 631 633
1040 1 701 702 588 632
1041 1 610 715 609 611
1042 1 611 716 610 612
1043 1 671 716 670 672
1044 1 716 717 611 671
1045 1 805 786 796 806
1046 1 825 789 798 826
1047 1 805 796 786 806
1048 1 825 798 789 826
1049 1 806 805 807 823
1050 1 805 806 786 796
1051 1 807 806 126 808
1052 1 823 806 68 824
1053 1 126 807 67 127
1054 1 806 807 805 823
1055 1 807 808 126 806
1056 1 68 823 67 69
1057 1 806 823 805 807
1058 1 823 824 68 806
1059 1 826 825 827 835
1060 1 825 826 789 798
1061 1 827 826 1425 828
1062 1 835 826 1353 836
1063 1 826 827 825 835
1064 1 1425 827 1352 1426
1065 1 827 828 1425 826
1066 1 826 835 825 827
1067 1 1353 835 1352 1354
1068 1 835 836 1353 826
1069 1 732 731 733 773
1070 1 733 732 734 774
1071 1 732 733 731 773
1072 1 734 733 735 771
1073 1 774 733 749 775
1074 1 733 734 732 774
1075 1 771 734 748 772
1076 1 734 735 733 771
1077 1 747 746 748 770
1078 1 748 747 749 771
1079 1 747 748 746 770
1080 1 749 748 750 774
1081 1 771 748 734 772
1082 1 748 749 747 771
1083 1 774 749 733 775
1084 1 749 750 748 774
1085 1 747 770 746 748
1086 1 734 771 733 735
1087 1 748 771 747 749
1088 1 771 772 734 748
1089 1 732 773 731 733
1090 1 733 774 732 734
1091 1 749 774 748 750
1092 1 774 775 733 749
1093 1 515 514 516 567
1094 1 516 515 517 568
1095 1 515 516 514 567
1096 1 517 516 1307 518
1097 1 568 516 1301 569
1098 1 516 517 515 568
1099 1 1307 517 1300 1308
1100 1 517 518 1307 516
1101 1 545 544 546 555
1102 1 546 545 547 556
1103 1 545 546 544 555
1104 1 547 546 2132 548
1105 1 556 546 2129 557
1106 1 546 547 545 556
1107 1 2132 547 2128 2133
1108 1 547 548 2132 546
1109 1 545 555 544 546
1110 1 546 556 545 547
1111 1 2129 556 2128 2130
1112 1 556 557 2129 546
1113 1 515 567 514 516
1114 1 516 568 515 517
1115 1 1301 568 1300 1302
1116 1 568 569 1301 516
1117 1 645 644 646 682
1118 1 646 645 647 683
1119 1 645 646 644 682
1120 1 647 646 648 704
1121 1 683 646 601 684
1122 1 646 647 645 683
1123 1 704 647 600 705
1124 1 647 648 646 704
1125 1 657 656 658 691
1126 1 658 657 659 692
1127 1 657 658 656 691
1128 1 659 658 660 710
1129 1 692 658 627 693
1130 1 658 659 657 692
1131 1 710 659 626 711
1132 1 659 660 658 710
1133 1 645 682 644 646
1134 1 601 683 600 602
1135 1 646 683 645 647
1136 1 683 684 601 646
1137 1 657 691 656 658
1138 1 627 692 626 628
1139 1 658 692 657 659
1140 1 692 693 627 658
1141 1 813 792 793 814
1142 1 813 793 792 814
1143 1 814 813 815 817
1144 1 813 814 792 793
1145 1 815 814 156 816
1146 1 817 814 51 818
1147 1 156 815 50 157
1148 1 814 815 813 817
1149 1 815 816 156 814
1150 1 51 817 50 52
1151 1 814 817 813 815
1152 1 817 818 51 814
1153 1 850 849 851 862
1154 1 851 850 852 863
1155 1 850 851 849 862
1156 1 852 851 853 2679
1157 1 863 851 864 2661
1158 1 851 852 850 863
1159 1 2679 852 2660 2680
1160 1 852 853 851 2679
1161 1 850 862 849 851
1162 1 851 863 850 852
1163 1 2661 863 2660 2662
1164 1 863 864 851 2661
1165 1 870 869 871 879
1166 1 871 870 872 880
1167 1 870 871 869 879
1168 1 872 871 873 147
1169 1 880 871 881 99
1170 1 147 872 98 148
1171 1 871 872 870 880
1172 1 872 873 871 147
1173 1 870 879 869 871
1174 1 99 880 98 100
1175 1 871 880 870 872
1176 1 880 881 871 99
1177 1 890 889 891 1006
1178 1 891 890 892 1007
1179 1 890 891 889 1006
1180 1 892 891 893 1667
1181 1 1007 891 1008 1659
1182 1 891 892 890 1007
1183 1 1667 892 1658 1668
1184 1 892 893 891 1667
1185 1 890 1006 889 891
1186 1 891 1007 890 892
1187 1 1659 1007 1658 1660
1188 1 1007 1008 891 1659
1189 1 1029 1028 1030 1130
1190 1 1030 1029 1031 1131
1191 1 1029 1030 1028 1130
1192 1 1031 1030 1032 1104
1193 1 1131 1030 1066 1132
1194 1 1030 1031 1029 1131
1195 1 1104 1031 1065 1105
1196 1 1031 1032 1030 1104
1197 1 1044 1043 1045 1136
1198 1 1045 1044 1046 1137
1199 1 1044 1045 1043 1136
1200 1 1046 1045 1047 1119
1201 1 1137 1045 1077 1138
1202 1 1045 1046 1044 1137
1203 1 1119 1046 1076 1120
1204 1 1046 1047 1045 1119
1205 1 1029 1130 1028 1030
1206 1 1030 1131 1029 1031
1207 1 1066 1131 1065 1067
1208 1 1131 1132 1030 1066
1209 1 1044 1136 1043 1045
1210 1 1045 1137 1044 1046
1211 1 1077 1137 1076 1078
1212 1 1137 1138 1045 1077
1213 1 1161 1160 1162 1200
1214 1 1162 1161 1163 1201
1215 1 1161 1162 1160 1200
1216 1 1163 1162 1164 1192
1217 1 1201 1162 1168 1202
1218 1 1162 1163 1161 1201
1219 1 1192 1163 1167 1193
1220 1 1163 1164 1162 1192
1221 1 1166 1165 1167 1191
1222 1 1167 1166 1168 1192
1223 1 1166 1167 1165 1191
1224 1 1168 1167 1169 1201
1225 1 1192 1167 1163 1193
1226 1 1167 1168 1166 1192
1227 1 1201 1168 1162 1202
1228 1 1168 1169 1167 1201
1229 1 1166 1191 1165 1167
1230 1 1163 1192 1162 1164
1231 1 1167 1192 1166 1168
1232 1 1192 1193 1163 1167
1233 1 1161 1200 1160 1162
1234 1 1162 1201 1161 1163
1235 1 1168 1201 1167 1169
1236 1 1201 1202 1162 1168
1237 1 921 920 922 976
1238 1 922 921 923 977
1239 1 921 922 920 976
1240 1 923 922 924 1669
1241 1 977 922 978 1651
1242 1 922 923 921 977
1243 1 1669 923 1650 1670
1244 1 923 924 922 1669
1245 1 933 932 934 997
1246 1 934 933 935 998
1247 1 933 934 932 997
1248 1 935 934 936 409
1249 1 998 934 999 407
1250 1 409 935 406 410
1251 1 934 935 933 998
1252 1 935 936 934 409
1253 1 963 962 964 982
1254 1 964 963 965 983
1255 1 963 964 962 982
1256 1 965 964 2559 966
1257 1 983 964 2548 984
1258 1 964 965 963 983
1259 1 2559 965 2547 2560
1260 1 965 966 2559 964
1261 1 921 976 920 922
1262 1 922 977 921 923
1263 1 1651 977 1650 1652
1264 1 977 978 922 1651
1265 1 963 982 962 964
1266 1 964 983 963 965
1267 1 2548 983 2547 2549
1268 1 983 984 2548 964
1269 1 933 997 932 934
1270 1 407 998 406 408
1271 1 934 998 933 935
1272 1 998 999 934 407
1273 1 1059 1058 1060 1097
1274 1 1060 1059 1061 1098
1275 1 1059 1060 1058 1097
1276 1 1061 1060 1062 1122
1277 1 1098 1060 1019 1099
1278 1 1060 1061 1059 1098
1279 1 1122 1061 1018 1123
1280 1 1061 1062 1060 1122
1281 1 1087 1086 1088 1109
1282 1 1088 1087 1089 1110
1283 1 1087 1088 1086 1109
1284 1 1089 1088 1090 1143
1285 1 1110 1088 1041 1111
1286 1 1088 1089 1087 1110
1287 1 1143 1089 1040 1144
1288 1 1089 1090 1088 1143
1289 1 1059 1097 1058 1060
1290 1 1019 1098 1018 1020
1291 1 1060 1098 1059 1061
1292 1 1098 1099 1019 1060
1293 1 1087 1109 1086 1088
1294 1 1041 1110 1040 1042
1295 1 1088 1110 1087 1089
1296 1 1110 1111 1041 1088
1297 1 927 926 928 1000
1298 1 928 927 929 1001
1299 1 927 928 926 1000
1300 1 929 928 930 411
1301 1 1001 928 1002 403
1302 1 411 929 402 412
1303 1 928 929 927 1001
1304 1 929 930 928 411
1305 1 951 950 952 985
1306 1 952 951 953 986
1307 1 951 952 950 985
1308 1 953 952 954 2967
1309 1 986 952 987 2963
1310 1 952 953 951 986
1311 1 2967 953 2962 2968
1312 1 953 954 952 2967
1313 1 951 985 950 952
1314 1 952 986 951 953
1315 1 2963 986 2962 2964
1316 1 986 987 952 2963
1317 1 927 1000 926 928
1318 1 403 1001 402 404
1319 1 928 1001 927 929
1320 1 1001 1002 928 403
1321 1 1064 1063 1065 1103
1322 1 1065 1064 1066 1104
1323 1 1064 1065 1063 1103
1324 1 1066 1065 1067 1131
1325 1 1104 1065 1031 1105
1326 1 1065 1066 1064 1104
1327 1 1131 1066 1030 1132
1328 1 1066 1067 1065 1131
1329 1 1093 1092 1094 1112
1330 1 1094 1093 1095 1113
1331 1 1093 1094 1092 1112
1332 1 1095 1094 1096 1140
1333 1 1113 1094 1036 1114
1334 1 1094 1095 1093 1113
1335 1 1140 1095 1035 1141
1336 1 1095 1096 1094 1140
1337 1 1064 1103 1063 1065
1338 1 1031 1104 1030 1032
1339 1 1065 1104 1064 1066
1340 1 1104 1105 1031 1065
1341 1 1093 1112 1092 1094
1342 1 1036 1113 1035 1037
1343 1 1094 1113 1093 1095
1344 1 1113 1114 1036 1094
1345 1 1233 1215 1218 1234
1346 1 1233 1218 1215 1234
1347 1 1234 1233 1235 1243
1348 1 1233 1234 1215 1218
1349 1 1235 1234 1431 1236
1350 1 1243 1234 1316 1244
1351 1 1234 1235 1233 1243
1352 1 1431 1235 1315 1432
1353 1 1235 1236 1431 1234
1354 1 1234 1243 1233 1235
1355 1 1316 1243 1315 1317
1356 1 1243 1244 1316 1234
1357 1 1146 1145 1147 1206
1358 1 1147 1146 1148 1207
1359 1 1146 1147 1145 1206
1360 1 1148 1147 1149 1189
1361 1 1207 1147 1178 1208
1362 1 1147 1148 1146 1207
1363 1 1189 1148 1177 1190
1364 1 1148 1149 1147 1189
1365 1 1176 1175 1177 1188
1366 1 1177 1176 1178 1189
1367 1 1176 1177 1175 1188
1368 1 1178 1177 1179 1207
1369 1 1189 1177 1148 1190
1370 1 1177 1178 1176 1189
1371 1 1207 1178 1147 1208
1372 1 1178 1179 1177 1207
1373 1 1176 1188 1175 1177
1374 1 1148 1189 1147 1149
1375 1 1177 1189 1176 1178
1376 1 1189 1190 1148 1177
1377 1 1146 1206 1145 1147
1378 1 1147 1207 1146 1148
1379 1 1178 1207 1177 1179
1380 1 1207 1208 1147 1178
1381 1 875 874 876 882
1382 1 876 875 877 883
1383 1 875 876 874 882
1384 1 877 876 878 144
1385 1 883 876 884 93
1386 1 144 877 92 145
1387 1 876 877 875 883
1388 1 877 878 876 144
1389 1 875 882 874 876
1390 1 93 883 92 94
1391 1 876 883 875 877
1392 1 883 884 876 93
1393 1 1017 1016 1018 1121
1394 1 1018 1017 1019 1122
1395 1 1017 1018 1016 1121
1396 1 1019 1018 1020 1098
1397 1 1122 1018 1061 1123
1398 1 1018 1019 1017 1122
1399 1 1098 1019 1060 1099
1400 1 1019 1020 1018 1098
1401 1 1049 1048 1050 1133
1402 1 1050 1049 1051 1134
1403 1 1049 1050 1048 1133
1404 1 1051 1050 1052 1116
1405 1 1134 1050 1083 1135
1406 1 1050 1051 1049 1134
1407 1 1116 1051 1082 1117
1408 1 1051 1052 1050 1116
1409 1 1017 1121 1016 1018
1410 1 1018 1122 1017 1019
1411 1 1061 1122 1060 1062
1412 1 1122 1123 1018 1061
1413 1 1049 1133 1048 1050
1414 1 1050 1134 1049 1051
1415 1 1083 1134 1082 1084
1416 1 1134 1135 1050 1083
1417 1 1225 1209 1219 1226
1418 1 1265 1212 1224 1266
1419 1 1225 1219 1209 1226
1420 1 1265 1224 1212 1266
1421 1 1226 1225 1227 1245
1422 1 1225 1226 1209 1219
1423 1 1227 1226 1401 1228
1424 1 1245 1226 1347 1246
1425 1 1226 1227 1225 1245
1426 1 1401 1227 1346 1402
1427 1 1227 1228 1401 1226
1428 1 1226 1245 1225 1227
1429 1 1347 1245 1346 1348
1430 1 1245 1246 1347 1226
1431 1 1266 1265 1267 1271
1432 1 1265 1266 1212 1224
1433 1 1267 1266 2682 1268
1434 1 1271 1266 2649 1272
1435 1 1266 1267 1265 1271
1436 1 2682 1267 2648 2683
1437 1 1267 1268 2682 1266
1438 1 1266 1271 1265 1267
1439 1 2649 1271 2648 2650
1440 1 1271 1272 2649 1266
1441 1 1274 1273 1275 1286
1442 1 1275 1274 1276 1287
1443 1 1274 1275 1273 1286
1444 1 1276 1275 1277 3103
1445 1 1287 1275 1288 3085
1446 1 1275 1276 1274 1287
1447 1 3103 1276 3084 3104
1448 1 1276 1277 1275 3103
1449 1 1274 1286 1273 1275
1450 1 1275 1287 1274 1276
1451 1 3085 1287 3084 3086
1452 1 1287 1288 1275 3085
1453 1 1294 1293 1295 1303
1454 1 1295 1294 1296 1304
1455 1 1294 1295 1293 1303
1456 1 1296 1295 1297 571
1457 1 1304 1295 1305 523
1458 1 571 1296 522 572
1459 1 1295 1296 1294 1304
1460 1 1296 1297 1295 571
1461 1 1294 1303 1293 1295
1462 1 523 1304 522 524
1463 1 1295 1304 1294 1296
1464 1 1304 1305 1295 523
1465 1 1314 1313 1315 1430
1466 1 1315 1314 1316 1431
1467 1 1314 1315 1313 1430
1468 1 1316 1315 1317 1243
1469 1 1431 1315 1432 1235
1470 1 1243 1316 1234 1244
1471 1 1315 1316 1314 1431
1472 1 1316 1317 1315 1243
1473 1 1314 1430 1313 1315
1474 1 1235 1431 1234 1236
1475 1 1315 1431 1314 1316
1476 1 1431 1432 1315 1235
1477 1 1453 1452 1454 1554
1478 1 1454 1453 1455 1555
1479 1 1453 1454 1452 1554
1480 1 1455 1454 1456 1528
1481 1 1555 1454 1490 1556
1482 1 1454 1455 1453 1555
1483 1 1528 1455 1489 1529
1484 1 1455 1456 1454 1528
1485 1 1468 1467 1469 1560
1486 1 1469 1468 1470 1561
1487 1 1468 1469 1467 1560
1488 1 1470 1469 1471 1543
1489 1 1561 1469 1501 1562
1490 1 1469 1470 1468 1561
1491 1 1543 1470 1500 1544
1492 1 1470 1471 1469 1543
1493 1 1453 1554 1452 1454
1494 1 1454 1555 1453 1455
1495 1 1490 1555 1489 1491
1496 1 1555 1556 1454 1490
1497 1 1468 1560 1467 1469
1498 1 1469 1561 1468 1470
1499 1 1501 1561 1500 1502
1500 1 1561 1562 1469 1501
1501 1 1585 1584 1586 1624
1502 1 1586 1585 1587 1625
1503 1 1585 1586 1584 1624
1504 1 1587 1586 1588 1616
1505 1 1625 1586 1592 1626
1506 1 1586 1587 1585 1625
1507 1 1616 1587 1591 1617
1508 1 1587 1588 1586 1616
1509 1 1590 1589 1591 1615
1510 1 1591 1590 1592 1616
1511 1 1590 1591 1589 1615
1512 1 1592 1591 1593 1625
1513 1 1616 1591 1587 1617
1514 1 1591 1592 1590 1616
1515 1 1625 1592 1586 1626
1516 1 1592 1593 1591 1625
1517 1 1590 1615 1589 1591
1518 1 1587 1616 1586 1588
1519 1 1591 1616 1590 1592
1520 1 1616 1617 1587 1591
1521 1 1585 1624 1584 1586
1522 1 1586 1625 1585 1587
1523 1 1592 1625 1591 1593
1524 1 1625 1626 1586 1592
1525 1 1345 1344 1346 1400
1526 1 1346 1345 1347 1401
1527 1 1345 1346 1344 1400
1528 1 1347 1346 1348 1245
1529 1 1401 1346 1402 1227
1530 1 1245 1347 1226 1246
1531 1 1346 1347 1345 1401
1532 1 1347 1348 1346 1245
1533 1 1357 1356 1358 1421
1534 1 1358 1357 1359 1422
1535 1 1357 1358 1356 1421
1536 1 1359 1358 1360 833
1537 1 1422 1358 1423 831
1538 1 833 1359 830 834
1539 1 1358 1359 1357 1422
1540 1 1359 1360 1358 833
1541 1 1387 1386 1388 1406
1542 1 1388 1387 1389 1407
1543 1 1387 1388 1386 1406
1544 1 1389 1388 2983 1390
1545 1 1407 1388 2972 1408
1546 1 1388 1389 1387 1407
1547 1 2983 1389 2971 2984
1548 1 1389 1390 2983 1388
1549 1 1345 1400 1344 1346
1550 1 1227 1401 1226 1228
1551 1 1346 1401 1345 1347
1552 1 1401 1402 1346 1227
1553 1 1387 1406 1386 1388
1554 1 1388 1407 1387 1389
1555 1 2972 1407 2971 2973
1556 1 1407 1408 2972 1388
1557 1 1357 1421 1356 1358
1558 1 831 1422 830 832
1559 1 1358 1422 1357 1359
1560 1 1422 1423 1358 831
1561 1 1483 1482 1484 1521
1562 1 1484 1483 1485 1522
1563 1 1483 1484 1482 1521
1564 1 1485 1484 1486 1546
1565 1 1522 1484 1443 1523
1566 1 1484 1485 1483 1522
1567 1 1546 1485 1442 1547
1568 1 1485 1486 1484 1546
1569 1 1511 1510 1512 1533
1570 1 1512 1511 1513 1534
1571 1 1511 1512 1510 1533
1572 1 1513 1512 1514 1567
1573 1 1534 1512 1465 1535
1574 1 1512 1513 1511 1534
1575 1 1567 1513 1464 1568
1576 1 1513 1514 1512 1567
1577 1 1483 1521 1482 1484
1578 1 1443 1522 1442 1444
1579 1 1484 1522 1483 1485
1580 1 1522 1523 1443 1484
1581 1 1511 1533 1510 1512
1582 1 1465 1534 1464 1466
1583 1 1512 1534 1511 1513
1584 1 1534 1535 1465 1512
1585 1 1351 1350 1352 1424
1586 1 1352 1351 1353 1425
1587 1 1351 1352 1350 1424
1588 1 1353 1352 1354 835
1589 1 1425 1352 1426 827
1590 1 835 1353 826 836
1591 1 1352 1353 1351 1425
1592 1 1353 1354 1352 835
1593 1 1375 1374 1376 1409
1594 1 1376 1375 1377 1410
1595 1 1375 1376 1374 1409
1596 1 1377 1376 1378 3391
1597 1 1410 1376 1411 3387
1598 1 1376 1377 1375 1410
1599 1 3391 1377 3386 3392
1600 1 1377 1378 1376 3391
1601 1 1375 1409 1374 1376
1602 1 1376 1410 1375 1377
1603 1 3387 1410 3386 3388
1604 1 1410 1411 1376 3387
1605 1 1351 1424 1350 1352
1606 1 827 1425 826 828
1607 1 1352 1425 1351 1353
1608 1 1425 1426 1352 827
1609 1 1488 1487 1489 1527
1610 1 1489 1488 1490 1528
1611 1 1488 1489 1487 1527
1612 1 1490 1489 1491 1555
1613 1 1528 1489 1455 1529
1614 1 1489 1490 1488 1528
1615 1 1555 1490 1454 1556
1616 1 1490 1491 1489 1555
1617 1 1517 1516 1518 1536
1618 1 1518 1517 1519 1537
1619 1 1517 1518 1516 1536
1620 1 1519 1518 1520 1564
1621 1 1537 1518 1460 1538
1622 1 1518 1519 1517 1537
1623 1 1564 1519 1459 1565
1624 1 1519 1520 1518 1564
1625 1 1488 1527 1487 1489
1626 1 1455 1528 1454 1456
1627 1 1489 1528 1488 1490
1628 1 1528 1529 1455 1489
1629 1 1517 1536 1516 1518
1630 1 1460 1537 1459 1461
1631 1 1518 1537 1517 1519
1632 1 1537 1538 1460 1518
1633 1 1657 1639 1642 1658
1634 1 1657 1642 1639 1658
1635 1 1658 1657 1659 1667
1636 1 1657 1658 1639 1642
1637 1 1659 1658 1007 1660
1638 1 1667 1658 892 1668
1639 1 1007 1659 891 1008
1640 1 1658 1659 1657 1667
1641 1 1659 1660 1007 1658
1642 1 892 1667 891 893
1643 1 1658 1667 1657 1659
1644 1 1667 1668 892 1658
1645 1 1570 1569 1571 1630
1646 1 1571 1570 1572 1631
1647 1 1570 1571 1569 1630
1648 1 1572 1571 1573 1613
1649 1 1631 1571 1602 1632
1650 1 1571 1572 1570 1631
1651 1 1613 1572 1601 1614
1652 1 1572 1573 1571 1613
1653 1 1600 1599 1601 1612
1654 1 1601 1600 1602 1613
1655 1 1600 1601 1599 1612
1656 1 1602 1601 1603 1631
1657 1 1613 1601 1572 1614
1658 1 1601 1602 1600 1613
1659 1 1631 1602 1571 1632
1660 1 1602 1603 1601 1631
1661 1 1600 1612 1599 1601
1662 1 1572 1613 1571 1573
1663 1 1601 1613 1600 1602
1664 1 1613 1614 1572 1601
1665 1 1570 1630 1569 1571
1666 1 1571 1631 1570 1572
1667 1 1602 1631 1601 1603
1668 1 1631 1632 1571 1602
1669 1 1299 1298 1300 1306
1670 1 1300 1299 1301 1307
1671 1 1299 1300 1298 1306
1672 1 1301 1300 1302 568
1673 1 1307 1300 1308 517
1674 1 568 1301 516 569
1675 1 1300 1301 1299 1307
1676 1 1301 1302 1300 568
1677 1 1299 1306 1298 1300
1678 1 517 1307 516 518
1679 1 1300 1307 1299 1301
1680 1 1307 1308 1300 517
1681 1 1441 1440 1442 1545
1682 1 1442 1441 1443 1546
1683 1 1441 1442 1440 1545
1684 1 1443 1442 1444 1522
1685 1 1546 1442 1485 1547
1686 1 1442 1443 1441 1546
1687 1 1522 1443 1484 1523
1688 1 1443 1444 1442 1522
1689 1 1473 1472 1474 1557
1690 1 1474 1473 1475 1558
1691 1 1473 1474 1472 1557
1692 1 1475 1474 1476 1540
1693 1 1558 1474 1507 1559
1694 1 1474 1475 1473 1558
1695 1 1540 1475 1506 1541
1696 1 1475 1476 1474 1540
1697 1 1441 1545 1440 1442
1698 1 1442 1546 1441 1443
1699 1 1485 1546 1484 1486
1700 1 1546 1547 1442 1485
1701 1 1473 1557 1472 1474
1702 1 1474 1558 1473 1475
1703 1 1507 1558 1506 1508
1704 1 1558 1559 1474 1507
1705 1 1649 1633 1643 1650
1706 1 1689 1636 1648 1690
1707 1 1649 1643 1633 1650
1708 1 1689 1648 1636 1690
1709 1 1650 1649 1651 1669
1710 1 1649 1650 1633 1643
1711 1 1651 1650 977 1652
1712 1 1669 1650 923 1670
1713 1 977 1651 922 978
1714 1 1650 1651 1649 1669
1715 1 1651 1652 977 1650
1716 1 923 1669 922 924
1717 1 1650 1669 1649 1651
1718 1 1669 1670 923 1650
1719 1 1690 1689 1691 1695
1720 1 1689 1690 1636 1648
1721 1 1691 1690 3106 1692
1722 1 1695 1690 3073 1696
1723 1 1690 1691 1689 1695
1724 1 3106 1691 3072 3107
1725 1 1691 1692 3106 1690
1726 1 1690 1695 1689 1691
1727 1 3073 1695 3072 3074
1728 1 1695 1696 3073 1690
1729 1 914 913 915 973
1730 1 915 914 916 974
1731 1 914 915 913 973
1732 1 916 915 917 1671
1733 1 974 915 975 1655
1734 1 915 916 914 974
1735 1 1671 916 1654 1672
1736 1 916 917 915 1671
1737 1 945 944 946 994
1738 1 946 945 947 995
1739 1 945 946 944 994
1740 1 947 946 32 948
1741 1 995 946 24 996
1742 1 32 947 23 33
1743 1 946 947 945 995
1744 1 947 948 32 946
1745 1 957 956 958 988
1746 1 958 957 959 989
1747 1 957 958 956 988
1748 1 959 958 960 2965
1749 1 989 958 990 2959
1750 1 958 959 957 989
1751 1 2965 959 2958 2966
1752 1 959 960 958 2965
1753 1 914 973 913 915
1754 1 915 974 914 916
1755 1 1655 974 1654 1656
1756 1 974 975 915 1655
1757 1 957 988 956 958
1758 1 958 989 957 959
1759 1 2959 989 2958 2960
1760 1 989 990 958 2959
1761 1 945 994 944 946
1762 1 24 995 23 25
1763 1 946 995 945 947
1764 1 995 996 24 946
1765 1 1054 1053 1055 1100
1766 1 1055 1054 1056 1101
1767 1 1054 1055 1053 1100
1768 1 1056 1055 1057 1125
1769 1 1101 1055 1013 1102
1770 1 1055 1056 1054 1101
1771 1 1125 1056 1012 1126
1772 1 1056 1057 1055 1125
1773 1 1075 1074 1076 1118
1774 1 1076 1075 1077 1119
1775 1 1075 1076 1074 1118
1776 1 1077 1076 1078 1137
1777 1 1119 1076 1046 1120
1778 1 1076 1077 1075 1119
1779 1 1137 1077 1045 1138
1780 1 1077 1078 1076 1137
1781 1 1054 1100 1053 1055
1782 1 1013 1101 1012 1014
1783 1 1055 1101 1054 1056
1784 1 1101 1102 1013 1055
1785 1 1075 1118 1074 1076
1786 1 1046 1119 1045 1047
1787 1 1076 1119 1075 1077
1788 1 1119 1120 1046 1076
1789 1 1151 1150 1152 1203
1790 1 1152 1151 1153 1204
1791 1 1151 1152 1150 1203
1792 1 1153 1152 1154 1186
1793 1 1204 1152 1183 1205
1794 1 1152 1153 1151 1204
1795 1 1186 1153 1182 1187
1796 1 1153 1154 1152 1186
1797 1 1181 1180 1182 1185
1798 1 1182 1181 1183 1186
1799 1 1181 1182 1180 1185
1800 1 1183 1182 1184 1204
1801 1 1186 1182 1153 1187
1802 1 1182 1183 1181 1186
1803 1 1204 1183 1152 1205
1804 1 1183 1184 1182 1204
1805 1 1181 1185 1180 1182
1806 1 1153 1186 1152 1154
1807 1 1182 1186 1181 1183
1808 1 1186 1187 1153 1182
1809 1 1151 1203 1150 1152
1810 1 1152 1204 1151 1153
1811 1 1183 1204 1182 1184
1812 1 1204 1205 1152 1183
1813 1 897 896 898 1003
1814 1 898 897 899 1004
1815 1 897 898 896 1003
1816 1 899 898 900 1665
1817 1 1004 898 1005 1663
1818 1 898 899 897 1004
1819 1 1665 899 1662 1666
1820 1 899 900 898 1665
1821 1 897 1003 896 898
1822 1 898 1004 897 899
1823 1 1663 1004 1662 1664
1824 1 1004 1005 898 1663
1825 1 1023 1022 1024 1127
1826 1 1024 1023 1025 1128
1827 1 1023 1024 1022 1127
1828 1 1025 1024 1026 1107
1829 1 1128 1024 1071 1129
1830 1 1024 1025 1023 1128
1831 1 1107 1025 1070 1108
1832 1 1025 1026 1024 1107
1833 1 1039 1038 1040 1142
1834 1 1040 1039 1041 1143
1835 1 1039 1040 1038 1142
1836 1 1041 1040 1042 1110
1837 1 1143 1040 1089 1144
1838 1 1040 1041 1039 1143
1839 1 1110 1041 1088 1111
1840 1 1041 1042 1040 1110
1841 1 1023 1127 1022 1024
1842 1 1024 1128 1023 1025
1843 1 1071 1128 1070 1072
1844 1 1128 1129 1024 1071
1845 1 1039 1142 1038 1040
1846 1 1040 1143 1039 1041
1847 1 1089 1143 1088 1090
1848 1 1143 1144 1040 1089
1849 1 1261 1211 1223 1262
1850 1 1253 1214 1221 1254
1851 1 1253 1221 1214 1254
1852 1 1261 1223 1211 1262
1853 1 1254 1253 1255 1257
1854 1 1253 1254 1214 1221
1855 1 1255 1254 150 1256
1856 1 1257 1254 87 1258
1857 1 150 1255 86 151
1858 1 1254 1255 1253 1257
1859 1 1255 1256 150 1254
1860 1 87 1257 86 88
1861 1 1254 1257 1253 1255
1862 1 1257 1258 87 1254
1863 1 1262 1261 1263 1269
1864 1 1261 1262 1211 1223
1865 1 1263 1262 2685 1264
1866 1 1269 1262 2655 1270
1867 1 1262 1263 1261 1269
1868 1 2685 1263 2654 2686
1869 1 1263 1264 2685 1262
1870 1 1262 1269 1261 1263
1871 1 2655 1269 2654 2656
1872 1 1269 1270 2655 1262
1873 1 855 854 856 859
1874 1 856 855 857 860
1875 1 855 856 854 859
1876 1 857 856 858 2676
1877 1 860 856 861 2667
1878 1 856 857 855 860
1879 1 2676 857 2666 2677
1880 1 857 858 856 2676
1881 1 855 859 854 856
1882 1 856 860 855 857
1883 1 2667 860 2666 2668
1884 1 860 861 856 2667
1885 1 1011 1010 1012 1124
1886 1 1012 1011 1013 1125
1887 1 1011 1012 1010 1124
1888 1 1013 1012 1014 1101
1889 1 1125 1012 1056 1126
1890 1 1012 1013 1011 1125
1891 1 1101 1013 1055 1102
1892 1 1013 1014 1012 1101
1893 1 1034 1033 1035 1139
1894 1 1035 1034 1036 1140
1895 1 1034 1035 1033 1139
1896 1 1036 1035 1037 1113
1897 1 1140 1035 1095 1141
1898 1 1035 1036 1034 1140
1899 1 1113 1036 1094 1114
1900 1 1036 1037 1035 1113
1901 1 1011 1124 1010 1012
1902 1 1012 1125 1011 1013
1903 1 1056 1125 1055 1057
1904 1 1125 1126 1012 1056
1905 1 1034 1139 1033 1035
1906 1 1035 1140 1034 1036
1907 1 1095 1140 1094 1096
1908 1 1140 1141 1035 1095
1909 1 1229 1210 1220 1230
1910 1 1249 1213 1222 1250
1911 1 1229 1220 1210 1230
1912 1 1249 1222 1213 1250
1913 1 1230 1229 1231 1247
1914 1 1229 1230 1210 1220
1915 1 1231 1230 1398 1232
1916 1 1247 1230 1340 1248
1917 1 1230 1231 1229 1247
1918 1 1398 1231 1339 1399
1919 1 1231 1232 1398 1230
1920 1 1230 1247 1229 1231
1921 1 1340 1247 1339 1341
1922 1 1247 1248 1340 1230
1923 1 1250 1249 1251 1259
1924 1 1249 1250 1213 1222
1925 1 1251 1250 153 1252
1926 1 1259 1250 81 1260
1927 1 153 1251 80 154
1928 1 1250 1251 1249 1259
1929 1 1251 1252 153 1250
1930 1 81 1259 80 82
1931 1 1250 1259 1249 1251
1932 1 1259 1260 81 1250
1933 1 1156 1155 1157 1197
1934 1 1157 1156 1158 1198
1935 1 1156 1157 1155 1197
1936 1 1158 1157 1159 1195
1937 1 1198 1157 1173 1199
1938 1 1157 1158 1156 1198
1939 1 1195 1158 1172 1196
1940 1 1158 1159 1157 1195
1941 1 1171 1170 1172 1194
1942 1 1172 1171 1173 1195
1943 1 1171 1172 1170 1194
1944 1 1173 1172 1174 1198
1945 1 1195 1172 1158 1196
1946 1 1172 1173 1171 1195
1947 1 1198 1173 1157 1199
1948 1 1173 1174 1172 1198
1949 1 1171 1194 1170 1172
1950 1 1158 1195 1157 1159
1951 1 1172 1195 1171 1173
1952 1 1195 1196 1158 1172
1953 1 1156 1197 1155 1157
1954 1 1157 1198 1156 1158
1955 1 1173 1198 1172 1174
1956 1 1198 1199 1157 1173
1957 1 939 938 940 991
1958 1 940 939 941 992
1959 1 939 940 938 991
1960 1 941 940 35 942
1961 1 992 940 29 993
1962 1 35 941 28 36
1963 1 940 941 939 992
1964 1 941 942 35 940
1965 1 969 968 970 979
1966 1 970 969 971 980
1967 1 969 970 968 979
1968 1 971 970 2556 972
1969 1 980 970 2553 981
1970 1 970 971 969 980
1971 1 2556 971 2552 2557
1972 1 971 972 2556 970
1973 1 969 979 968 970
1974 1 970 980 969 971
1975 1 2553 980 2552 2554
1976 1 980 981 2553 970
1977 1 939 991 938 940
1978 1 29 992 28 30
1979 1 940 992 939 941
1980 1 992 993 29 940
1981 1 1069 1068 1070 1106
1982 1 1070 1069 1071 1107
1983 1 1069 1070 1068 1106
1984 1 1071 1070 1072 1128
1985 1 1107 1070 1025 1108
1986 1 1070 1071 1069 1107
1987 1 1128 1071 1024 1129
1988 1 1071 1072 1070 1128
1989 1 1081 1080 1082 1115
1990 1 1082 1081 1083 1116
1991 1 1081 1082 1080 1115
1992 1 1083 1082 1084 1134
1993 1 1116 1082 1051 1117
1994 1 1082 1083 1081 1116
1995 1 1134 1083 1050 1135
1996 1 1083 1084 1082 1134
1997 1 1069 1106 1068 1070
1998 1 1025 1107 1024 1026
1999 1 1070 1107 1069 1071
2000 1 1107 1108 1025 1070
2001 1 1081 1115 1080 1082
2002 1 1051 1116 1050 1052
2003 1 1082 1116 1081 1083
2004 1 1116 1117 1051 1082
2005 1 1237 1216 1217 1238
2006 1 1237 1217 1216 1238
2007 1 1238 1237 1239 1241
2008 1 1237 1238 1216 1217
2009 1 1239 1238 1428 1240
2010 1 1241 1238 1323 1242
2011 1 1238 1239 1237 1241
2012 1 1428 1239 1322 1429
2013 1 1239 1240 1428 1238
2014 1 1238 1241 1237 1239
2015 1 1323 1241 1322 1324
2016 1 1241 1242 1323 1238
2017 1 1338 1337 1339 1397
2018 1 1339 1338 1340 1398
2019 1 1338 1339 1337 1397
2020 1 1340 1339 1341 1247
2021 1 1398 1339 1399 1231
2022 1 1247 1340 1230 1248
2023 1 1339 1340 1338 1398
2024 1 1340 1341 1339 1247
2025 1 1369 1368 1370 1418
2026 1 1370 1369 1371 1419
2027 1 1369 1370 1368 1418
2028 1 1371 1370 456 1372
2029 1 1419 1370 448 1420
2030 1 456 1371 447 457
2031 1 1370 1371 1369 1419
2032 1 1371 1372 456 1370
2033 1 1381 1380 1382 1412
2034 1 1382 1381 1383 1413
2035 1 1381 1382 1380 1412
2036 1 1383 1382 1384 3389
2037 1 1413 1382 1414 3383
2038 1 1382 1383 1381 1413
2039 1 3389 1383 3382 3390
2040 1 1383 1384 1382 3389
2041 1 1338 1397 1337 1339
2042 1 1231 1398 1230 1232
2043 1 1339 1398 1338 1340
2044 1 1398 1399 1339 1231
2045 1 1381 1412 1380 1382
2046 1 1382 1413 1381 1383
2047 1 3383 1413 3382 3384
2048 1 1413 1414 1382 3383
2049 1 1369 1418 1368 1370
2050 1 448 1419 447 449
2051 1 1370 1419 1369 1371
2052 1 1419 1420 448 1370
2053 1 1478 1477 1479 1524
2054 1 1479 1478 1480 1525
2055 1 1478 1479 1477 1524
2056 1 1480 1479 1481 1549
2057 1 1525 1479 1437 1526
2058 1 1479 1480 1478 1525
2059 1 1549 1480 1436 1550
2060 1 1480 1481 1479 1549
2061 1 1499 1498 1500 1542
2062 1 1500 1499 1501 1543
2063 1 1499 1500 1498 1542
2064 1 1501 1500 1502 1561
2065 1 1543 1500 1470 1544
2066 1 1500 1501 1499 1543
2067 1 1561 1501 1469 1562
2068 1 1501 1502 1500 1561
2069 1 1478 1524 1477 1479
2070 1 1437 1525 1436 1438
2071 1 1479 1525 1478 1480
2072 1 1525 1526 1437 1479
2073 1 1499 1542 1498 1500
2074 1 1470 1543 1469 1471
2075 1 1500 1543 1499 1501
2076 1 1543 1544 1470 1500
2077 1 1575 1574 1576 1627
2078 1 1576 1575 1577 1628
2079 1 1575 1576 1574 1627
2080 1 1577 1576 1578 1610
2081 1 1628 1576 1607 1629
2082 1 1576 1577 1575 1628
2083 1 1610 1577 1606 1611
2084 1 1577 1578 1576 1610
2085 1 1605 1604 1606 1609
2086 1 1606 1605 1607 1610
2087 1 1605 1606 1604 1609
2088 1 1607 1606 1608 1628
2089 1 1610 1606 1577 1611
2090 1 1606 1607 1605 1610
2091 1 1628 1607 1576 1629
2092 1 1607 1608 1606 1628
2093 1 1605 1609 1604 1606
2094 1 1577 1610 1576 1578
2095 1 1606 1610 1605 1607
2096 1 1610 1611 1577 1606
2097 1 1575 1627 1574 1576
2098 1 1576 1628 1575 1577
2099 1 1607 1628 1606 1608
2100 1 1628 1629 1576 1607
2101 1 1321 1320 1322 1427
2102 1 1322 1321 1323 1428
2103 1 1321 1322 1320 1427
2104 1 1323 1322 1324 1241
2105 1 1428 1322 1429 1239
2106 1 1241 1323 1238 1242
2107 1 1322 1323 1321 1428
2108 1 1323 1324 1322 1241
2109 1 1321 1427 1320 1322
2110 1 1239 1428 1238 1240
2111 1 1322 1428 1321 1323
2112 1 1428 1429 1322 1239
2113 1 1447 1446 1448 1551
2114 1 1448 1447 1449 1552
2115 1 1447 1448 1446 1551
2116 1 1449 1448 1450 1531
2117 1 1552 1448 1495 1553
2118 1 1448 1449 1447 1552
2119 1 1531 1449 1494 1532
2120 1 1449 1450 1448 1531
2121 1 1463 1462 1464 1566
2122 1 1464 1463 1465 1567
2123 1 1463 1464 1462 1566
2124 1 1465 1464 1466 1534
2125 1 1567 1464 1513 1568
2126 1 1464 1465 1463 1567
2127 1 1534 1465 1512 1535
2128 1 1465 1466 1464 1534
2129 1 1447 1551 1446 1448
2130 1 1448 1552 1447 1449
2131 1 1495 1552 1494 1496
2132 1 1552 1553 1448 1495
2133 1 1463 1566 1462 1464
2134 1 1464 1567 1463 1465
2135 1 1513 1567 1512 1514
2136 1 1567 1568 1464 1513
2137 1 1685 1635 1647 1686
2138 1 1677 1638 1645 1678
2139 1 1677 1645 1638 1678
2140 1 1685 1647 1635 1686
2141 1 1678 1677 1679 1681
2142 1 1677 1678 1638 1645
2143 1 1679 1678 574 1680
2144 1 1681 1678 511 1682
2145 1 574 1679 510 575
2146 1 1678 1679 1677 1681
2147 1 1679 1680 574 1678
2148 1 511 1681 510 512
2149 1 1678 1681 1677 1679
2150 1 1681 1682 511 1678
2151 1 1686 1685 1687 1693
2152 1 1685 1686 1635 1647
2153 1 1687 1686 3109 1688
2154 1 1693 1686 3079 1694
2155 1 1686 1687 1685 1693
2156 1 3109 1687 3078 3110
2157 1 1687 1688 3109 1686
2158 1 1686 1693 1685 1687
2159 1 3079 1693 3078 3080
2160 1 1693 1694 3079 1686
2161 1 1279 1278 1280 1283
2162 1 1280 1279 1281 1284
2163 1 1279 1280 1278 1283
2164 1 1281 1280 1282 3100
2165 1 1284 1280 1285 3091
2166 1 1280 1281 1279 1284
2167 1 3100 1281 3090 3101
2168 1 1281 1282 1280 3100
2169 1 1279 1283 1278 1280
2170 1 1280 1284 1279 1281
2171 1 3091 1284 3090 3092
2172 1 1284 1285 1280 3091
2173 1 1435 1434 1436 1548
2174 1 1436 1435 1437 1549
2175 1 1435 1436 1434 1548
2176 1 1437 1436 1438 1525
2177 1 1549 1436 1480 1550
2178 1 1436 1437 1435 1549
2179 1 1525 1437 1479 1526
2180 1 1437 1438 1436 1525
2181 1 1458 1457 1459 1563
2182 1 1459 1458 1460 1564
2183 1 1458 1459 1457 1563
2184 1 1460 1459 1461 1537
2185 1 1564 1459 1519 1565
2186 1 1459 1460 1458 1564
2187 1 1537 1460 1518 1538
2188 1 1460 1461 1459 1537
2189 1 1435 1548 1434 1436
2190 1 1436 1549 1435 1437
2191 1 1480 1549 1479 1481
2192 1 1549 1550 1436 1480
2193 1 1458 1563 1457 1459
2194 1 1459 1564 1458 1460
2195 1 1519 1564 1518 1520
2196 1 1564 1565 1459 1519
2197 1 1653 1634 1644 1654
2198 1 1673 1637 1646 1674
2199 1 1653 1644 1634 1654
2200 1 1673 1646 1637 1674
2201 1 1654 1653 1655 1671
2202 1 1653 1654 1634 1644
2203 1 1655 1654 974 1656
2204 1 1671 1654 916 1672
2205 1 974 1655 915 975
2206 1 1654 1655 1653 1671
2207 1 1655 1656 974 1654
2208 1 916 1671 915 917
2209 1 1654 1671 1653 1655
2210 1 1671 1672 916 1654
2211 1 1674 1673 1675 1683
2212 1 1673 1674 1637 1646
2213 1 1675 1674 577 1676
2214 1 1683 1674 505 1684
2215 1 577 1675 504 578
2216 1 1674 1675 1673 1683
2217 1 1675 1676 577 1674
2218 1 505 1683 504 506
2219 1 1674 1683 1673 1675
2220 1 1683 1684 505 1674
2221 1 1580 1579 1581 1621
2222 1 1581 1580 1582 1622
2223 1 1580 1581 1579 1621
2224 1 1582 1581 1583 1619
2225 1 1622 1581 1597 1623
2226 1 1581 1582 1580 1622
2227 1 1619 1582 1596 1620
2228 1 1582 1583 1581 1619
2229 1 1595 1594 1596 1618
2230 1 1596 1595 1597 1619
2231 1 1595 1596 1594 1618
2232 1 1597 1596 1598 1622
2233 1 1619 1596 1582 1620
2234 1 1596 1597 1595 1619
2235 1 1622 1597 1581 1623
2236 1 1597 1598 1596 1622
2237 1 1595 1618 1594 1596
2238 1 1582 1619 1581 1583
2239 1 1596 1619 1595 1597
2240 1 1619 1620 1582 1596
2241 1 1580 1621 1579 1581
2242 1 1581 1622 1580 1582
2243 1 1597 1622 1596 1598
2244 1 1622 1623 1581 1597
2245 1 1363 1362 1364 1415
2246 1 1364 1363 1365 1416
2247 1 1363 1364 1362 1415
2248 1 1365 1364 459 1366
2249 1 1416 1364 453 1417
2250 1 459 1365 452 460
2251 1 1364 1365 1363 1416
2252 1 1365 1366 459 1364
2253 1 1393 1392 1394 1403
2254 1 1394 1393 1395 1404
2255 1 1393 1394 1392 1403
2256 1 1395 1394 2980 1396
2257 1 1404 1394 2977 1405
2258 1 1394 1395 1393 1404
2259 1 2980 1395 2976 2981
2260 1 1395 1396 2980 1394
2261 1 1393 1403 1392 1394
2262 1 1394 1404 1393 1395
2263 1 2977 1404 2976 2978
2264 1 1404 1405 2977 1394
2265 1 1363 1415 1362 1364
2266 1 453 1416 452 454
2267 1 1364 1416 1363 1365
2268 1 1416 1417 453 1364
2269 1 1493 1492 1494 1530
2270 1 1494 1493 1495 1531
2271 1 1493 1494 1492 1530
2272 1 1495 1494 1496 1552
2273 1 1531 1494 1449 1532
2274 1 1494 1495 1493 1531
2275 1 1552 1495 1448 1553
2276 1 1495 1496 1494 1552
2277 1 1505 1504 1506 1539
2278 1 1506 1505 1507 1540
2279 1 1505 1506 1504 1539
2280 1 1507 1506 1508 1558
2281 1 1540 1506 1475 1541
2282 1 1506 1507 1505 1540
2283 1 1558 1507 1474 1559
2284 1 1507 1508 1506 1558
2285 1 1493 1530 1492 1494
2286 1 1449 1531 1448 1450
2287 1 1494 1531 1493 1495
2288 1 1531 1532 1449 1494
2289 1 1505 1539 1504 1506
2290 1 1475 1540 1474 1476
2291 1 1506 1540 1505 1507
2292 1 1540 1541 1475 1506
2293 1 1661 1640 1641 1662
2294 1 1661 1641 1640 1662
2295 1 1662 1661 1663 1665
2296 1 1661 1662 1640 1641
2297 1 1663 1662 1004 1664
2298 1 1665 1662 899 1666
2299 1 1004 1663 898 1005
2300 1 1662 1663 1661 1665
2301 1 1663 1664 1004 1662
2302 1 899 1665 898 900
2303 1 1662 1665 1661 1663
2304 1 1665 1666 899 1662
2305 1 1698 1697 1699 1710
2306 1 1699 1698 1700 1711
2307 1 1698 1699 1697 1710
2308 1 1700 1699 1701 135
2309 1 1711 1699 1712 117
2310 1 135 1700 116 136
2311 1 1699 1700 1698 1711
2312 1 1700 1701 1699 135
2313 1 1698 1710 1697 1699
2314 1 117 1711 116 118
2315 1 1699 1711 1698 1700
2316 1 1711 1712 1699 117
2317 1 1718 1717 1719 1727
2318 1 1719 1718 1720 1728
2319 1 1718 1719 1717 1727
2320 1 1720 1719 1721 2691
2321 1 1728 1719 1729 2643
2322 1 1719 1720 1718 1728
2323 1 2691 1720 2642 2692
2324 1 1720 1721 1719 2691
2325 1 1718 1727 1717 1719
2326 1 1719 1728 1718 1720
2327 1 2643 1728 2642 2644
2328 1 1728 1729 1719 2643
2329 1 1738 1737 1739 1854
2330 1 1739 1738 1740 1855
2331 1 1738 1739 1737 1854
2332 1 1740 1739 1741 2515
2333 1 1855 1739 1856 2507
2334 1 1739 1740 1738 1855
2335 1 2515 1740 2506 2516
2336 1 1740 1741 1739 2515
2337 1 1738 1854 1737 1739
2338 1 1739 1855 1738 1740
2339 1 2507 1855 2506 2508
2340 1 1855 1856 1739 2507
2341 1 1877 1876 1878 1978
2342 1 1878 1877 1879 1979
2343 1 1877 1878 1876 1978
2344 1 1879 1878 1880 1952
2345 1 1979 1878 1914 1980
2346 1 1878 1879 1877 1979
2347 1 1952 1879 1913 1953
2348 1 1879 1880 1878 1952
2349 1 1892 1891 1893 1984
2350 1 1893 1892 1894 1985
2351 1 1892 1893 1891 1984
2352 1 1894 1893 1895 1967
2353 1 1985 1893 1925 1986
2354 1 1893 1894 1892 1985
2355 1 1967 1894 1924 1968
2356 1 1894 1895 1893 1967
2357 1 1877 1978 1876 1878
2358 1 1878 1979 1877 1879
2359 1 1914 1979 1913 1915
2360 1 1979 1980 1878 1914
2361 1 1892 1984 1891 1893
2362 1 1893 1985 1892 1894
2363 1 1925 1985 1924 1926
2364 1 1985 1986 1893 1925
2365 1 2009 2008 2010 2048
2366 1 2010 2009 2011 2049
2367 1 2009 2010 2008 2048
2368 1 2011 2010 2012 2040
2369 1 2049 2010 2016 2050
2370 1 2010 2011 2009 2049
2371 1 2040 2011 2015 2041
2372 1 2011 2012 2010 2040
2373 1 2014 2013 2015 2039
2374 1 2015 2014 2016 2040
2375 1 2014 2015 2013 2039
2376 1 2016 2015 2017 2049
2377 1 2040 2015 2011 2041
2378 1 2015 2016 2014 2040
2379 1 2049 2016 2010 2050
2380 1 2016 2017 2015 2049
2381 1 2014 2039 2013 2015
2382 1 2011 2040 2010 2012
2383 1 2015 2040 2014 2016
2384 1 2040 2041 2011 2015
2385 1 2009 2048 2008 2010
2386 1 2010 2049 2009 2011
2387 1 2016 2049 2015 2017
2388 1 2049 2050 2010 2016
2389 1 1769 1768 1770 1824
2390 1 1770 1769 1771 1825
2391 1 1769 1770 1768 1824
2392 1 1771 1770 1772 2517
2393 1 1825 1770 1826 2499
2394 1 1770 1771 1769 1825
2395 1 2517 1771 2498 2518
2396 1 1771 1772 1770 2517
2397 1 1781 1780 1782 1845
2398 1 1782 1781 1783 1846
2399 1 1781 1782 1780 1845
2400 1 1783 1782 1784 2953
2401 1 1846 1782 1847 2951
2402 1 1782 1783 1781 1846
2403 1 2953 1783 2950 2954
2404 1 1783 1784 1782 2953
2405 1 1811 1810 1812 1830
2406 1 1812 1811 1813 1831
2407 1 1811 1812 1810 1830
2408 1 1813 1812 15 1814
2409 1 1831 1812 4 1832
2410 1 15 1813 3 16
2411 1 1812 1813 1811 1831
2412 1 1813 1814 15 1812
2413 1 1769 1824 1768 1770
2414 1 1770 1825 1769 1771
2415 1 2499 1825 2498 2500
2416 1 1825 1826 1770 2499
2417 1 1811 1830 1810 1812
2418 1 4 1831 3 5
2419 1 1812 1831 1811 1813
2420 1 1831 1832 4 1812
2421 1 1781 1845 1780 1782
2422 1 1782 1846 1781 1783
2423 1 2951 1846 2950 2952
2424 1 1846 1847 1782 2951
2425 1 1907 1906 1908 1945
2426 1 1908 1907 1909 1946
2427 1 1907 1908 1906 1945
2428 1 1909 1908 1910 1970
2429 1 1946 1908 1867 1947
2430 1 1908 1909 1907 1946
2431 1 1970 1909 1866 1971
2432 1 1909 1910 1908 1970
2433 1 1935 1934 1936 1957
2434 1 1936 1935 1937 1958
2435 1 1935 1936 1934 1957
2436 1 1937 1936 1938 1991
2437 1 1958 1936 1889 1959
2438 1 1936 1937 1935 1958
2439 1 1991 1937 1888 1992
2440 1 1937 1938 1936 1991
2441 1 1907 1945 1906 1908
2442 1 1867 1946 1866 1868
2443 1 1908 1946 1907 1909
2444 1 1946 1947 1867 1908
2445 1 1935 1957 1934 1936
2446 1 1889 1958 1888 1890
2447 1 1936 1958 1935 1937
2448 1 1958 1959 1889 1936
2449 1 1775 1774 1776 1848
2450 1 1776 1775 1777 1849
2451 1 1775 1776 1774 1848
2452 1 1777 1776 1778 2955
2453 1 1849 1776 1850 2947
2454 1 1776 1777 1775 1849
2455 1 2955 1777 2946 2956
2456 1 1777 1778 1776 2955
2457 1 1799 1798 1800 1833
2458 1 1800 1799 1801 1834
2459 1 1799 1800 1798 1833
2460 1 1801 1800 1802 423
2461 1 1834 1800 1835 419
2462 1 423 1801 418 424
2463 1 1800 1801 1799 1834
2464 1 1801 1802 1800 423
2465 1 1799 1833 1798 1800
2466 1 419 1834 418 420
2467 1 1800 1834 1799 1801
2468 1 1834 1835 1800 419
2469 1 1775 1848 1774 1776
2470 1 1776 1849 1775 1777
2471 1 2947 1849 2946 2948
2472 1 1849 1850 1776 2947
2473 1 1912 1911 1913 1951
2474 1 1913 1912 1914 1952
2475 1 1912 1913 1911 1951
2476 1 1914 1913 1915 1979
2477 1 1952 1913 1879 1953
2478 1 1913 1914 1912 1952
2479 1 1979 1914 1878 1980
2480 1 1914 1915 1913 1979
2481 1 1941 1940 1942 1960
2482 1 1942 1941 1943 1961
2483 1 1941 1942 1940 1960
2484 1 1943 1942 1944 1988
2485 1 1961 1942 1884 1962
2486 1 1942 1943 1941 1961
2487 1 1988 1943 1883 1989
2488 1 1943 1944 1942 1988
2489 1 1912 1951 1911 1913
2490 1 1879 1952 1878 1880
2491 1 1913 1952 1912 1914
2492 1 1952 1953 1879 1913
2493 1 1941 1960 1940 1942
2494 1 1884 1961 1883 1885
2495 1 1942 1961 1941 1943
2496 1 1961 1962 1884 1942
2497 1 2081 2063 2066 2082
2498 1 2081 2066 2063 2082
2499 1 2082 2081 2083 2091
2500 1 2081 2082 2063 2066
2501 1 2083 2082 2279 2084
2502 1 2091 2082 2164 2092
2503 1 2082 2083 2081 2091
2504 1 2279 2083 2163 2280
2505 1 2083 2084 2279 2082
2506 1 2082 2091 2081 2083
2507 1 2164 2091 2163 2165
2508 1 2091 2092 2164 2082
2509 1 1994 1993 1995 2054
2510 1 1995 1994 1996 2055
2511 1 1994 1995 1993 2054
2512 1 1996 1995 1997 2037
2513 1 2055 1995 2026 2056
2514 1 1995 1996 1994 2055
2515 1 2037 1996 2025 2038
2516 1 1996 1997 1995 2037
2517 1 2024 2023 2025 2036
2518 1 2025 2024 2026 2037
2519 1 2024 2025 2023 2036
2520 1 2026 2025 2027 2055
2521 1 2037 2025 1996 2038
2522 1 2025 2026 2024 2037
2523 1 2055 2026 1995 2056
2524 1 2026 2027 2025 2055
2525 1 2024 2036 2023 2025
2526 1 1996 2037 1995 1997
2527 1 2025 2037 2024 2026
2528 1 2037 2038 1996 2025
2529 1 1994 2054 1993 1995
2530 1 1995 2055 1994 1996
2531 1 2026 2055 2025 2027
2532 1 2055 2056 1995 2026
2533 1 1723 1722 1724 1730
2534 1 1724 1723 1725 1731
2535 1 1723 1724 1722 1730
2536 1 1725 1724 1726 2688
2537 1 1731 1724 1732 2637
2538 1 1724 1725 1723 1731
2539 1 2688 1725 2636 2689
2540 1 1725 1726 1724 2688
2541 1 1723 1730 1722 1724
2542 1 1724 1731 1723 1725
2543 1 2637 1731 2636 2638
2544 1 1731 1732 1724 2637
2545 1 1865 1864 1866 1969
2546 1 1866 1865 1867 1970
2547 1 1865 1866 1864 1969
2548 1 1867 1866 1868 1946
2549 1 1970 1866 1909 1971
2550 1 1866 1867 1865 1970
2551 1 1946 1867 1908 1947
2552 1 1867 1868 1866 1946
2553 1 1897 1896 1898 1981
2554 1 1898 1897 1899 1982
2555 1 1897 1898 1896 1981
2556 1 1899 1898 1900 1964
2557 1 1982 1898 1931 1983
2558 1 1898 1899 1897 1982
2559 1 1964 1899 1930 1965
2560 1 1899 1900 1898 1964
2561 1 1865 1969 1864 1866
2562 1 1866 1970 1865 1867
2563 1 1909 1970 1908 1910
2564 1 1970 1971 1866 1909
2565 1 1897 1981 1896 1898
2566 1 1898 1982 1897 1899
2567 1 1931 1982 1930 1932
2568 1 1982 1983 1898 1931
2569 1 2073 2057 2067 2074
2570 1 2113 2060 2072 2114
2571 1 2073 2067 2057 2074
2572 1 2113 2072 2060 2114
2573 1 2074 2073 2075 2093
2574 1 2073 2074 2057 2067
2575 1 2075 2074 2249 2076
2576 1 2093 2074 2195 2094
2577 1 2074 2075 2073 2093
2578 1 2249 2075 2194 2250
2579 1 2075 2076 2249 2074
2580 1 2074 2093 2073 2075
2581 1 2195 2093 2194 2196
2582 1 2093 2094 2195 2074
2583 1 2114 2113 2115 2119
2584 1 2113 2114 2060 2072
2585 1 2115 2114 138 2116
2586 1 2119 2114 105 2120
2587 1 138 2115 104 139
2588 1 2114 2115 2113 2119
2589 1 2115 2116 138 2114
2590 1 105 2119 104 106
2591 1 2114 2119 2113 2115
2592 1 2119 2120 105 2114
2593 1 2122 2121 2123 2134
2594 1 2123 2122 2124 2135
2595 1 2122 2123 2121 2134
2596 1 2124 2123 2125 559
2597 1 2135 2123 2136 541
2598 1 559 2124 540 560
2599 1 2123 2124 2122 2135
2600 1 2124 2125 2123 559
2601 1 2122 2134 2121 2123
2602 1 541 2135 540 542
2603 1 2123 2135 2122 2124
2604 1 2135 2136 2123 541
2605 1 2142 2141 2143 2151
2606 1 2143 2142 2144 2152
2607 1 2142 2143 2141 2151
2608 1 2144 2143 2145 3115
2609 1 2152 2143 2153 3067
2610 1 2143 2144 2142 2152
2611 1 3115 2144 3066 3116
2612 1 2144 2145 2143 3115
2613 1 2142 2151 2141 2143
2614 1 2143 2152 2142 2144
2615 1 3067 2152 3066 3068
2616 1 2152 2153 2143 3067
2617 1 2162 2161 2163 2278
2618 1 2163 2162 2164 2279
2619 1 2162 2163 2161 2278
2620 1 2164 2163 2165 2091
2621 1 2279 2163 2280 2083
2622 1 2091 2164 2082 2092
2623 1 2163 2164 2162 2279
2624 1 2164 2165 2163 2091
2625 1 2162 2278 2161 2163
2626 1 2083 2279 2082 2084
2627 1 2163 2279 2162 2164
2628 1 2279 2280 2163 2083
2629 1 2301 2300 2302 2402
2630 1 2302 2301 2303 2403
2631 1 2301 2302 2300 2402
2632 1 2303 2302 2304 2376
2633 1 2403 2302 2338 2404
2634 1 2302 2303 2301 2403
2635 1 2376 2303 2337 2377
2636 1 2303 2304 2302 2376
2637 1 2316 2315 2317 2408
2638 1 2317 2316 2318 2409
2639 1 2316 2317 2315 2408
2640 1 2318 2317 2319 2391
2641 1 2409 2317 2349 2410
2642 1 2317 2318 2316 2409
2643 1 2391 2318 2348 2392
2644 1 2318 2319 2317 2391
2645 1 2301 2402 2300 2302
2646 1 2302 2403 2301 2303
2647 1 2338 2403 2337 2339
2648 1 2403 2404 2302 2338
2649 1 2316 2408 2315 2317
2650 1 2317 2409 2316 2318
2651 1 2349 2409 2348 2350
2652 1 2409 2410 2317 2349
2653 1 2433 2432 2434 2472
2654 1 2434 2433 2435 2473
2655 1 2433 2434 2432 2472
2656 1 2435 2434 2436 2464
2657 1 2473 2434 2440 2474
2658 1 2434 2435 2433 2473
2659 1 2464 2435 2439 2465
2660 1 2435 2436 2434 2464
2661 1 2438 2437 2439 2463
2662 1 2439 2438 2440 2464
2663 1 2438 2439 2437 2463
2664 1 2440 2439 2441 2473
2665 1 2464 2439 2435 2465
2666 1 2439 2440 2438 2464
2667 1 2473 2440 2434 2474
2668 1 2440 2441 2439 2473
2669 1 2438 2463 2437 2439
2670 1 2435 2464 2434 2436
2671 1 2439 2464 2438 2440
2672 1 2464 2465 2435 2439
2673 1 2433 2472 2432 2434
2674 1 2434 2473 2433 2435
2675 1 2440 2473 2439 2441
2676 1 2473 2474 2434 2440
2677 1 2193 2192 2194 2248
2678 1 2194 2193 2195 2249
2679 1 2193 2194 2192 2248
2680 1 2195 2194 2196 2093
2681 1 2249 2194 2250 2075
2682 1 2093 2195 2074 2094
2683 1 2194 2195 2193 2249
2684 1 2195 2196 2194 2093
2685 1 2205 2204 2206 2269
2686 1 2206 2205 2207 2270
2687 1 2205 2206 2204 2269
2688 1 2207 2206 2208 3377
2689 1 2270 2206 2271 3375
2690 1 2206 2207 2205 2270
2691 1 3377 2207 3374 3378
2692 1 2207 2208 2206 3377
2693 1 2235 2234 2236 2254
2694 1 2236 2235 2237 2255
2695 1 2235 2236 2234 2254
2696 1 2237 2236 439 2238
2697 1 2255 2236 428 2256
2698 1 439 2237 427 440
2699 1 2236 2237 2235 2255
2700 1 2237 2238 439 2236
2701 1 2193 2248 2192 2194
2702 1 2075 2249 2074 2076
2703 1 2194 2249 2193 2195
2704 1 2249 2250 2194 2075
2705 1 2235 2254 2234 2236
2706 1 428 2255 427 429
2707 1 2236 2255 2235 2237
2708 1 2255 2256 428 2236
2709 1 2205 2269 2204 2206
2710 1 2206 2270 2205 2207
2711 1 3375 2270 3374 3376
2712 1 2270 2271 2206 3375
2713 1 2331 2330 2332 2369
2714 1 2332 2331 2333 2370
2715 1 2331 2332 2330 2369
2716 1 2333 2332 2334 2394
2717 1 2370 2332 2291 2371
2718 1 2332 2333 2331 2370
2719 1 2394 2333 2290 2395
2720 1 2333 2334 2332 2394
2721 1 2359 2358 2360 2381
2722 1 2360 2359 2361 2382
2723 1 2359 2360 2358 2381
2724 1 2361 2360 2362 2415
2725 1 2382 2360 2313 2383
2726 1 2360 2361 2359 2382
2727 1 2415 2361 2312 2416
2728 1 2361 2362 2360 2415
2729 1 2331 2369 2330 2332
2730 1 2291 2370 2290 2292
2731 1 2332 2370 2331 2333
2732 1 2370 2371 2291 2332
2733 1 2359 2381 2358 2360
2734 1 2313 2382 2312 2314
2735 1 2360 2382 2359 2361
2736 1 2382 2383 2313 2360
2737 1 2199 2198 2200 2272
2738 1 2200 2199 2201 2273
2739 1 2199 2200 2198 2272
2740 1 2201 2200 2202 3379
2741 1 2273 2200 2274 3371
2742 1 2200 2201 2199 2273
2743 1 3379 2201 3370 3380
2744 1 2201 2202 2200 3379
2745 1 2223 2222 2224 2257
2746 1 2224 2223 2225 2258
2747 1 2223 2224 2222 2257
2748 1 2225 2224 2226 847
2749 1 2258 2224 2259 843
2750 1 847 2225 842 848
2751 1 2224 2225 2223 2258
2752 1 2225 2226 2224 847
2753 1 2223 2257 2222 2224
2754 1 843 2258 842 844
2755 1 2224 2258 2223 2225
2756 1 2258 2259 2224 843
2757 1 2199 2272 2198 2200
2758 1 2200 2273 2199 2201
2759 1 3371 2273 3370 3372
2760 1 2273 2274 2200 3371
2761 1 2336 2335 2337 2375
2762 1 2337 2336 2338 2376
2763 1 2336 2337 2335 2375
2764 1 2338 2337 2339 2403
2765 1 2376 2337 2303 2377
2766 1 2337 2338 2336 2376
2767 1 2403 2338 2302 2404
2768 1 2338 2339 2337 2403
2769 1 2365 2364 2366 2384
2770 1 2366 2365 2367 2385
2771 1 2365 2366 2364 2384
2772 1 2367 2366 2368 2412
2773 1 2385 2366 2308 2386
2774 1 2366 2367 2365 2385
2775 1 2412 2367 2307 2413
2776 1 2367 2368 2366 2412
2777 1 2336 2375 2335 2337
2778 1 2303 2376 2302 2304
2779 1 2337 2376 2336 2338
2780 1 2376 2377 2303 2337
2781 1 2365 2384 2364 2366
2782 1 2308 2385 2307 2309
2783 1 2366 2385 2365 2367
2784 1 2385 2386 2308 2366
2785 1 2505 2487 2490 2506
2786 1 2505 2490 2487 2506
2787 1 2506 2505 2507 2515
2788 1 2505 2506 2487 2490
2789 1 2507 2506 1855 2508
2790 1 2515 2506 1740 2516
2791 1 1855 2507 1739 1856
2792 1 2506 2507 2505 2515
2793 1 2507 2508 1855 2506
2794 1 1740 2515 1739 1741
2795 1 2506 2515 2505 2507
2796 1 2515 2516 1740 2506
2797 1 2418 2417 2419 2478
2798 1 2419 2418 2420 2479
2799 1 2418 2419 2417 2478
2800 1 2420 2419 2421 2461
2801 1 2479 2419 2450 2480
2802 1 2419 2420 2418 2479
2803 1 2461 2420 2449 2462
2804 1 2420 2421 2419 2461
2805 1 2448 2447 2449 2460
2806 1 2449 2448 2450 2461
2807 1 2448 2449 2447 2460
2808 1 2450 2449 2451 2479
2809 1 2461 2449 2420 2462
2810 1 2449 2450 2448 2461
2811 1 2479 2450 2419 2480
2812 1 2450 2451 2449 2479
2813 1 2448 2460 2447 2449
2814 1 2420 2461 2419 2421
2815 1 2449 2461 2448 2450
2816 1 2461 2462 2420 2449
2817 1 2418 2478 2417 2419
2818 1 2419 2479 2418 2420
2819 1 2450 2479 2449 2451
2820 1 2479 2480 2419 2450
2821 1 2147 2146 2148 2154
2822 1 2148 2147 2149 2155
2823 1 2147 2148 2146 2154
2824 1 2149 2148 2150 3112
2825 1 2155 2148 2156 3061
2826 1 2148 2149 2147 2155
2827 1 3112 2149 3060 3113
2828 1 2149 2150 2148 3112
2829 1 2147 2154 2146 2148
2830 1 2148 2155 2147 2149
2831 1 3061 2155 3060 3062
2832 1 2155 2156 2148 3061
2833 1 2289 2288 2290 2393
2834 1 2290 2289 2291 2394
2835 1 2289 2290 2288 2393
2836 1 2291 2290 2292 2370
2837 1 2394 2290 2333 2395
2838 1 2290 2291 2289 2394
2839 1 2370 2291 2332 2371
2840 1 2291 2292 2290 2370
2841 1 2321 2320 2322 2405
2842 1 2322 2321 2323 2406
2843 1 2321 2322 2320 2405
2844 1 2323 2322 2324 2388
2845 1 2406 2322 2355 2407
2846 1 2322 2323 2321 2406
2847 1 2388 2323 2354 2389
2848 1 2323 2324 2322 2388
2849 1 2289 2393 2288 2290
2850 1 2290 2394 2289 2291
2851 1 2333 2394 2332 2334
2852 1 2394 2395 2290 2333
2853 1 2321 2405 2320 2322
2854 1 2322 2406 2321 2323
2855 1 2355 2406 2354 2356
2856 1 2406 2407 2322 2355
2857 1 2497 2481 2491 2498
2858 1 2537 2484 2496 2538
2859 1 2497 2491 2481 2498
2860 1 2537 2496 2484 2538
2861 1 2498 2497 2499 2517
2862 1 2497 2498 2481 2491
2863 1 2499 2498 1825 2500
2864 1 2517 2498 1771 2518
2865 1 1825 2499 1770 1826
2866 1 2498 2499 2497 2517
2867 1 2499 2500 1825 2498
2868 1 1771 2517 1770 1772
2869 1 2498 2517 2497 2499
2870 1 2517 2518 1771 2498
2871 1 2538 2537 2539 2543
2872 1 2537 2538 2484 2496
2873 1 2539 2538 562 2540
2874 1 2543 2538 529 2544
2875 1 562 2539 528 563
2876 1 2538 2539 2537 2543
2877 1 2539 2540 562 2538
2878 1 529 2543 528 530
2879 1 2538 2543 2537 2539
2880 1 2543 2544 529 2538
2881 1 1762 1761 1763 1821
2882 1 1763 1762 1764 1822
2883 1 1762 1763 1761 1821
2884 1 1764 1763 1765 2519
2885 1 1822 1763 1823 2503
2886 1 1763 1764 1762 1822
2887 1 2519 1764 2502 2520
2888 1 1764 1765 1763 2519
2889 1 1793 1792 1794 1842
2890 1 1794 1793 1795 1843
2891 1 1793 1794 1792 1842
2892 1 1795 1794 2576 1796
2893 1 1843 1794 2568 1844
2894 1 1794 1795 1793 1843
2895 1 2576 1795 2567 2577
2896 1 1795 1796 2576 1794
2897 1 1805 1804 1806 1836
2898 1 1806 1805 1807 1837
2899 1 1805 1806 1804 1836
2900 1 1807 1806 1808 421
2901 1 1837 1806 1838 415
2902 1 421 1807 414 422
2903 1 1806 1807 1805 1837
2904 1 1807 1808 1806 421
2905 1 1762 1821 1761 1763
2906 1 1763 1822 1762 1764
2907 1 2503 1822 2502 2504
2908 1 1822 1823 1763 2503
2909 1 1805 1836 1804 1806
2910 1 415 1837 414 416
2911 1 1806 1837 1805 1807
2912 1 1837 1838 1806 415
2913 1 1793 1842 1792 1794
2914 1 1794 1843 1793 1795
2915 1 2568 1843 2567 2569
2916 1 1843 1844 2568 1794
2917 1 1902 1901 1903 1948
2918 1 1903 1902 1904 1949
2919 1 1902 1903 1901 1948
2920 1 1904 1903 1905 1973
2921 1 1949 1903 1861 1950
2922 1 1903 1904 1902 1949
2923 1 1973 1904 1860 1974
2924 1 1904 1905 1903 1973
2925 1 1923 1922 1924 1966
2926 1 1924 1923 1925 1967
2927 1 1923 1924 1922 1966
2928 1 1925 1924 1926 1985
2929 1 1967 1924 1894 1968
2930 1 1924 1925 1923 1967
2931 1 1985 1925 1893 1986
2932 1 1925 1926 1924 1985
2933 1 1902 1948 1901 1903
2934 1 1861 1949 1860 1862
2935 1 1903 1949 1902 1904
2936 1 1949 1950 1861 1903
2937 1 1923 1966 1922 1924
2938 1 1894 1967 1893 1895
2939 1 1924 1967 1923 1925
2940 1 1967 1968 1894 1924
2941 1 1999 1998 2000 2051
2942 1 2000 1999 2001 2052
2943 1 1999 2000 1998 2051
2944 1 2001 2000 2002 2034
2945 1 2052 2000 2031 2053
2946 1 2000 2001 1999 2052
2947 1 2034 2001 2030 2035
2948 1 2001 2002 2000 2034
2949 1 2029 2028 2030 2033
2950 1 2030 2029 2031 2034
2951 1 2029 2030 2028 2033
2952 1 2031 2030 2032 2052
2953 1 2034 2030 2001 2035
2954 1 2030 2031 2029 2034
2955 1 2052 2031 2000 2053
2956 1 2031 2032 2030 2052
2957 1 2029 2033 2028 2030
2958 1 2001 2034 2000 2002
2959 1 2030 2034 2029 2031
2960 1 2034 2035 2001 2030
2961 1 1999 2051 1998 2000
2962 1 2000 2052 1999 2001
2963 1 2031 2052 2030 2032
2964 1 2052 2053 2000 2031
2965 1 1745 1744 1746 1851
2966 1 1746 1745 1747 1852
2967 1 1745 1746 1744 1851
2968 1 1747 1746 1748 2513
2969 1 1852 1746 1853 2511
2970 1 1746 1747 1745 1852
2971 1 2513 1747 2510 2514
2972 1 1747 1748 1746 2513
2973 1 1745 1851 1744 1746
2974 1 1746 1852 1745 1747
2975 1 2511 1852 2510 2512
2976 1 1852 1853 1746 2511
2977 1 1871 1870 1872 1975
2978 1 1872 1871 1873 1976
2979 1 1871 1872 1870 1975
2980 1 1873 1872 1874 1955
2981 1 1976 1872 1919 1977
2982 1 1872 1873 1871 1976
2983 1 1955 1873 1918 1956
2984 1 1873 1874 1872 1955
2985 1 1887 1886 1888 1990
2986 1 1888 1887 1889 1991
2987 1 1887 1888 1886 1990
2988 1 1889 1888 1890 1958
2989 1 1991 1888 1937 1992
2990 1 1888 1889 1887 1991
2991 1 1958 1889 1936 1959
2992 1 1889 1890 1888 1958
2993 1 1871 1975 1870 1872
2994 1 1872 1976 1871 1873
2995 1 1919 1976 1918 1920
2996 1 1976 1977 1872 1919
2997 1 1887 1990 1886 1888
2998 1 1888 1991 1887 1889
2999 1 1937 1991 1936 1938
3000 1 1991 1992 1888 1937
3001 1 2109 2059 2071 2110
3002 1 2101 2062 2069 2102
3003 1 2101 2069 2062 2102
3004 1 2109 2071 2059 2110
3005 1 2102 2101 2103 2105
3006 1 2101 2102 2062 2069
3007 1 2103 2102 2694 2104
3008 1 2105 2102 2631 2106
3009 1 2102 2103 2101 2105
3010 1 2694 2103 2630 2695
3011 1 2103 2104 2694 2102
3012 1 2102 2105 2101 2103
3013 1 2631 2105 2630 2632
3014 1 2105 2106 2631 2102
3015 1 2110 2109 2111 2117
3016 1 2109 2110 2059 2071
3017 1 2111 2110 141 2112
3018 1 2117 2110 111 2118
3019 1 141 2111 110 142
3020 1 2110 2111 2109 2117
3021 1 2111 2112 141 2110
3022 1 111 2117 110 112
3023 1 2110 2117 2109 2111
3024 1 2117 2118 111 2110
3025 1 1703 1702 1704 1707
3026 1 1704 1703 1705 1708
3027 1 1703 1704 1702 1707
3028 1 1705 1704 1706 132
3029 1 1708 1704 1709 123
3030 1 132 1705 122 133
3031 1 1704 1705 1703 1708
3032 1 1705 1706 1704 132
3033 1 1703 1707 1702 1704
3034 1 123 1708 122 124
3035 1 1704 1708 1703 1705
3036 1 1708 1709 1704 123
3037 1 1859 1858 1860 1972
3038 1 1860 1859 1861 1973
3039 1 1859 1860 1858 1972
3040 1 1861 1860 1862 1949
3041 1 1973 1860 1904 1974
3042 1 1860 1861 1859 1973
3043 1 1949 1861 1903 1950
3044 1 1861 1862 1860 1949
3045 1 1882 1881 1883 1987
3046 1 1883 1882 1884 1988
3047 1 1882 1883 1881 1987
3048 1 1884 1883 1885 1961
3049 1 1988 1883 1943 1989
3050 1 1883 1884 1882 1988
3051 1 1961 1884 1942 1962
3052 1 1884 1885 1883 1961
3053 1 1859 1972 1858 1860
3054 1 1860 1973 1859 1861
3055 1 1904 1973 1903 1905
3056 1 1973 1974 1860 1904
3057 1 1882 1987 1881 1883
3058 1 1883 1988 1882 1884
3059 1 1943 1988 1942 1944
3060 1 1988 1989 1883 1943
3061 1 2077 2058 2068 2078
3062 1 2097 2061 2070 2098
3063 1 2077 2068 2058 2078
3064 1 2097 2070 2061 2098
3065 1 2078 2077 2079 2095
3066 1 2077 2078 2058 2068
3067 1 2079 2078 2246 2080
3068 1 2095 2078 2188 2096
3069 1 2078 2079 2077 2095
3070 1 2246 2079 2187 2247
3071 1 2079 2080 2246 2078
3072 1 2078 2095 2077 2079
3073 1 2188 2095 2187 2189
3074 1 2095 2096 2188 2078
3075 1 2098 2097 2099 2107
3076 1 2097 2098 2061 2070
3077 1 2099 2098 2697 2100
3078 1 2107 2098 2625 2108
3079 1 2098 2099 2097 2107
3080 1 2697 2099 2624 2698
3081 1 2099 2100 2697 2098
3082 1 2098 2107 2097 2099
3083 1 2625 2107 2624 2626
3084 1 2107 2108 2625 2098
3085 1 2004 2003 2005 2045
3086 1 2005 2004 2006 2046
3087 1 2004 2005 2003 2045
3088 1 2006 2005 2007 2043
3089 1 2046 2005 2021 2047
3090 1 2005 2006 2004 2046
3091 1 2043 2006 2020 2044
3092 1 2006 2007 2005 2043
3093 1 2019 2018 2020 2042
3094 1 2020 2019 2021 2043
3095 1 2019 2020 2018 2042
3096 1 2021 2020 2022 2046
3097 1 2043 2020 2006 2044
3098 1 2020 2021 2019 2043
3099 1 2046 2021 2005 2047
3100 1 2021 2022 2020 2046
3101 1 2019 2042 2018 2020
3102 1 2006 2043 2005 2007
3103 1 2020 2043 2019 2021
3104 1 2043 2044 2006 2020
3105 1 2004 2045 2003 2005
3106 1 2005 2046 2004 2006
3107 1 2021 2046 2020 2022
3108 1 2046 2047 2005 2021
3109 1 1787 1786 1788 1839
3110 1 1788 1787 1789 1840
3111 1 1787 1788 1786 1839
3112 1 1789 1788 2579 1790
3113 1 1840 1788 2573 1841
3114 1 1788 1789 1787 1840
3115 1 2579 1789 2572 2580
3116 1 1789 1790 2579 1788
3117 1 1817 1816 1818 1827
3118 1 1818 1817 1819 1828
3119 1 1817 1818 1816 1827
3120 1 1819 1818 12 1820
3121 1 1828 1818 9 1829
3122 1 12 1819 8 13
3123 1 1818 1819 1817 1828
3124 1 1819 1820 12 1818
3125 1 1817 1827 1816 1818
3126 1 9 1828 8 10
3127 1 1818 1828 1817 1819
3128 1 1828 1829 9 1818
3129 1 1787 1839 1786 1788
3130 1 1788 1840 1787 1789
3131 1 2573 1840 2572 2574
3132 1 1840 1841 2573 1788
3133 1 1917 1916 1918 1954
3134 1 1918 1917 1919 1955
3135 1 1917 1918 1916 1954
3136 1 1919 1918 1920 1976
3137 1 1955 1918 1873 1956
3138 1 1918 1919 1917 1955
3139 1 1976 1919 1872 1977
3140 1 1919 1920 1918 1976
3141 1 1929 1928 1930 1963
3142 1 1930 1929 1931 1964
3143 1 1929 1930 1928 1963
3144 1 1931 1930 1932 1982
3145 1 1964 1930 1899 1965
3146 1 1930 1931 1929 1964
3147 1 1982 1931 1898 1983
3148 1 1931 1932 1930 1982
3149 1 1917 1954 1916 1918
3150 1 1873 1955 1872 1874
3151 1 1918 1955 1917 1919
3152 1 1955 1956 1873 1918
3153 1 1929 1963 1928 1930
3154 1 1899 1964 1898 1900
3155 1 1930 1964 1929 1931
3156 1 1964 1965 1899 1930
3157 1 2085 2064 2065 2086
3158 1 2085 2065 2064 2086
3159 1 2086 2085 2087 2089
3160 1 2085 2086 2064 2065
3161 1 2087 2086 2276 2088
3162 1 2089 2086 2171 2090
3163 1 2086 2087 2085 2089
3164 1 2276 2087 2170 2277
3165 1 2087 2088 2276 2086
3166 1 2086 2089 2085 2087
3167 1 2171 2089 2170 2172
3168 1 2089 2090 2171 2086
3169 1 2186 2185 2187 2245
3170 1 2187 2186 2188 2246
3171 1 2186 2187 2185 2245
3172 1 2188 2187 2189 2095
3173 1 2246 2187 2247 2079
3174 1 2095 2188 2078 2096
3175 1 2187 2188 2186 2246
3176 1 2188 2189 2187 2095
3177 1 2217 2216 2218 2266
3178 1 2218 2217 2219 2267
3179 1 2217 2218 2216 2266
3180 1 2219 2218 3000 2220
3181 1 2267 2218 2992 2268
3182 1 2218 2219 2217 2267
3183 1 3000 2219 2991 3001
3184 1 2219 2220 3000 2218
3185 1 2229 2228 2230 2260
3186 1 2230 2229 2231 2261
3187 1 2229 2230 2228 2260
3188 1 2231 2230 2232 845
3189 1 2261 2230 2262 839
3190 1 845 2231 838 846
3191 1 2230 2231 2229 2261
3192 1 2231 2232 2230 845
3193 1 2186 2245 2185 2187
3194 1 2079 2246 2078 2080
3195 1 2187 2246 2186 2188
3196 1 2246 2247 2187 2079
3197 1 2229 2260 2228 2230
3198 1 839 2261 838 840
3199 1 2230 2261 2229 2231
3200 1 2261 2262 2230 839
3201 1 2217 2266 2216 2218
3202 1 2218 2267 2217 2219
3203 1 2992 2267 2991 2993
3204 1 2267 2268 2992 2218
3205 1 2326 2325 2327 2372
3206 1 2327 2326 2328 2373
3207 1 2326 2327 2325 2372
3208 1 2328 2327 2329 2397
3209 1 2373 2327 2285 2374
3210 1 2327 2328 2326 2373
3211 1 2397 2328 2284 2398
3212 1 2328 2329 2327 2397
3213 1 2347 2346 2348 2390
3214 1 2348 2347 2349 2391
3215 1 2347 2348 2346 2390
3216 1 2349 2348 2350 2409
3217 1 2391 2348 2318 2392
3218 1 2348 2349 2347 2391
3219 1 2409 2349 2317 2410
3220 1 2349 2350 2348 2409
3221 1 2326 2372 2325 2327
3222 1 2285 2373 2284 2286
3223 1 2327 2373 2326 2328
3224 1 2373 2374 2285 2327
3225 1 2347 2390 2346 2348
3226 1 2318 2391 2317 2319
3227 1 2348 2391 2347 2349
3228 1 2391 2392 2318 2348
3229 1 2423 2422 2424 2475
3230 1 2424 2423 2425 2476
3231 1 2423 2424 2422 2475
3232 1 2425 2424 2426 2458
3233 1 2476 2424 2455 2477
3234 1 2424 2425 2423 2476
3235 1 2458 2425 2454 2459
3236 1 2425 2426 2424 2458
3237 1 2453 2452 2454 2457
3238 1 2454 2453 2455 2458
3239 1 2453 2454 2452 2457
3240 1 2455 2454 2456 2476
3241 1 2458 2454 2425 2459
3242 1 2454 2455 2453 2458
3243 1 2476 2455 2424 2477
3244 1 2455 2456 2454 2476
3245 1 2453 2457 2452 2454
3246 1 2425 2458 2424 2426
3247 1 2454 2458 2453 2455
3248 1 2458 2459 2425 2454
3249 1 2423 2475 2422 2424
3250 1 2424 2476 2423 2425
3251 1 2455 2476 2454 2456
3252 1 2476 2477 2424 2455
3253 1 2169 2168 2170 2275
3254 1 2170 2169 2171 2276
3255 1 2169 2170 2168 2275
3256 1 2171 2170 2172 2089
3257 1 2276 2170 2277 2087
3258 1 2089 2171 2086 2090
3259 1 2170 2171 2169 2276
3260 1 2171 2172 2170 2089
3261 1 2169 2275 2168 2170
3262 1 2087 2276 2086 2088
3263 1 2170 2276 2169 2171
3264 1 2276 2277 2170 2087
3265 1 2295 2294 2296 2399
3266 1 2296 2295 2297 2400
3267 1 2295 2296 2294 2399
3268 1 2297 2296 2298 2379
3269 1 2400 2296 2343 2401
3270 1 2296 2297 2295 2400
3271 1 2379 2297 2342 2380
3272 1 2297 2298 2296 2379
3273 1 2311 2310 2312 2414
3274 1 2312 2311 2313 2415
3275 1 2311 2312 2310 2414
3276 1 2313 2312 2314 2382
3277 1 2415 2312 2361 2416
3278 1 2312 2313 2311 2415
3279 1 2382 2313 2360 2383
3280 1 2313 2314 2312 2382
3281 1 2295 2399 2294 2296
3282 1 2296 2400 2295 2297
3283 1 2343 2400 2342 2344
3284 1 2400 2401 2296 2343
3285 1 2311 2414 2310 2312
3286 1 2312 2415 2311 2313
3287 1 2361 2415 2360 2362
3288 1 2415 2416 2312 2361
3289 1 2533 2483 2495 2534
3290 1 2525 2486 2493 2526
3291 1 2525 2493 2486 2526
3292 1 2533 2495 2483 2534
3293 1 2526 2525 2527 2529
3294 1 2525 2526 2486 2493
3295 1 2527 2526 3118 2528
3296 1 2529 2526 3055 2530
3297 1 2526 2527 2525 2529
3298 1 3118 2527 3054 3119
3299 1 2527 2528 3118 2526
3300 1 2526 2529 2525 2527
3301 1 3055 2529 3054 3056
3302 1 2529 2530 3055 2526
3303 1 2534 2533 2535 2541
3304 1 2533 2534 2483 2495
3305 1 2535 2534 565 2536
3306 1 2541 2534 535 2542
3307 1 565 2535 534 566
3308 1 2534 2535 2533 2541
3309 1 2535 2536 565 2534
3310 1 535 2541 534 536
3311 1 2534 2541 2533 2535
3312 1 2541 2542 535 2534
3313 1 2127 2126 2128 2131
3314 1 2128 2127 2129 2132
3315 1 2127 2128 2126 2131
3316 1 2129 2128 2130 556
3317 1 2132 2128 2133 547
3318 1 556 2129 546 557
3319 1 2128 2129 2127 2132
3320 1 2129 2130 2128 556
3321 1 2127 2131 2126 2128
3322 1 547 2132 546 548
3323 1 2128 2132 2127 2129
3324 1 2132 2133 2128 547
3325 1 2283 2282 2284 2396
3326 1 2284 2283 2285 2397
3327 1 2283 2284 2282 2396
3328 1 2285 2284 2286 2373
3329 1 2397 2284 2328 2398
3330 1 2284 2285 2283 2397
3331 1 2373 2285 2327 2374
3332 1 2285 2286 2284 2373
3333 1 2306 2305 2307 2411
3334 1 2307 2306 2308 2412
3335 1 2306 2307 2305 2411
3336 1 2308 2307 2309 2385
3337 1 2412 2307 2367 2413
3338 1 2307 2308 2306 2412
3339 1 2385 2308 2366 2386
3340 1 2308 2309 2307 2385
3341 1 2283 2396 2282 2284
3342 1 2284 2397 2283 2285
3343 1 2328 2397 2327 2329
3344 1 2397 2398 2284 2328
3345 1 2306 2411 2305 2307
3346 1 2307 2412 2306 2308
3347 1 2367 2412 2366 2368
3348 1 2412 2413 2307 2367
3349 1 2501 2482 2492 2502
3350 1 2521 2485 2494 2522
3351 1 2501 2492 2482 2502
3352 1 2521 2494 2485 2522
3353 1 2502 2501 2503 2519
3354 1 2501 2502 2482 2492
3355 1 2503 2502 1822 2504
3356 1 2519 2502 1764 2520
3357 1 1822 2503 1763 1823
3358 1 2502 2503 2501 2519
3359 1 2503 2504 1822 2502
3360 1 1764 2519 1763 1765
3361 1 2502 2519 2501 2503
3362 1 2519 2520 1764 2502
3363 1 2522 2521 2523 2531
3364 1 2521 2522 2485 2494
3365 1 2523 2522 3121 2524
3366 1 2531 2522 3049 2532
3367 1 2522 2523 2521 2531
3368 1 3121 2523 3048 3122
3369 1 2523 2524 3121 2522
3370 1 2522 2531 2521 2523
3371 1 3049 2531 3048 3050
3372 1 2531 2532 3049 2522
3373 1 2428 2427 2429 2469
3374 1 2429 2428 2430 2470
3375 1 2428 2429 2427 2469
3376 1 2430 2429 2431 2467
3377 1 2470 2429 2445 2471
3378 1 2429 2430 2428 2470
3379 1 2467 2430 2444 2468
3380 1 2430 2431 2429 2467
3381 1 2443 2442 2444 2466
3382 1 2444 2443 2445 2467
3383 1 2443 2444 2442 2466
3384 1 2445 2444 2446 2470
3385 1 2467 2444 2430 2468
3386 1 2444 2445 2443 2467
3387 1 2470 2445 2429 2471
3388 1 2445 2446 2444 2470
3389 1 2443 2466 2442 2444
3390 1 2430 2467 2429 2431
3391 1 2444 2467 2443 2445
3392 1 2467 2468 2430 2444
3393 1 2428 2469 2427 2429
3394 1 2429 2470 2428 2430
3395 1 2445 2470 2444 2446
3396 1 2470 2471 2429 2445
3397 1 2211 2210 2212 2263
3398 1 2212 2211 2213 2264
3399 1 2211 2212 2210 2263
3400 1 2213 2212 3003 2214
3401 1 2264 2212 2997 2265
3402 1 2212 2213 2211 2264
3403 1 3003 2213 2996 3004
3404 1 2213 2214 3003 2212
3405 1 2241 2240 2242 2251
3406 1 2242 2241 2243 2252
3407 1 2241 2242 2240 2251
3408 1 2243 2242 436 2244
3409 1 2252 2242 433 2253
3410 1 436 2243 432 437
3411 1 2242 2243 2241 2252
3412 1 2243 2244 436 2242
3413 1 2241 2251 2240 2242
3414 1 433 2252 432 434
3415 1 2242 2252 2241 2243
3416 1 2252 2253 433 2242
3417 1 2211 2263 2210 2212
3418 1 2212 2264 2211 2213
3419 1 2997 2264 2996 2998
3420 1 2264 2265 2997 2212
3421 1 2341 2340 2342 2378
3422 1 2342 2341 2343 2379
3423 1 2341 2342 2340 2378
3424 1 2343 2342 2344 2400
3425 1 2379 2342 2297 2380
3426 1 2342 2343 2341 2379
3427 1 2400 2343 2296 2401
3428 1 2343 2344 2342 2400
3429 1 2353 2352 2354 2387
3430 1 2354 2353 2355 2388
3431 1 2353 2354 2352 2387
3432 1 2355 2354 2356 2406
3433 1 2388 2354 2323 2389
3434 1 2354 2355 2353 2388
3435 1 2406 2355 2322 2407
3436 1 2355 2356 2354 2406
3437 1 2341 2378 2340 2342
3438 1 2297 2379 2296 2298
3439 1 2342 2379 2341 2343
3440 1 2379 2380 2297 2342
3441 1 2353 2387 2352 2354
3442 1 2323 2388 2322 2324
3443 1 2354 2388 2353 2355
3444 1 2388 2389 2323 2354
3445 1 2509 2488 2489 2510
3446 1 2509 2489 2488 2510
3447 1 2510 2509 2511 2513
3448 1 2509 2510 2488 2489
3449 1 2511 2510 1852 2512
3450 1 2513 2510 1747 2514
3451 1 1852 2511 1746 1853
3452 1 2510 2511 2509 2513
3453 1 2511 2512 1852 2510
3454 1 1747 2513 1746 1748
3455 1 2510 2513 2509 2511
3456 1 2513 2514 1747 2510
3457 1 2546 2545 2547 2558
3458 1 2547 2546 2548 2559
3459 1 2546 2547 2545 2558
3460 1 2548 2547 2549 983
3461 1 2559 2547 2560 965
3462 1 983 2548 964 984
3463 1 2547 2548 2546 2559
3464 1 2548 2549 2547 983
3465 1 2546 2558 2545 2547
3466 1 965 2559 964 966
3467 1 2547 2559 2546 2548
3468 1 2559 2560 2547 965
3469 1 2566 2565 2567 2575
3470 1 2567 2566 2568 2576
3471 1 2566 2567 2565 2575
3472 1 2568 2567 2569 1843
3473 1 2576 2567 2577 1795
3474 1 1843 2568 1794 1844
3475 1 2567 2568 2566 2576
3476 1 2568 2569 2567 1843
3477 1 2566 2575 2565 2567
3478 1 1795 2576 1794 1796
3479 1 2567 2576 2566 2568
3480 1 2576 2577 2567 1795
3481 1 2586 2585 2587 2702
3482 1 2587 2586 2588 2703
3483 1 2586 2587 2585 2702
3484 1 2588 2587 2589 3363
3485 1 2703 2587 2704 3355
3486 1 2587 2588 2586 2703
3487 1 3363 2588 3354 3364
3488 1 2588 2589 2587 3363
3489 1 2586 2702 2585 2587
3490 1 2587 2703 2586 2588
3491 1 3355 2703 3354 3356
3492 1 2703 2704 2587 3355
3493 1 2725 2724 2726 2826
3494 1 2726 2725 2727 2827
3495 1 2725 2726 2724 2826
3496 1 2727 2726 2728 2800
3497 1 2827 2726 2762 2828
3498 1 2726 2727 2725 2827
3499 1 2800 2727 2761 2801
3500 1 2727 2728 2726 2800
3501 1 2740 2739 2741 2832
3502 1 2741 2740 2742 2833
3503 1 2740 2741 2739 2832
3504 1 2742 2741 2743 2815
3505 1 2833 2741 2773 2834
3506 1 2741 2742 2740 2833
3507 1 2815 2742 2772 2816
3508 1 2742 2743 2741 2815
3509 1 2725 2826 2724 2726
3510 1 2726 2827 2725 2727
3511 1 2762 2827 2761 2763
3512 1 2827 2828 2726 2762
3513 1 2740 2832 2739 2741
3514 1 2741 2833 2740 2742
3515 1 2773 2833 2772 2774
3516 1 2833 2834 2741 2773
3517 1 2857 2856 2858 2896
3518 1 2858 2857 2859 2897
3519 1 2857 2858 2856 2896
3520 1 2859 2858 2860 2888
3521 1 2897 2858 2864 2898
3522 1 2858 2859 2857 2897
3523 1 2888 2859 2863 2889
3524 1 2859 2860 2858 2888
3525 1 2862 2861 2863 2887
3526 1 2863 2862 2864 2888
3527 1 2862 2863 2861 2887
3528 1 2864 2863 2865 2897
3529 1 2888 2863 2859 2889
3530 1 2863 2864 2862 2888
3531 1 2897 2864 2858 2898
3532 1 2864 2865 2863 2897
3533 1 2862 2887 2861 2863
3534 1 2859 2888 2858 2860
3535 1 2863 2888 2862 2864
3536 1 2888 2889 2859 2863
3537 1 2857 2896 2856 2858
3538 1 2858 2897 2857 2859
3539 1 2864 2897 2863 2865
3540 1 2897 2898 2858 2864
3541 1 2617 2616 2618 2672
3542 1 2618 2617 2619 2673
3543 1 2617 2618 2616 2672
3544 1 2619 2618 2620 3365
3545 1 2673 2618 2674 3347
3546 1 2618 2619 2617 2673
3547 1 3365 2619 3346 3366
3548 1 2619 2620 2618 3365
3549 1 2629 2628 2630 2693
3550 1 2630 2629 2631 2694
3551 1 2629 2630 2628 2693
3552 1 2631 2630 2632 2105
3553 1 2694 2630 2695 2103
3554 1 2105 2631 2102 2106
3555 1 2630 2631 2629 2694
3556 1 2631 2632 2630 2105
3557 1 2659 2658 2660 2678
3558 1 2660 2659 2661 2679
3559 1 2659 2660 2658 2678
3560 1 2661 2660 863 2662
3561 1 2679 2660 852 2680
3562 1 863 2661 851 864
3563 1 2660 2661 2659 2679
3564 1 2661 2662 863 2660
3565 1 2617 2672 2616 2618
3566 1 2618 2673 2617 2619
3567 1 3347 2673 3346 3348
3568 1 2673 2674 2618 3347
3569 1 2659 2678 2658 2660
3570 1 852 2679 851 853
3571 1 2660 2679 2659 2661
3572 1 2679 2680 852 2660
3573 1 2629 2693 2628 2630
3574 1 2103 2694 2102 2104
3575 1 2630 2694 2629 2631
3576 1 2694 2695 2630 2103
3577 1 2755 2754 2756 2793
3578 1 2756 2755 2757 2794
3579 1 2755 2756 2754 2793
3580 1 2757 2756 2758 2818
3581 1 2794 2756 2715 2795
3582 1 2756 2757 2755 2794
3583 1 2818 2757 2714 2819
3584 1 2757 2758 2756 2818
3585 1 2783 2782 2784 2805
3586 1 2784 2783 2785 2806
3587 1 2783 2784 2782 2805
3588 1 2785 2784 2786 2839
3589 1 2806 2784 2737 2807
3590 1 2784 2785 2783 2806
3591 1 2839 2785 2736 2840
3592 1 2785 2786 2784 2839
3593 1 2755 2793 2754 2756
3594 1 2715 2794 2714 2716
3595 1 2756 2794 2755 2757
3596 1 2794 2795 2715 2756
3597 1 2783 2805 2782 2784
3598 1 2737 2806 2736 2738
3599 1 2784 2806 2783 2785
3600 1 2806 2807 2737 2784
3601 1 2623 2622 2624 2696
3602 1 2624 2623 2625 2697
3603 1 2623 2624 2622 2696
3604 1 2625 2624 2626 2107
3605 1 2697 2624 2698 2099
3606 1 2107 2625 2098 2108
3607 1 2624 2625 2623 2697
3608 1 2625 2626 2624 2107
3609 1 2647 2646 2648 2681
3610 1 2648 2647 2649 2682
3611 1 2647 2648 2646 2681
3612 1 2649 2648 2650 1271
3613 1 2682 2648 2683 1267
3614 1 1271 2649 1266 1272
3615 1 2648 2649 2647 2682
3616 1 2649 2650 2648 1271
3617 1 2647 2681 2646 2648
3618 1 1267 2682 1266 1268
3619 1 2648 2682 2647 2649
3620 1 2682 2683 2648 1267
3621 1 2623 2696 2622 2624
3622 1 2099 2697 2098 2100
3623 1 2624 2697 2623 2625
3624 1 2697 2698 2624 2099
3625 1 2760 2759 2761 2799
3626 1 2761 2760 2762 2800
3627 1 2760 2761 2759 2799
3628 1 2762 2761 2763 2827
3629 1 2800 2761 2727 2801
3630 1 2761 2762 2760 2800
3631 1 2827 2762 2726 2828
3632 1 2762 2763 2761 2827
3633 1 2789 2788 2790 2808
3634 1 2790 2789 2791 2809
3635 1 2789 2790 2788 2808
3636 1 2791 2790 2792 2836
3637 1 2809 2790 2732 2810
3638 1 2790 2791 2789 2809
3639 1 2836 2791 2731 2837
3640 1 2791 2792 2790 2836
3641 1 2760 2799 2759 2761
3642 1 2727 2800 2726 2728
3643 1 2761 2800 2760 2762
3644 1 2800 2801 2727 2761
3645 1 2789 2808 2788 2790
3646 1 2732 2809 2731 2733
3647 1 2790 2809 2789 2791
3648 1 2809 2810 2732 2790
3649 1 2929 2911 2914 2930
3650 1 2929 2914 2911 2930
3651 1 2930 2929 2931 2939
3652 1 2929 2930 2911 2914
3653 1 2931 2930 3127 2932
3654 1 2939 2930 3012 2940
3655 1 2930 2931 2929 2939
3656 1 3127 2931 3011 3128
3657 1 2931 2932 3127 2930
3658 1 2930 2939 2929 2931
3659 1 3012 2939 3011 3013
3660 1 2939 2940 3012 2930
3661 1 2842 2841 2843 2902
3662 1 2843 2842 2844 2903
3663 1 2842 2843 2841 2902
3664 1 2844 2843 2845 2885
3665 1 2903 2843 2874 2904
3666 1 2843 2844 2842 2903
3667 1 2885 2844 2873 2886
3668 1 2844 2845 2843 2885
3669 1 2872 2871 2873 2884
3670 1 2873 2872 2874 2885
3671 1 2872 2873 2871 2884
3672 1 2874 2873 2875 2903
3673 1 2885 2873 2844 2886
3674 1 2873 2874 2872 2885
3675 1 2903 2874 2843 2904
3676 1 2874 2875 2873 2903
3677 1 2872 2884 2871 2873
3678 1 2844 2885 2843 2845
3679 1 2873 2885 2872 2874
3680 1 2885 2886 2844 2873
3681 1 2842 2902 2841 2843
3682 1 2843 2903 2842 2844
3683 1 2874 2903 2873 2875
3684 1 2903 2904 2843 2874
3685 1 2571 2570 2572 2578
3686 1 2572 2571 2573 2579
3687 1 2571 2572 2570 2578
3688 1 2573 2572 2574 1840
3689 1 2579 2572 2580 1789
3690 1 1840 2573 1788 1841
3691 1 2572 2573 2571 2579
3692 1 2573 2574 2572 1840
3693 1 2571 2578 2570 2572
3694 1 1789 2579 1788 1790
3695 1 2572 2579 2571 2573
3696 1 2579 2580 2572 1789
3697 1 2713 2712 2714 2817
3698 1 2714 2713 2715 2818
3699 1 2713 2714 2712 2817
3700 1 2715 2714 2716 2794
3701 1 2818 2714 2757 2819
3702 1 2714 2715 2713 2818
3703 1 2794 2715 2756 2795
3704 1 2715 2716 2714 2794
3705 1 2745 2744 2746 2829
3706 1 2746 2745 2747 2830
3707 1 2745 2746 2744 2829
3708 1 2747 2746 2748 2812
3709 1 2830 2746 2779 2831
3710 1 2746 2747 2745 2830
3711 1 2812 2747 2778 2813
3712 1 2747 2748 2746 2812
3713 1 2713 2817 2712 2714
3714 1 2714 2818 2713 2715
3715 1 2757 2818 2756 2758
3716 1 2818 2819 2714 2757
3717 1 2745 2829 2744 2746
3718 1 2746 2830 2745 2747
3719 1 2779 2830 2778 2780
3720 1 2830 2831 2746 2779
3721 1 2921 2905 2915 2922
3722 1 2961 2908 2920 2962
3723 1 2921 2915 2905 2922
3724 1 2961 2920 2908 2962
3725 1 2922 2921 2923 2941
3726 1 2921 2922 2905 2915
3727 1 2923 2922 3097 2924
3728 1 2941 2922 3043 2942
3729 1 2922 2923 2921 2941
3730 1 3097 2923 3042 3098
3731 1 2923 2924 3097 2922
3732 1 2922 2941 2921 2923
3733 1 3043 2941 3042 3044
3734 1 2941 2942 3043 2922
3735 1 2962 2961 2963 2967
3736 1 2961 2962 2908 2920
3737 1 2963 2962 986 2964
3738 1 2967 2962 953 2968
3739 1 986 2963 952 987
3740 1 2962 2963 2961 2967
3741 1 2963 2964 986 2962
3742 1 953 2967 952 954
3743 1 2962 2967 2961 2963
3744 1 2967 2968 953 2962
3745 1 2970 2969 2971 2982
3746 1 2971 2970 2972 2983
3747 1 2970 2971 2969 2982
3748 1 2972 2971 2973 1407
3749 1 2983 2971 2984 1389
3750 1 1407 2972 1388 1408
3751 1 2971 2972 2970 2983
3752 1 2972 2973 2971 1407
3753 1 2970 2982 2969 2971
3754 1 1389 2983 1388 1390
3755 1 2971 2983 2970 2972
3756 1 2983 2984 2971 1389
3757 1 2990 2989 2991 2999
3758 1 2991 2990 2992 3000
3759 1 2990 2991 2989 2999
3760 1 2992 2991 2993 2267
3761 1 3000 2991 3001 2219
3762 1 2267 2992 2218 2268
3763 1 2991 2992 2990 3000
3764 1 2992 2993 2991 2267
3765 1 2990 2999 2989 2991
3766 1 2219 3000 2218 2220
3767 1 2991 3000 2990 2992
3768 1 3000 3001 2991 2219
3769 1 3010 3009 3011 3126
3770 1 3011 3010 3012 3127
3771 1 3010 3011 3009 3126
3772 1 3012 3011 3013 2939
3773 1 3127 3011 3128 2931
3774 1 2939 3012 2930 2940
3775 1 3011 3012 3010 3127
3776 1 3012 3013 3011 2939
3777 1 3010 3126 3009 3011
3778 1 2931 3127 2930 2932
3779 1 3011 3127 3010 3012
3780 1 3127 3128 3011 2931
3781 1 3149 3148 3150 3250
3782 1 3150 3149 3151 3251
3783 1 3149 3150 3148 3250
3784 1 3151 3150 3152 3224
3785 1 3251 3150 3186 3252
3786 1 3150 3151 3149 3251
3787 1 3224 3151 3185 3225
3788 1 3151 3152 3150 3224
3789 1 3164 3163 3165 3256
3790 1 3165 3164 3166 3257
3791 1 3164 3165 3163 3256
3792 1 3166 3165 3167 3239
3793 1 3257 3165 3197 3258
3794 1 3165 3166 3164 3257
3795 1 3239 3166 3196 3240
3796 1 3166 3167 3165 3239
3797 1 3149 3250 3148 3150
3798 1 3150 3251 3149 3151
3799 1 3186 3251 3185 3187
3800 1 3251 3252 3150 3186
3801 1 3164 3256 3163 3165
3802 1 3165 3257 3164 3166
3803 1 3197 3257 3196 3198
3804 1 3257 3258 3165 3197
3805 1 3281 3280 3282 3320
3806 1 3282 3281 3283 3321
3807 1 3281 3282 3280 3320
3808 1 3283 3282 3284 3312
3809 1 3321 3282 3288 3322
3810 1 3282 3283 3281 3321
3811 1 3312 3283 3287 3313
3812 1 3283 3284 3282 3312
3813 1 3286 3285 3287 3311
3814 1 3287 3286 3288 3312
3815 1 3286 3287 3285 3311
3816 1 3288 3287 3289 3321
3817 1 3312 3287 3283 3313
3818 1 3287 3288 3286 3312
3819 1 3321 3288 3282 3322
3820 1 3288 3289 3287 3321
3821 1 3286 3311 3285 3287
3822 1 3283 3312 3282 3284
3823 1 3287 3312 3286 3288
3824 1 3312 3313 3283 3287
3825 1 3281 3320 3280 3282
3826 1 3282 3321 3281 3283
3827 1 3288 3321 3287 3289
3828 1 3321 3322 3282 3288
3829 1 3041 3040 3042 3096
3830 1 3042 3041 3043 3097
3831 1 3041 3042 3040 3096
3832 1 3043 3042 3044 2941
3833 1 3097 3042 3098 2923
3834 1 2941 3043 2922 2942
3835 1 3042 3043 3041 3097
3836 1 3043 3044 3042 2941
3837 1 3053 3052 3054 3117
3838 1 3054 3053 3055 3118
3839 1 3053 3054 3052 3117
3840 1 3055 3054 3056 2529
3841 1 3118 3054 3119 2527
3842 1 2529 3055 2526 2530
3843 1 3054 3055 3053 3118
3844 1 3055 3056 3054 2529
3845 1 3083 3082 3084 3102
3846 1 3084 3083 3085 3103
3847 1 3083 3084 3082 3102
3848 1 3085 3084 1287 3086
3849 1 3103 3084 1276 3104
3850 1 1287 3085 1275 1288
3851 1 3084 3085 3083 3103
3852 1 3085 3086 1287 3084
3853 1 3041 3096 3040 3042
3854 1 2923 3097 2922 2924
3855 1 3042 3097 3041 3043
3856 1 3097 3098 3042 2923
3857 1 3083 3102 3082 3084
3858 1 1276 3103 1275 1277
3859 1 3084 3103 3083 3085
3860 1 3103 3104 1276 3084
3861 1 3053 3117 3052 3054
3862 1 2527 3118 2526 2528
3863 1 3054 3118 3053 3055
3864 1 3118 3119 3054 2527
3865 1 3179 3178 3180 3217
3866 1 3180 3179 3181 3218
3867 1 3179 3180 3178 3217
3868 1 3181 3180 3182 3242
3869 1 3218 3180 3139 3219
3870 1 3180 3181 3179 3218
3871 1 3242 3181 3138 3243
3872 1 3181 3182 3180 3242
3873 1 3207 3206 3208 3229
3874 1 3208 3207 3209 3230
3875 1 3207 3208 3206 3229
3876 1 3209 3208 3210 3263
3877 1 3230 3208 3161 3231
3878 1 3208 3209 3207 3230
3879 1 3263 3209 3160 3264
3880 1 3209 3210 3208 3263
3881 1 3179 3217 3178 3180
3882 1 3139 3218 3138 3140
3883 1 3180 3218 3179 3181
3884 1 3218 3219 3139 3180
3885 1 3207 3229 3206 3208
3886 1 3161 3230 3160 3162
3887 1 3208 3230 3207 3209
3888 1 3230 3231 3161 3208
3889 1 3047 3046 3048 3120
3890 1 3048 3047 3049 3121
3891 1 3047 3048 3046 3120
3892 1 3049 3048 3050 2531
3893 1 3121 3048 3122 2523
3894 1 2531 3049 2522 2532
3895 1 3048 3049 3047 3121
3896 1 3049 3050 3048 2531
3897 1 3071 3070 3072 3105
3898 1 3072 3071 3073 3106
3899 1 3071 3072 3070 3105
3900 1 3073 3072 3074 1695
3901 1 3106 3072 3107 1691
3902 1 1695 3073 1690 1696
3903 1 3072 3073 3071 3106
3904 1 3073 3074 3072 1695
3905 1 3071 3105 3070 3072
3906 1 1691 3106 1690 1692
3907 1 3072 3106 3071 3073
3908 1 3106 3107 3072 1691
3909 1 3047 3120 3046 3048
3910 1 2523 3121 2522 2524
3911 1 3048 3121 3047 3049
3912 1 3121 3122 3048 2523
3913 1 3184 3183 3185 3223
3914 1 3185 3184 3186 3224
3915 1 3184 3185 3183 3223
3916 1 3186 3185 3187 3251
3917 1 3224 3185 3151 3225
3918 1 3185 3186 3184 3224
3919 1 3251 3186 3150 3252
3920 1 3186 3187 3185 3251
3921 1 3213 3212 3214 3232
3922 1 3214 3213 3215 3233
3923 1 3213 3214 3212 3232
3924 1 3215 3214 3216 3260
3925 1 3233 3214 3156 3234
3926 1 3214 3215 3213 3233
3927 1 3260 3215 3155 3261
3928 1 3215 3216 3214 3260
3929 1 3184 3223 3183 3185
3930 1 3151 3224 3150 3152
3931 1 3185 3224 3184 3186
3932 1 3224 3225 3151 3185
3933 1 3213 3232 3212 3214
3934 1 3156 3233 3155 3157
3935 1 3214 3233 3213 3215
3936 1 3233 3234 3156 3214
3937 1 3353 3335 3338 3354
3938 1 3353 3338 3335 3354
3939 1 3354 3353 3355 3363
3940 1 3353 3354 3335 3338
3941 1 3355 3354 2703 3356
3942 1 3363 3354 2588 3364
3943 1 2703 3355 2587 2704
3944 1 3354 3355 3353 3363
3945 1 3355 3356 2703 3354
3946 1 2588 3363 2587 2589
3947 1 3354 3363 3353 3355
3948 1 3363 3364 2588 3354
3949 1 3266 3265 3267 3326
3950 1 3267 3266 3268 3327
3951 1 3266 3267 3265 3326
3952 1 3268 3267 3269 3309
3953 1 3327 3267 3298 3328
3954 1 3267 3268 3266 3327
3955 1 3309 3268 3297 3310
3956 1 3268 3269 3267 3309
3957 1 3296 3295 3297 3308
3958 1 3297 3296 3298 3309
3959 1 3296 3297 3295 3308
3960 1 3298 3297 3299 3327
3961 1 3309 3297 3268 3310
3962 1 3297 3298 3296 3309
3963 1 3327 3298 3267 3328
3964 1 3298 3299 3297 3327
3965 1 3296 3308 3295 3297
3966 1 3268 3309 3267 3269
3967 1 3297 3309 3296 3298
3968 1 3309 3310 3268 3297
3969 1 3266 3326 3265 3267
3970 1 3267 3327 3266 3268
3971 1 3298 3327 3297 3299
3972 1 3327 3328 3267 3298
3973 1 2995 2994 2996 3002
3974 1 2996 2995 2997 3003
3975 1 2995 2996 2994 3002
3976 1 2997 2996 2998 2264
3977 1 3003 2996 3004 2213
3978 1 2264 2997 2212 2265
3979 1 2996 2997 2995 3003
3980 1 2997 2998 2996 2264
3981 1 2995 3002 2994 2996
3982 1 2213 3003 2212 2214
3983 1 2996 3003 2995 2997
3984 1 3003 3004 2996 2213
3985 1 3137 3136 3138 3241
3986 1 3138 3137 3139 3242
3987 1 3137 3138 3136 3241
3988 1 3139 3138 3140 3218
3989 1 3242 3138 3181 3243
3990 1 3138 3139 3137 3242
3991 1 3218 3139 3180 3219
3992 1 3139 3140 3138 3218
3993 1 3169 3168 3170 3253
3994 1 3170 3169 3171 3254
3995 1 3169 3170 3168 3253
3996 1 3171 3170 3172 3236
3997 1 3254 3170 3203 3255
3998 1 3170 3171 3169 3254
3999 1 3236 3171 3202 3237
4000 1 3171 3172 3170 3236
4001 1 3137 3241 3136 3138
4002 1 3138 3242 3137 3139
4003 1 3181 3242 3180 3182
4004 1 3242 3243 3138 3181
4005 1 3169 3253 3168 3170
4006 1 3170 3254 3169 3171
4007 1 3203 3254 3202 3204
4008 1 3254 3255 3170 3203
4009 1 3345 3329 3339 3346
4010 1 3385 3332 3344 3386
4011 1 3345 3339 3329 3346
4012 1 3385 3344 3332 3386
4013 1 3346 3345 3347 3365
4014 1 3345 3346 3329 3339
4015 1 3347 3346 2673 3348
4016 1 3365 3346 2619 3366
4017 1 2673 3347 2618 2674
4018 1 3346 3347 3345 3365
4019 1 3347 3348 2673 3346
4020 1 2619 3365 2618 2620
4021 1 3346 3365 3345 3347
4022 1 3365 3366 2619 3346
4023 1 3386 3385 3387 3391
4024 1 3385 3386 3332 3344
4025 1 3387 3386 1410 3388
4026 1 3391 3386 1377 3392
4027 1 1410 3387 1376 1411
4028 1 3386 3387 3385 3391
4029 1 3387 3388 1410 3386
4030 1 1377 3391 1376 1378
4031 1 3386 3391 3385 3387
4032 1 3391 3392 1377 3386
4033 1 2610 2609 2611 2669
4034 1 2611 2610 2612 2670
4035 1 2610 2611 2609 2669
4036 1 2612 2611 2613 3367
4037 1 2670 2611 2671 3351
4038 1 2611 2612 2610 2670
4039 1 3367 2612 3350 3368
4040 1 2612 2613 2611 3367
4041 1 2641 2640 2642 2690
4042 1 2642 2641 2643 2691
4043 1 2641 2642 2640 2690
4044 1 2643 2642 1728 2644
4045 1 2691 2642 1720 2692
4046 1 1728 2643 1719 1729
4047 1 2642 2643 2641 2691
4048 1 2643 2644 1728 2642
4049 1 2653 2652 2654 2684
4050 1 2654 2653 2655 2685
4051 1 2653 2654 2652 2684
4052 1 2655 2654 2656 1269
4053 1 2685 2654 2686 1263
4054 1 1269 2655 1262 1270
4055 1 2654 2655 2653 2685
4056 1 2655 2656 2654 1269
4057 1 2610 2669 2609 2611
4058 1 2611 2670 2610 2612
4059 1 3351 2670 3350 3352
4060 1 2670 2671 2611 3351
4061 1 2653 2684 2652 2654
4062 1 1263 2685 1262 1264
4063 1 2654 2685 2653 2655
4064 1 2685 2686 2654 1263
4065 1 2641 2690 2640 2642
4066 1 1720 2691 1719 1721
4067 1 2642 2691 2641 2643
4068 1 2691 2692 1720 2642
4069 1 2750 2749 2751 2796
4070 1 2751 2750 2752 2797
4071 1 2750 2751 2749 2796
4072 1 2752 2751 2753 2821
4073 1 2797 2751 2709 2798
4074 1 2751 2752 2750 2797
4075 1 2821 2752 2708 2822
4076 1 2752 2753 2751 2821
4077 1 2771 2770 2772 2814
4078 1 2772 2771 2773 2815
4079 1 2771 2772 2770 2814
4080 1 2773 2772 2774 2833
4081 1 2815 2772 2742 2816
4082 1 2772 2773 2771 2815
4083 1 2833 2773 2741 2834
4084 1 2773 2774 2772 2833
4085 1 2750 2796 2749 2751
4086 1 2709 2797 2708 2710
4087 1 2751 2797 2750 2752
4088 1 2797 2798 2709 2751
4089 1 2771 2814 2770 2772
4090 1 2742 2815 2741 2743
4091 1 2772 2815 2771 2773
4092 1 2815 2816 2742 2772
4093 1 2847 2846 2848 2899
4094 1 2848 2847 2849 2900
4095 1 2847 2848 2846 2899
4096 1 2849 2848 2850 2882
4097 1 2900 2848 2879 2901
4098 1 2848 2849 2847 2900
4099 1 2882 2849 2878 2883
4100 1 2849 2850 2848 2882
4101 1 2877 2876 2878 2881
4102 1 2878 2877 2879 2882
4103 1 2877 2878 2876 2881
4104 1 2879 2878 2880 2900
4105 1 2882 2878 2849 2883
4106 1 2878 2879 2877 2882
4107 1 2900 2879 2848 2901
4108 1 2879 2880 2878 2900
4109 1 2877 2881 2876 2878
4110 1 2849 2882 2848 2850
4111 1 2878 2882 2877 2879
4112 1 2882 2883 2849 2878
4113 1 2847 2899 2846 2848
4114 1 2848 2900 2847 2849
4115 1 2879 2900 2878 2880
4116 1 2900 2901 2848 2879
4117 1 2593 2592 2594 2699
4118 1 2594 2593 2595 2700
4119 1 2593 2594 2592 2699
4120 1 2595 2594 2596 3361
4121 1 2700 2594 2701 3359
4122 1 2594 2595 2593 2700
4123 1 3361 2595 3358 3362
4124 1 2595 2596 2594 3361
4125 1 2593 2699 2592 2594
4126 1 2594 2700 2593 2595
4127 1 3359 2700 3358 3360
4128 1 2700 2701 2594 3359
4129 1 2719 2718 2720 2823
4130 1 2720 2719 2721 2824
4131 1 2719 2720 2718 2823
4132 1 2721 2720 2722 2803
4133 1 2824 2720 2767 2825
4134 1 2720 2721 2719 2824
4135 1 2803 2721 2766 2804
4136 1 2721 2722 2720 2803
4137 1 2735 2734 2736 2838
4138 1 2736 2735 2737 2839
4139 1 2735 2736 2734 2838
4140 1 2737 2736 2738 2806
4141 1 2839 2736 2785 2840
4142 1 2736 2737 2735 2839
4143 1 2806 2737 2784 2807
4144 1 2737 2738 2736 2806
4145 1 2719 2823 2718 2720
4146 1 2720 2824 2719 2721
4147 1 2767 2824 2766 2768
4148 1 2824 2825 2720 2767
4149 1 2735 2838 2734 2736
4150 1 2736 2839 2735 2737
4151 1 2785 2839 2784 2786
4152 1 2839 2840 2736 2785
4153 1 2957 2907 2919 2958
4154 1 2949 2910 2917 2950
4155 1 2949 2917 2910 2950
4156 1 2957 2919 2907 2958
4157 1 2950 2949 2951 2953
4158 1 2949 2950 2910 2917
4159 1 2951 2950 1846 2952
4160 1 2953 2950 1783 2954
4161 1 1846 2951 1782 1847
4162 1 2950 2951 2949 2953
4163 1 2951 2952 1846 2950
4164 1 1783 2953 1782 1784
4165 1 2950 2953 2949 2951
4166 1 2953 2954 1783 2950
4167 1 2958 2957 2959 2965
4168 1 2957 2958 2907 2919
4169 1 2959 2958 989 2960
4170 1 2965 2958 959 2966
4171 1 989 2959 958 990
4172 1 2958 2959 2957 2965
4173 1 2959 2960 989 2958
4174 1 959 2965 958 960
4175 1 2958 2965 2957 2959
4176 1 2965 2966 959 2958
4177 1 2551 2550 2552 2555
4178 1 2552 2551 2553 2556
4179 1 2551 2552 2550 2555
4180 1 2553 2552 2554 980
4181 1 2556 2552 2557 971
4182 1 980 2553 970 981
4183 1 2552 2553 2551 2556
4184 1 2553 2554 2552 980
4185 1 2551 2555 2550 2552
4186 1 971 2556 970 972
4187 1 2552 2556 2551 2553
4188 1 2556 2557 2552 971
4189 1 2707 2706 2708 2820
4190 1 2708 2707 2709 2821
4191 1 2707 2708 2706 2820
4192 1 2709 2708 2710 2797
4193 1 2821 2708 2752 2822
4194 1 2708 2709 2707 2821
4195 1 2797 2709 2751 2798
4196 1 2709 2710 2708 2797
4197 1 2730 2729 2731 2835
4198 1 2731 2730 2732 2836
4199 1 2730 2731 2729 2835
4200 1 2732 2731 2733 2809
4201 1 2836 2731 2791 2837
4202 1 2731 2732 2730 2836
4203 1 2809 2732 2790 2810
4204 1 2732 2733 2731 2809
4205 1 2707 2820 2706 2708
4206 1 2708 2821 2707 2709
4207 1 2752 2821 2751 2753
4208 1 2821 2822 2708 2752
4209 1 2730 2835 2729 2731
4210 1 2731 2836 2730 2732
4211 1 2791 2836 2790 2792
4212 1 2836 2837 2731 2791
4213 1 2925 2906 2916 2926
4214 1 2945 2909 2918 2946
4215 1 2925 2916 2906 2926
4216 1 2945 2918 2909 2946
4217 1 2926 2925 2927 2943
4218 1 2925 2926 2906 2916
4219 1 2927 2926 3094 2928
4220 1 2943 2926 3036 2944
4221 1 2926 2927 2925 2943
4222 1 3094 2927 3035 3095
4223 1 2927 2928 3094 2926
4224 1 2926 2943 2925 2927
4225 1 3036 2943 3035 3037
4226 1 2943 2944 3036 2926
4227 1 2946 2945 2947 2955
4228 1 2945 2946 2909 2918
4229 1 2947 2946 1849 2948
4230 1 2955 2946 1777 2956
4231 1 1849 2947 1776 1850
4232 1 2946 2947 2945 2955
4233 1 2947 2948 1849 2946
4234 1 1777 2955 1776 1778
4235 1 2946 2955 2945 2947
4236 1 2955 2956 1777 2946
4237 1 2852 2851 2853 2893
4238 1 2853 2852 2854 2894
4239 1 2852 2853 2851 2893
4240 1 2854 2853 2855 2891
4241 1 2894 2853 2869 2895
4242 1 2853 2854 2852 2894
4243 1 2891 2854 2868 2892
4244 1 2854 2855 2853 2891
4245 1 2867 2866 2868 2890
4246 1 2868 2867 2869 2891
4247 1 2867 2868 2866 2890
4248 1 2869 2868 2870 2894
4249 1 2891 2868 2854 2892
4250 1 2868 2869 2867 2891
4251 1 2894 2869 2853 2895
4252 1 2869 2870 2868 2894
4253 1 2867 2890 2866 2868
4254 1 2854 2891 2853 2855
4255 1 2868 2891 2867 2869
4256 1 2891 2892 2854 2868
4257 1 2852 2893 2851 2853
4258 1 2853 2894 2852 2854
4259 1 2869 2894 2868 2870
4260 1 2894 2895 2853 2869
4261 1 2635 2634 2636 2687
4262 1 2636 2635 2637 2688
4263 1 2635 2636 2634 2687
4264 1 2637 2636 1731 2638
4265 1 2688 2636 1725 2689
4266 1 1731 2637 1724 1732
4267 1 2636 2637 2635 2688
4268 1 2637 2638 1731 2636
4269 1 2665 2664 2666 2675
4270 1 2666 2665 2667 2676
4271 1 2665 2666 2664 2675
4272 1 2667 2666 860 2668
4273 1 2676 2666 857 2677
4274 1 860 2667 856 861
4275 1 2666 2667 2665 2676
4276 1 2667 2668 860 2666
4277 1 2665 2675 2664 2666
4278 1 857 2676 856 858
4279 1 2666 2676 2665 2667
4280 1 2676 2677 857 2666
4281 1 2635 2687 2634 2636
4282 1 1725 2688 1724 1726
4283 1 2636 2688 2635 2637
4284 1 2688 2689 1725 2636
4285 1 2765 2764 2766 2802
4286 1 2766 2765 2767 2803
4287 1 2765 2766 2764 2802
4288 1 2767 2766 2768 2824
4289 1 2803 2766 2721 2804
4290 1 2766 2767 2765 2803
4291 1 2824 2767 2720 2825
4292 1 2767 2768 2766 2824
4293 1 2777 2776 2778 2811
4294 1 2778 2777 2779 2812
4295 1 2777 2778 2776 2811
4296 1 2779 2778 2780 2830
4297 1 2812 2778 2747 2813
4298 1 2778 2779 2777 2812
4299 1 2830 2779 2746 2831
4300 1 2779 2780 2778 2830
4301 1 2765 2802 2764 2766
4302 1 2721 2803 2720 2722
4303 1 2766 2803 2765 2767
4304 1 2803 2804 2721 2766
4305 1 2777 2811 2776 2778
4306 1 2747 2812 2746 2748
4307 1 2778 2812 2777 2779
4308 1 2812 2813 2747 2778
4309 1 2933 2912 2913 2934
4310 1 2933 2913 2912 2934
4311 1 2934 2933 2935 2937
4312 1 2933 2934 2912 2913
4313 1 2935 2934 3124 2936
4314 1 2937 2934 3019 2938
4315 1 2934 2935 2933 2937
4316 1 3124 2935 3018 3125
4317 1 2935 2936 3124 2934
4318 1 2934 2937 2933 2935
4319 1 3019 2937 3018 3020
4320 1 2937 2938 3019 2934
4321 1 3034 3033 3035 3093
4322 1 3035 3034 3036 3094
4323 1 3034 3035 3033 3093
4324 1 3036 3035 3037 2943
4325 1 3094 3035 3095 2927
4326 1 2943 3036 2926 2944
4327 1 3035 3036 3034 3094
4328 1 3036 3037 3035 2943
4329 1 3065 3064 3066 3114
4330 1 3066 3065 3067 3115
4331 1 3065 3066 3064 3114
4332 1 3067 3066 2152 3068
4333 1 3115 3066 2144 3116
4334 1 2152 3067 2143 2153
4335 1 3066 3067 3065 3115
4336 1 3067 3068 2152 3066
4337 1 3077 3076 3078 3108
4338 1 3078 3077 3079 3109
4339 1 3077 3078 3076 3108
4340 1 3079 3078 3080 1693
4341 1 3109 3078 3110 1687
4342 1 1693 3079 1686 1694
4343 1 3078 3079 3077 3109
4344 1 3079 3080 3078 1693
4345 1 3034 3093 3033 3035
4346 1 2927 3094 2926 2928
4347 1 3035 3094 3034 3036
4348 1 3094 3095 3035 2927
4349 1 3077 3108 3076 3078
4350 1 1687 3109 1686 1688
4351 1 3078 3109 3077 3079
4352 1 3109 3110 3078 1687
4353 1 3065 3114 3064 3066
4354 1 2144 3115 2143 2145
4355 1 3066 3115 3065 3067
4356 1 3115 3116 2144 3066
4357 1 3174 3173 3175 3220
4358 1 3175 3174 3176 3221
4359 1 3174 3175 3173 3220
4360 1 3176 3175 3177 3245
4361 1 3221 3175 3133 3222
4362 1 3175 3176 3174 3221
4363 1 3245 3176 3132 3246
4364 1 3176 3177 3175 3245
4365 1 3195 3194 3196 3238
4366 1 3196 3195 3197 3239
4367 1 3195 3196 3194 3238
4368 1 3197 3196 3198 3257
4369 1 3239 3196 3166 3240
4370 1 3196 3197 3195 3239
4371 1 3257 3197 3165 3258
4372 1 3197 3198 3196 3257
4373 1 3174 3220 3173 3175
4374 1 3133 3221 3132 3134
4375 1 3175 3221 3174 3176
4376 1 3221 3222 3133 3175
4377 1 3195 3238 3194 3196
4378 1 3166 3239 3165 3167
4379 1 3196 3239 3195 3197
4380 1 3239 3240 3166 3196
4381 1 3271 3270 3272 3323
4382 1 3272 3271 3273 3324
4383 1 3271 3272 3270 3323
4384 1 3273 3272 3274 3306
4385 1 3324 3272 3303 3325
4386 1 3272 3273 3271 3324
4387 1 3306 3273 3302 3307
4388 1 3273 3274 3272 3306
4389 1 3301 3300 3302 3305
4390 1 3302 3301 3303 3306
4391 1 3301 3302 3300 3305
4392 1 3303 3302 3304 3324
4393 1 3306 3302 3273 3307
4394 1 3302 3303 3301 3306
4395 1 3324 3303 3272 3325
4396 1 3303 3304 3302 3324
4397 1 3301 3305 3300 3302
4398 1 3273 3306 3272 3274
4399 1 3302 3306 3301 3303
4400 1 3306 3307 3273 3302
4401 1 3271 3323 3270 3272
4402 1 3272 3324 3271 3273
4403 1 3303 3324 3302 3304
4404 1 3324 3325 3272 3303
4405 1 3017 3016 3018 3123
4406 1 3018 3017 3019 3124
4407 1 3017 3018 3016 3123
4408 1 3019 3018 3020 2937
4409 1 3124 3018 3125 2935
4410 1 2937 3019 2934 2938
4411 1 3018 3019 3017 3124
4412 1 3019 3020 3018 2937
4413 1 3017 3123 3016 3018
4414 1 2935 3124 2934 2936
4415 1 3018 3124 3017 3019
4416 1 3124 3125 3018 2935
4417 1 3143 3142 3144 3247
4418 1 3144 3143 3145 3248
4419 1 3143 3144 3142 3247
4420 1 3145 3144 3146 3227
4421 1 3248 3144 3191 3249
4422 1 3144 3145 3143 3248
4423 1 3227 3145 3190 3228
4424 1 3145 3146 3144 3227
4425 1 3159 3158 3160 3262
4426 1 3160 3159 3161 3263
4427 1 3159 3160 3158 3262
4428 1 3161 3160 3162 3230
4429 1 3263 3160 3209 3264
4430 1 3160 3161 3159 3263
4431 1 3230 3161 3208 3231
4432 1 3161 3162 3160 3230
4433 1 3143 3247 3142 3144
4434 1 3144 3248 3143 3145
4435 1 3191 3248 3190 3192
4436 1 3248 3249 3144 3191
4437 1 3159 3262 3158 3160
4438 1 3160 3263 3159 3161
4439 1 3209 3263 3208 3210
4440 1 3263 3264 3160 3209
4441 1 3381 3331 3343 3382
4442 1 3373 3334 3341 3374
4443 1 3373 3341 3334 3374
4444 1 3381 3343 3331 3382
4445 1 3374 3373 3375 3377
4446 1 3373 3374 3334 3341
4447 1 3375 3374 2270 3376
4448 1 3377 3374 2207 3378
4449 1 2270 3375 2206 2271
4450 1 3374 3375 3373 3377
4451 1 3375 3376 2270 3374
4452 1 2207 3377 2206 2208
4453 1 3374 3377 3373 3375
4454 1 3377 3378 2207 3374
4455 1 3382 3381 3383 3389
4456 1 3381 3382 3331 3343
4457 1 3383 3382 1413 3384
4458 1 3389 3382 1383 3390
4459 1 1413 3383 1382 1414
4460 1 3382 3383 3381 3389
4461 1 3383 3384 1413 3382
4462 1 1383 3389 1382 1384
4463 1 3382 3389 3381 3383
4464 1 3389 3390 1383 3382
4465 1 2975 2974 2976 2979
4466 1 2976 2975 2977 2980
4467 1 2975 2976 2974 2979
4468 1 2977 2976 2978 1404
4469 1 2980 2976 2981 1395
4470 1 1404 2977 1394 1405
4471 1 2976 2977 2975 2980
4472 1 2977 2978 2976 1404
4473 1 2975 2979 2974 2976
4474 1 1395 2980 1394 1396
4475 1 2976 2980 2975 2977
4476 1 2980 2981 2976 1395
4477 1 3131 3130 3132 3244
4478 1 3132 3131 3133 3245
4479 1 3131 3132 3130 3244
4480 1 3133 3132 3134 3221
4481 1 3245 3132 3176 3246
4482 1 3132 3133 3131 3245
4483 1 3221 3133 3175 3222
4484 1 3133 3134 3132 3221
4485 1 3154 3153 3155 3259
4486 1 3155 3154 3156 3260
4487 1 3154 3155 3153 3259
4488 1 3156 3155 3157 3233
4489 1 3260 3155 3215 3261
4490 1 3155 3156 3154 3260
4491 1 3233 3156 3214 3234
4492 1 3156 3157 3155 3233
4493 1 3131 3244 3130 3132
4494 1 3132 3245 3131 3133
4495 1 3176 3245 3175 3177
4496 1 3245 3246 3132 3176
4497 1 3154 3259 3153 3155
4498 1 3155 3260 3154 3156
4499 1 3215 3260 3214 3216
4500 1 3260 3261 3155 3215
4501 1 3349 3330 3340 3350
4502 1 3369 3333 3342 3370
4503 1 3349 3340 3330 3350
4504 1 3369 3342 3333 3370
4505 1 3350 3349 3351 3367
4506 1 3349 3350 3330 3340
4507 1 3351 3350 2670 3352
4508 1 3367 3350 2612 3368
4509 1 2670 3351 2611 2671
4510 1 3350 3351 3349 3367
4511 1 3351 3352 2670 3350
4512 1 2612 3367 2611 2613
4513 1 3350 3367 3349 3351
4514 1 3367 3368 2612 3350
4515 1 3370 3369 3371 3379
4516 1 3369 3370 3333 3342
4517 1 3371 3370 2273 3372
4518 1 3379 3370 2201 3380
4519 1 2273 3371 2200 2274
4520 1 3370 3371 3369 3379
4521 1 3371 3372 2273 3370
4522 1 2201 3379 2200 2202
4523 1 3370 3379 3369 3371
4524 1 3379 3380 2201 3370
4525 1 3276 3275 3277 3317
4526 1 3277 3276 3278 3318
4527 1 3276 3277 3275 3317
4528 1 3278 3277 3279 3315
4529 1 3318 3277 3293 3319
4530 1 3277 3278 3276 3318
4531 1 3315 3278 3292 3316
4532 1 3278 3279 3277 3315
4533 1 3291 3290 3292 3314
4534 1 3292 3291 3293 3315
4535 1 3291 3292 3290 3314
4536 1 3293 3292 3294 3318
4537 1 3315 3292 3278 3316
4538 1 3292 3293 3291 3315
4539 1 3318 3293 3277 3319
4540 1 3293 3294 3292 3318
4541 1 3291 3314 3290 3292
4542 1 3278 3315 3277 3279
4543 1 3292 3315 3291 3293
4544 1 3315 3316 3278 3292
4545 1 3276 3317 3275 3277
4546 1 3277 3318 3276 3278
4547 1 3293 3318 3292 3294
4548 1 3318 3319 3277 3293
4549 1 3059 3058 3060 3111
4550 1 3060 3059 3061 3112
4551 1 3059 3060 3058 3111
4552 1 3061 3060 2155 3062
4553 1 3112 3060 2149 3113
4554 1 2155 3061 2148 2156
4555 1 3060 3061 3059 3112
4556 1 3061 3062 2155 3060
4557 1 3089 3088 3090 3099
4558 1 3090 3089 3091 3100
4559 1 3089 3090 3088 3099
4560 1 3091 3090 1284 3092
4561 1 3100 3090 1281 3101
4562 1 1284 3091 1280 1285
4563 1 3090 3091 3089 3100
4564 1 3091 3092 1284 3090
4565 1 3089 3099 3088 3090
4566 1 1281 3100 1280 1282
4567 1 3090 3100 3089 3091
4568 1 3100 3101 1281 3090
4569 1 3059 3111 3058 3060
4570 1 2149 3112 2148 2150
4571 1 3060 3112 3059 3061
4572 1 3112 3113 2149 3060
4573 1 3189 3188 3190 3226
4574 1 3190 3189 3191 3227
4575 1 3189 3190 3188 3226
4576 1 3191 3190 3192 3248
4577 1 3227 3190 3145 3228
4578 1 3190 3191 3189 3227
4579 1 3248 3191 3144 3249
4580 1 3191 3192 3190 3248
4581 1 3201 3200 3202 3235
4582 1 3202 3201 3203 3236
4583 1 3201 3202 3200 3235
4584 1 3203 3202 3204 3254
4585 1 3236 3202 3171 3237
4586 1 3202 3203 3201 3236
4587 1 3254 3203 3170 3255
4588 1 3203 3204 3202 3254
4589 1 3189 3226 3188 3190
4590 1 3145 3227 3144 3146
4591 1 3190 3227 3189 3191
4592 1 3227 3228 3145 3190
4593 1 3201 3235 3200 3202
4594 1 3171 3236 3170 3172
4595 1 3202 3236 3201 3203
4596 1 3236 3237 3171 3202
4597 1 3357 3336 3337 3358
4598 1 3357 3337 3336 3358
4599 1 3358 3357 3359 3361
4600 1 3357 3358 3336 3337
4601 1 3359 3358 2700 3360
4602 1 3361 3358 2595 3362
4603 1 2700 3359 2594 2701
4604 1 3358 3359 3357 3361
4605 1 3359 3360 2700 3358
4606 1 2595 3361 2594 2596
4607 1 3358 3361 3357 3359
4608 1 3361 3362 2595 3358
