Generated using phonoLAMMPS
1.0
       16.6259307200         0.0000000000         0.0000000000
        0.0000000000        14.0198807100         0.0000000000
        0.0000000000         0.0000000000         6.9330280770
V O C H 
4 20 32 16
Direct
0.742302464015079   0.743430515964782   0.236899730357172
0.742302026746326   0.743429084426211   0.736899674465288
0.242302442362156   0.243429059247680   0.236898493812345
0.242301998176497   0.243430753270653   0.736898603216200
0.654814122189485   0.652317754849142   0.324374651021625
0.154814413481449   0.152317600782211   0.824374103425400
0.829795476255900   0.652328137605102   0.649423978526317
0.329795079887113   0.152327652508250   0.149423172745648
0.154992961079775   0.334759603742734   0.649243246242229
0.654992544682034   0.834759165365252   0.149243961297750
0.329619698848354   0.334744312029171   0.324553820640758
0.829619975103565   0.834744184495989   0.824554227894266
0.329795367269520   0.334531763715699   0.649423414414942
0.829795237472275   0.834531757581552   0.149423813591171
0.154813865241464   0.334541907953224   0.324374289996114
0.654814626221419   0.834542030850133   0.824374548252677
0.829619357393786   0.652115294068005   0.324554115172957
0.329620113922861   0.152115369888907   0.824553734026368
0.654992808125932   0.652100381601606   0.649243868481163
0.154992683381036   0.152100314197324   0.149243381320292
0.742301752475966   0.674608801503847   0.986899787943842
0.242301779602267   0.174608767908696   0.486898934997635
0.242301781526971   0.312250851740664   0.986898952666682
0.742301792774462   0.812250920357510   0.486899808353394
0.524874611831656   0.524871880097473   0.312287563089873
0.024874970127387   0.024871030589532   0.812287146028242
0.959812679286805   0.524997072817462   0.661519110129517
0.459811814914143   0.024996211255210   0.161518626286100
0.025076388625779   0.462214331280141   0.661465026979149
0.525075562205879   0.962213461657906   0.161465645828510
0.459613079453515   0.462086038676430   0.312340277429977
0.959613417058675   0.962085193804762   0.812340683529587
0.459812270046558   0.461862906606714   0.661518735834192
0.959812670264754   0.961862649828495   0.161519148280236
0.024874288300896   0.461987651462692   0.312287011238654
0.524874671196753   0.961988005388671   0.812287635136314
0.959612757847460   0.524773472983423   0.312340745479430
0.459613103993495   0.024773821702510   0.812340072973860
0.525075985340086   0.524645660412327   0.661465559502594
0.025076414729581   0.024645395003507   0.161465147345025
0.558298854441516   0.557239955574486   0.486852740896523
0.627090037579562   0.624737382804736   0.486818327939104
0.058299176769335   0.057239554358519   0.986852570624603
0.127090136401098   0.124737139008082   0.986816235851802
0.926369026756055   0.557336483000646   0.486952102530768
0.857537528581738   0.624773566636146   0.486982673732507
0.426369037522370   0.057336111242847   0.986951984039975
0.357537100335036   0.124773889106793   0.986981083878856
0.058298813000226   0.429619914077001   0.486852565936897
0.127090242620715   0.362122154390285   0.486816405546774
0.558298847765197   0.929619480335792   0.986852599904739
0.627089781353305   0.862122555106961   0.986818257479271
0.426369078061453   0.429523321386377   0.486952088828242
0.357537344411598   0.362085943240526   0.486980692058720
0.926369415907202   0.929522891782151   0.986952132892682
0.857537463021498   0.862085729543985   0.986983039301486
0.548823182032362   0.548251706629535   0.174936913067401
0.048823638247423   0.048250472524884   0.674936418694674
0.935882421384227   0.548404971200358   0.798868610005198
0.435880650475849   0.048402968686885   0.298868258571456
0.049203301022777   0.439031125108624   0.798773454613835
0.549201535407336   0.939029145990501   0.298773821913660
0.435501895379003   0.438879430736611   0.175033582083098
0.935502337399371   0.938878226018800   0.675034052800938
0.435881559958768   0.438455461009411   0.798868269461358
0.935881911337592   0.938455536259695   0.298868752583591
0.048822371190537   0.438607429064209   0.174936435931009
0.548823647028886   0.938608682355900   0.674936792268813
0.935501020179879   0.547979626639776   0.175033912530339
0.435502297221169   0.047980857534700   0.675033615185517
0.549202391058682   0.547829372008972   0.798773944010381
0.049202753324116   0.047829425718416   0.298773442425798
