Generated using phonoLAMMPS
1.0
       16.6259307200         0.0000000000         0.0000000000
        0.0000000000        14.0198807100         0.0000000000
        0.0000000000         0.0000000000         6.9330280770
V O C H 
4 20 32 16
Direct
0.742328159418675   0.743429739923943   0.236901253068443
0.742328169643666   0.743429739923943   0.736901253140562
0.242328169523372   0.243429739995270   0.236901253068443
0.242328159538969   0.243429739995270   0.736901253140562
0.654952328587593   0.652171774363121   0.324461928614226
0.154952328467299   0.152171774363122   0.824461928542108
0.829704000474747   0.652171774363121   0.649340577739016
0.329704000595042   0.152171774363122   0.149340577666898
0.154952328467299   0.334687705627418   0.649340577739016
0.654952328587593   0.834687705413436   0.149340577666898
0.329704000595042   0.334687705627418   0.324461928614226
0.829704000474747   0.834687705413436   0.824461928542108
0.329703988986669   0.334687702417691   0.649340580912233
0.829703989046816   0.834687702560345   0.149340580840114
0.154952340135819   0.334687702417691   0.324461925441010
0.654952340015525   0.834687702560345   0.824461925368891
0.829703989046816   0.652171777572849   0.324461925441010
0.329703988986669   0.152171777572849   0.824461925368891
0.654952340015525   0.652171777572849   0.649340580912233
0.154952340135819   0.152171777572849   0.149340580840114
0.742328164831905   0.674627959156152   0.986901253104503
0.242328164531170   0.174627959156152   0.486901253176621
0.242328164531170   0.312231520834388   0.986901253104503
0.742328164831905   0.812231520763061   0.486901253176621
0.525016120180248   0.524737115612733   0.312310483666313
0.025016120059954   0.024737115541406   0.812310483738432
0.959640208942240   0.524737115612733   0.661492022542692
0.459640209002387   0.024737115541406   0.161492022614811
0.025016120059954   0.462122364377806   0.661492022542692
0.525016120180248   0.962122364591788   0.161492022614811
0.459640209002387   0.462122364377806   0.312310483666313
0.959640208942240   0.962122364591788   0.812310483738432
0.459640209062533   0.462122366588952   0.661492057448075
0.959640208942240   0.962122366731607   0.161492057375956
0.025016119999807   0.462122366588952   0.312310448760930
0.525016120059954   0.962122366731607   0.812310448833049
0.959640208942240   0.524737113330260   0.312310448760930
0.459640209062533   0.024737113330260   0.812310448833049
0.525016120059954   0.524737113330260   0.661492057448075
0.025016119999807   0.024737113330260   0.161492057375956
0.558495219809264   0.556991600822258   0.486901273946766
0.627282306514988   0.624497417496215   0.486901262552034
0.058495219749117   0.056991600750931   0.986901273874648
0.127282306214253   0.124497417496215   0.986901262479915
0.926161109373370   0.556991600822258   0.486901232262239
0.857374023148822   0.624497417496215   0.486901243801208
0.426161109313223   0.056991600750931   0.986901232190120
0.357374022908235   0.124497417496215   0.986901243729090
0.058495219749117   0.429867879168281   0.486901232262239
0.127282306214253   0.362362062422998   0.486901243801208
0.558495219809264   0.929867879025627   0.986901232190120
0.627282306514988   0.862362062137689   0.986901243729090
0.426161109313223   0.429867879168281   0.486901273946766
0.357374022908235   0.362362062422998   0.486901262552034
0.926161109373370   0.929867879025627   0.986901273874648
0.857374023148822   0.862362062137689   0.986901262479915
0.549073439420659   0.547984634243011   0.174978854769753
0.049073439300365   0.047984634171684   0.674978854697634
0.935582889882269   0.547984634243011   0.798823651583490
0.435582889761975   0.047984634171684   0.298823651511371
0.049073439300365   0.438874845747528   0.798823651583490
0.549073439420659   0.938874845818856   0.298823651511371
0.435582889761975   0.438874845747528   0.174978854769753
0.935582889882269   0.938874845818856   0.674978854697634
0.435582888679329   0.438874848030001   0.798823685334976
0.935582888679329   0.938874847958674   0.298823685262857
0.049073440383012   0.438874848030001   0.174978821018267
0.549073440503306   0.938874847958674   0.674978820946148
0.935582888679329   0.547984631889211   0.174978821018267
0.435582888679329   0.047984631889211   0.674978820946148
0.549073440503306   0.547984631889211   0.798823685334976
0.049073440383012   0.047984631889211   0.298823685262857
