Generated using phonoLAMMPS
1.0
       16.6259307200         0.0000000000         0.0000000000
        0.0000000000        14.0198807100         0.0000000000
        0.0000000000         0.0000000000         6.9330280770
V O C H 
4 20 32 16
Direct
0.748894977351379   0.749983224357977   0.249998550957837
0.748897110765778   0.749972516706242   0.749998505018315
0.248895482165223   0.249972340456526   0.249999929431989
0.248897452521082   0.249983393688947   0.749999667425261
0.661459503543510   0.658796554054275   0.337482020700607
0.161458968415574   0.158796495565903   0.837484338663237
0.836319020220241   0.658763996359281   0.662504590633003
0.336319383327732   0.158764027315322   0.162507105623539
0.161640336367286   0.341392680366108   0.662378194779666
0.661640941807076   0.841392451476857   0.162377446838082
0.336153860263409   0.341396890458992   0.337618795857070
0.836153697746191   0.841396987178787   0.837618643037842
0.336318949607652   0.341191934435511   0.662505128493222
0.836319483352208   0.841191811395947   0.162505083851833
0.161459418615934   0.341158950916637   0.337484035693167
0.661458980264535   0.841159754775118   0.837483729117170
0.836154100731150   0.658558499603667   0.337618259583460
0.336153760720110   0.158559044829419   0.837620833999689
0.661640205607689   0.658563074678258   0.662375974970395
0.161640846774802   0.158563221541134   0.162378110184595
0.748898758192347   0.681194456183073   0.000003699970592
0.248898770462337   0.181194501547225   0.500005123951556
0.248898650769790   0.318761344154119   0.000005134552984
0.748898861645202   0.818761303140931   0.500003652011750
0.531025704947723   0.532096793211588   0.325398640816726
0.031025277543079   0.032097687227754   0.825398796809171
0.966711912294074   0.531979090141631   0.674597322707482
0.466713255557220   0.031980805776770   0.174597715393040
0.032216538672068   0.469549483991294   0.674553341636496
0.532217747927678   0.969551258756752   0.174552822743458
0.465515024472567   0.469677579589049   0.325443548034257
0.965514754653086   0.969678526601386   0.825444013126849
0.466712416626743   0.467976255769440   0.674597828258586
0.966712074089528   0.967976184014193   0.174597050459918
0.031025803288082   0.467858859050164   0.325399144492748
0.531025460149397   0.967858408404390   0.825398180051247
0.965515548593601   0.530278612477581   0.325443796987525
0.465515280638677   0.030278180662209   0.825443882015307
0.532217492603626   0.530405324183390   0.674553490921915
0.032216926259392   0.030405139802363   0.174552770673858
0.565264815201876   0.563263728012134   0.499958140296451
0.634042487457207   0.630778826648091   0.499939787998063
0.065264440726600   0.063263957472003   0.999959828664055
0.134042471578397   0.130778904180847   0.999938766294426
0.932488649273044   0.563179591918225   0.500033450102527
0.863734041230264   0.630738089853548   0.500052175253869
0.432488960654108   0.063180180011674   0.000034966827959
0.363734351769270   0.130738392423882   0.000050010615297
0.065264808585705   0.436692143581013   0.499959630698608
0.134042190812160   0.369176822118624   0.499939210905348
0.565265168204671   0.936692691731184   0.999959914629378
0.634042691957037   0.869176823402515   0.999936557591414
0.432488948023236   0.436775652779431   0.500033455150826
0.363733939762261   0.369217692937132   0.500054591802571
0.932488684158308   0.936775946362528   0.000033711243832
0.863734033411153   0.869217788801000   0.000050590015806
0.554612328554199   0.556021988934598   0.188087055543018
0.054611943432903   0.056023183595262   0.688087271538104
0.943101541445615   0.555861543204243   0.811919609942754
0.443103879660579   0.055864209560739   0.311919746318950
0.056778957875990   0.447018128016583   0.811849305741676
0.556781256393928   0.947020784601241   0.311848755404947
0.440911594151043   0.447206706867907   0.188137229290497
0.940911173242276   0.947207775493262   0.688136618374177
0.443102619280011   0.444093112116073   0.811919698504345
0.943102571763874   0.944092791071972   0.311919276394415
0.054613195994359   0.443934248638839   0.188087443396632
0.554612059155748   0.943933356762491   0.688087316684323
0.940912396632433   0.552749501889307   0.188136872592100
0.440911341112577   0.052748637331309   0.688137319078104
0.556779935144587   0.552936445491340   0.811848339929923
0.056779945550020   0.052936301766864   0.311849303794475
