Created on Tue Mar 25 16:24:33 2025 

        3392 atoms
        4096 bonds
        7296 angles
        7680 dihedrals
        4608 impropers

           5 atom types
           5 bond types
           8 angle types
           3 dihedral types
           1 improper types
           0.000000  51.664000 xlo xhi
           0.000000  51.664000 ylo yhi
           0.000000  51.664000 zlo zhi

Masses

    1    15.999400000 # O_2
    2    12.010700000 # C_R
    3     1.007940000 # H_
    4    65.380000000 # Zn3f2
    5    15.999400000 # O_3_f

Bond Coeffs

    1      714.557442        1.269010  # O_2 C_R
    2      122.127512        2.014866  # O_2 Zn3f2
    3      391.669513        1.458000  # C_R C_R
    4      462.655054        1.379256  # C_R C_R
    5      357.440381        1.081418  # C_R H_

Angle Coeffs

    1              cosine/periodic       42.206165              -1               3 # C_R O_2 Zn3f2
    2              cosine/periodic      137.714246              -1               3 # O_2 C_R C_R
    3              cosine/periodic      206.778426              -1               3 # O_2 C_R O_2
    4              cosine/periodic      102.183280              -1               3 # C_R C_R C_R
    5              cosine/periodic      111.297508              -1               3 # C_R C_R C_R
    6              cosine/periodic       57.289016              -1               3 # C_R C_R H_
    7                      fourier      131.511072        0.343737        0.374972        0.281246 # O_2 Zn3f2 O_3_f
    8                      fourier       42.532620        0.343737        0.374972        0.281246 # Zn3f2 O_3_f Zn3f2

Dihedral Coeffs

    1        6.737110              -1               2 # Zn3f2 O_2 C_R C_R
    2        1.250000              -1               2 # O_2 C_R C_R C_R
    3        3.368555              -1               2 # C_R C_R C_R H_

Improper Coeffs

    1        2.000000        1.000000       -1.000000        0.000000               0 # O_2 C_R C_R O_2

Pair Coeffs

    1        0.060000        3.118146 # O_2 O_2
    2        0.105000        3.430851 # C_R C_R
    3        0.044000        2.571134 # H_ H_
    4        0.124000        2.461553 # Zn3f2 Zn3f2
    5        0.060000        3.118146 # O_3_f O_3_f
	
Atoms # full

1 1 1 0 3.57282 7.26473 5.65127 0 0 0
2 2 2 0 2.92108 6.458 6.458 0 0 0
3 2 2 0 1.42541 6.458 6.458 0 0 0
4 2 2 0 0.70211 7.31226 5.60374 0 0 0
5 2 3 0 1.21979 7.984929999999999 4.93107 0 0 0
6 1 1 0 3.57282 18.56727 20.18073 0 0 0
7 3 2 0 2.92108 19.374 19.374 0 0 0
8 3 2 0 1.42541 19.374 19.374 0 0 0
9 3 2 0 0.70211 18.51974 20.22826 0 0 0
10 3 3 0 1.21979 17.84707 20.90093 0 0 0
11 1 1 0 3.57282 20.18073 18.56727 0 0 0
12 3 2 0 0.70211 20.22826 18.51974 0 0 0
13 3 3 0 1.21979 20.90093 17.84707 0 0 0
14 1 1 0 3.57282 5.65127 7.26473 0 0 0
15 2 2 0 0.70211 5.60374 7.31226 0 0 0
16 2 3 0 1.21979 4.93107 7.984929999999999 0 0 0
17 1 4 0 5.39217 7.52383 5.39217 0 0 0
18 1 4 0 5.39217 18.30817 20.43983 0 0 0
19 1 4 0 5.39217 5.39217 7.52383 0 0 0
20 1 4 0 5.39217 20.43983 18.30817 0 0 0
21 1 1 0 5.65127 3.57282 7.26473 0 0 0
22 4 2 0 6.458 2.92108 6.458 0 0 0
23 4 2 0 6.458 1.42541 6.458 0 0 0
24 4 2 0 5.60374 0.70211 7.31226 0 0 0
25 4 3 0 4.93107 1.21979 7.984929999999999 0 0 0
26 1 1 0 20.18073 3.57282 18.56727 0 0 0
27 5 2 0 19.374 2.92108 19.374 0 0 0
28 5 2 0 19.374 1.42541 19.374 0 0 0
29 5 2 0 20.22826 0.70211 18.51974 0 0 0
30 5 3 0 20.90093 1.21979 17.84707 0 0 0
31 1 1 0 7.26473 3.57282 5.65127 0 0 0
32 4 2 0 7.31226 0.70211 5.60374 0 0 0
33 4 3 0 7.984929999999999 1.21979 4.93107 0 0 0
34 1 1 0 18.56727 3.57282 20.18073 0 0 0
35 5 2 0 18.51974 0.70211 20.22826 0 0 0
36 5 3 0 17.84707 1.21979 20.90093 0 0 0
37 1 4 0 7.52383 5.39217 5.39217 0 0 0
38 1 4 0 18.30817 5.39217 20.43983 0 0 0
39 1 4 0 20.43983 5.39217 18.30817 0 0 0
40 1 5 0 6.458 6.458 6.458 0 0 0
41 1 1 0 7.26473 5.65127 3.57282 0 0 0
42 6 2 0 6.458 6.458 2.92108 0 0 0
43 6 2 0 6.458 6.458 1.42541 0 0 0
44 6 2 0 7.31226 5.60374 0.70211 0 0 0
45 6 3 0 7.984929999999999 4.93107 1.21979 0 0 0
46 1 4 0 18.30817 20.43983 5.39217 0 0 0
47 1 5 0 19.374 19.374 6.458 0 0 0
48 1 1 0 18.56727 20.18073 3.57282 0 0 0
49 7 2 0 19.374 19.374 2.92108 0 0 0
50 7 2 0 19.374 19.374 1.42541 0 0 0
51 7 2 0 18.51974 20.22826 0.70211 0 0 0
52 7 3 0 17.84707 20.90093 1.21979 0 0 0
53 1 5 0 19.374 6.458 19.374 0 0 0
54 1 4 0 7.52383 20.43983 20.43983 0 0 0
55 1 5 0 6.458 19.374 19.374 0 0 0
56 1 4 0 20.43983 18.30817 5.39217 0 0 0
57 1 4 0 20.43983 7.52383 20.43983 0 0 0
58 1 4 0 20.43983 20.43983 7.52383 0 0 0
59 1 4 0 5.39217 7.52383 20.43983 0 0 0
60 1 5 0 6.458 6.458 19.374 0 0 0
61 1 4 0 20.43983 18.30817 20.43983 0 0 0
62 1 5 0 19.374 19.374 19.374 0 0 0
63 1 4 0 5.39217 18.30817 5.39217 0 0 0
64 1 5 0 6.458 19.374 6.458 0 0 0
65 1 1 0 5.65127 18.56727 3.57282 0 0 0
66 8 2 0 6.458 19.374 2.92108 0 0 0
67 8 2 0 6.458 19.374 1.42541 0 0 0
68 8 2 0 5.60374 18.51974 0.70211 0 0 0
69 8 3 0 4.93107 17.84707 1.21979 0 0 0
70 1 4 0 20.43983 7.52383 5.39217 0 0 0
71 1 5 0 19.374 6.458 6.458 0 0 0
72 1 1 0 20.18073 7.26473 3.57282 0 0 0
73 9 2 0 19.374 6.458 2.92108 0 0 0
74 9 2 0 19.374 6.458 1.42541 0 0 0
75 9 2 0 20.22826 7.31226 0.70211 0 0 0
76 9 3 0 20.90093 7.984929999999999 1.21979 0 0 0
77 1 4 0 7.52383 5.39217 20.43983 0 0 0
78 1 1 0 7.26473 3.57282 20.18073 0 0 0
79 10 2 0 6.458 2.92108 19.374 0 0 0
80 10 2 0 6.458 1.42541 19.374 0 0 0
81 10 2 0 7.31226 0.70211 20.22826 0 0 0
82 10 3 0 7.984929999999999 1.21979 20.90093 0 0 0
83 1 4 0 18.30817 5.39217 5.39217 0 0 0
84 1 1 0 18.56727 3.57282 5.65127 0 0 0
85 11 2 0 19.374 2.92108 6.458 0 0 0
86 11 2 0 19.374 1.42541 6.458 0 0 0
87 11 2 0 18.51974 0.70211 5.60374 0 0 0
88 11 3 0 17.84707 1.21979 4.93107 0 0 0
89 1 4 0 18.30817 20.43983 20.43983 0 0 0
90 1 1 0 18.56727 22.25918 20.18073 0 0 0
91 12 2 0 19.374 22.91092 19.374 0 0 0
92 12 2 0 19.374 24.40659 19.374 0 0 0
93 12 2 0 18.51974 25.12989 20.22826 0 0 0
94 12 3 0 17.84707 24.61221 20.90093 0 0 0
95 1 4 0 7.52383 20.43983 5.39217 0 0 0
96 1 1 0 7.26473 22.25918 5.65127 0 0 0
97 13 2 0 6.458 22.91092 6.458 0 0 0
98 13 2 0 6.458 24.40659 6.458 0 0 0
99 13 2 0 7.31226 25.12989 5.60374 0 0 0
100 13 3 0 7.984929999999999 24.61221 4.93107 0 0 0
101 1 4 0 5.39217 5.39217 18.30817 0 0 0
102 1 1 0 3.57282 5.65127 18.56727 0 0 0
103 14 2 0 2.92108 6.458 19.374 0 0 0
104 14 2 0 1.42541 6.458 19.374 0 0 0
105 14 2 0 0.70211 5.60374 18.51974 0 0 0
106 14 3 0 1.21979 4.93107 17.84707 0 0 0
107 1 4 0 5.39217 20.43983 7.52383 0 0 0
108 1 1 0 3.57282 20.18073 7.26473 0 0 0
109 15 2 0 2.92108 19.374 6.458 0 0 0
110 15 2 0 1.42541 19.374 6.458 0 0 0
111 15 2 0 0.70211 20.22826 7.31226 0 0 0
112 15 3 0 1.21979 20.90093 7.984929999999999 0 0 0
113 1 4 0 20.43983 5.39217 7.52383 0 0 0
114 1 1 0 22.25918 5.65127 7.26473 0 0 0
115 16 2 0 22.91092 6.458 6.458 0 0 0
116 16 2 0 24.40659 6.458 6.458 0 0 0
117 16 2 0 25.12989 5.60374 7.31226 0 0 0
118 16 3 0 24.61221 4.93107 7.984929999999999 0 0 0
119 1 4 0 20.43983 20.43983 18.30817 0 0 0
120 1 1 0 22.25918 20.18073 18.56727 0 0 0
121 17 2 0 22.91092 19.374 19.374 0 0 0
122 17 2 0 24.40659 19.374 19.374 0 0 0
123 17 2 0 25.12989 20.22826 18.51974 0 0 0
124 17 3 0 24.61221 20.90093 17.84707 0 0 0
125 1 1 0 7.26473 20.18073 3.57282 0 0 0
126 8 2 0 7.31226 20.22826 0.70211 0 0 0
127 8 3 0 7.984929999999999 20.90093 1.21979 0 0 0
128 1 1 0 18.56727 5.65127 3.57282 0 0 0
129 9 2 0 18.51974 5.60374 0.70211 0 0 0
130 9 3 0 17.84707 4.93107 1.21979 0 0 0
131 1 1 0 22.25918 18.56727 20.18073 0 0 0
132 17 2 0 25.12989 18.51974 20.22826 0 0 0
133 17 3 0 24.61221 17.84707 20.90093 0 0 0
134 1 1 0 22.25918 7.26473 5.65127 0 0 0
135 16 2 0 25.12989 7.31226 5.60374 0 0 0
136 16 3 0 24.61221 7.984929999999999 4.93107 0 0 0
137 1 1 0 3.57282 7.26473 20.18073 0 0 0
138 14 2 0 0.70211 7.31226 20.22826 0 0 0
139 14 3 0 1.21979 7.984929999999999 20.90093 0 0 0
140 1 1 0 3.57282 18.56727 5.65127 0 0 0
141 15 2 0 0.70211 18.51974 5.60374 0 0 0
142 15 3 0 1.21979 17.84707 4.93107 0 0 0
143 1 1 0 20.18073 22.25918 18.56727 0 0 0
144 12 2 0 20.22826 25.12989 18.51974 0 0 0
145 12 3 0 20.90093 24.61221 17.84707 0 0 0
146 1 1 0 5.65127 22.25918 7.26473 0 0 0
147 13 2 0 5.60374 25.12989 7.31226 0 0 0
148 13 3 0 4.93107 24.61221 7.984929999999999 0 0 0
149 1 1 0 20.18073 3.57282 7.26473 0 0 0
150 11 2 0 20.22826 0.70211 7.31226 0 0 0
151 11 3 0 20.90093 1.21979 7.984929999999999 0 0 0
152 1 1 0 5.65127 3.57282 18.56727 0 0 0
153 10 2 0 5.60374 0.70211 18.51974 0 0 0
154 10 3 0 4.93107 1.21979 17.84707 0 0 0
155 1 1 0 20.18073 18.56727 3.57282 0 0 0
156 7 2 0 20.22826 18.51974 0.70211 0 0 0
157 7 3 0 20.90093 17.84707 1.21979 0 0 0
158 1 1 0 5.65127 7.26473 3.57282 0 0 0
159 6 2 0 5.60374 7.31226 0.70211 0 0 0
160 6 3 0 4.93107 7.984929999999999 1.21979 0 0 0
161 1 4 0 7.52383 18.30817 18.30817 0 0 0
162 1 1 0 7.26473 18.56727 16.48882 0 0 0
163 18 2 0 6.458 19.374 15.837079999999998 0 0 0
164 18 2 0 6.458 19.374 14.341409999999998 0 0 0
165 18 2 0 7.31226 18.51974 13.61811 0 0 0
166 18 3 0 7.984929999999999 17.84707 14.13579 0 0 0
167 1 4 0 18.30817 7.52383 18.30817 0 0 0
168 1 1 0 18.56727 7.26473 16.48882 0 0 0
169 19 2 0 19.374 6.458 15.837079999999998 0 0 0
170 19 2 0 19.374 6.458 14.341409999999998 0 0 0
171 19 2 0 18.51974 7.31226 13.61811 0 0 0
172 19 3 0 17.84707 7.984929999999999 14.13579 0 0 0
173 1 4 0 18.30817 18.30817 7.52383 0 0 0
174 1 1 0 18.56727 18.56727 9.34318 0 0 0
175 20 2 0 19.374 19.374 9.99492 0 0 0
176 20 2 0 19.374 19.374 11.49059 0 0 0
177 20 2 0 18.51974 18.51974 12.21389 0 0 0
178 20 3 0 17.84707 17.84707 11.69621 0 0 0
179 1 4 0 7.52383 7.52383 7.52383 0 0 0
180 1 1 0 7.26473 7.26473 9.34318 0 0 0
181 21 2 0 6.458 6.458 9.99492 0 0 0
182 21 2 0 6.458 6.458 11.49059 0 0 0
183 21 2 0 7.31226 7.31226 12.21389 0 0 0
184 21 3 0 7.984929999999999 7.984929999999999 11.69621 0 0 0
185 1 1 0 5.65127 16.48882 20.18073 0 0 0
186 22 2 0 6.458 15.837079999999998 19.374 0 0 0
187 22 2 0 6.458 14.341409999999998 19.374 0 0 0
188 22 2 0 5.60374 13.61811 20.22826 0 0 0
189 22 3 0 4.93107 14.13579 20.90093 0 0 0
190 1 1 0 20.18073 16.48882 5.65127 0 0 0
191 23 2 0 19.374 15.837079999999998 6.458 0 0 0
192 23 2 0 19.374 14.341409999999998 6.458 0 0 0
193 23 2 0 20.22826 13.61811 5.60374 0 0 0
194 23 3 0 20.90093 14.13579 4.93107 0 0 0
195 1 1 0 5.65127 9.34318 5.65127 0 0 0
196 24 2 0 6.458 9.99492 6.458 0 0 0
197 24 2 0 6.458 11.49059 6.458 0 0 0
198 24 2 0 5.60374 12.21389 5.60374 0 0 0
199 24 3 0 4.93107 11.69621 4.93107 0 0 0
200 1 1 0 20.18073 9.34318 20.18073 0 0 0
201 25 2 0 19.374 9.99492 19.374 0 0 0
202 25 2 0 19.374 11.49059 19.374 0 0 0
203 25 2 0 20.22826 12.21389 20.22826 0 0 0
204 25 3 0 20.90093 11.69621 20.90093 0 0 0
205 1 1 0 5.65127 20.18073 9.34318 0 0 0
206 18 2 0 6.458 19.374 9.99492 0 0 0
207 18 2 0 6.458 19.374 11.49059 0 0 0
208 18 2 0 5.60374 20.22826 12.21389 0 0 0
209 18 3 0 4.93107 20.90093 11.69621 0 0 0
210 1 1 0 20.18073 5.65127 9.34318 0 0 0
211 19 2 0 19.374 6.458 9.99492 0 0 0
212 19 2 0 19.374 6.458 11.49059 0 0 0
213 19 2 0 20.22826 5.60374 12.21389 0 0 0
214 19 3 0 20.90093 4.93107 11.69621 0 0 0
215 1 1 0 5.65127 5.65127 16.48882 0 0 0
216 21 2 0 6.458 6.458 15.837079999999998 0 0 0
217 21 2 0 6.458 6.458 14.341409999999998 0 0 0
218 21 2 0 5.60374 5.60374 13.61811 0 0 0
219 21 3 0 4.93107 4.93107 14.13579 0 0 0
220 1 1 0 20.18073 20.18073 16.48882 0 0 0
221 20 2 0 19.374 19.374 15.837079999999998 0 0 0
222 20 2 0 19.374 19.374 14.341409999999998 0 0 0
223 20 2 0 20.22826 20.22826 13.61811 0 0 0
224 20 3 0 20.90093 20.90093 14.13579 0 0 0
225 1 4 0 7.52383 18.30817 7.52383 0 0 0
226 1 1 0 7.26473 16.48882 7.26473 0 0 0
227 24 2 0 6.458 15.837079999999998 6.458 0 0 0
228 24 2 0 6.458 14.341409999999998 6.458 0 0 0
229 24 2 0 7.31226 13.61811 7.31226 0 0 0
230 24 3 0 7.984929999999999 14.13579 7.984929999999999 0 0 0
231 1 4 0 18.30817 18.30817 18.30817 0 0 0
232 1 1 0 18.56727 16.48882 18.56727 0 0 0
233 25 2 0 19.374 15.837079999999998 19.374 0 0 0
234 25 2 0 19.374 14.341409999999998 19.374 0 0 0
235 25 2 0 18.51974 13.61811 18.51974 0 0 0
236 25 3 0 17.84707 14.13579 17.84707 0 0 0
237 1 4 0 18.30817 7.52383 7.52383 0 0 0
238 1 1 0 18.56727 9.34318 7.26473 0 0 0
239 23 2 0 19.374 9.99492 6.458 0 0 0
240 23 2 0 19.374 11.49059 6.458 0 0 0
241 23 2 0 18.51974 12.21389 7.31226 0 0 0
242 23 3 0 17.84707 11.69621 7.984929999999999 0 0 0
243 1 4 0 7.52383 7.52383 18.30817 0 0 0
244 1 1 0 7.26473 9.34318 18.56727 0 0 0
245 22 2 0 6.458 9.99492 19.374 0 0 0
246 22 2 0 6.458 11.49059 19.374 0 0 0
247 22 2 0 7.31226 12.21389 18.51974 0 0 0
248 22 3 0 7.984929999999999 11.69621 17.84707 0 0 0
249 1 1 0 18.56727 7.26473 9.34318 0 0 0
250 19 2 0 18.51974 7.31226 12.21389 0 0 0
251 19 3 0 17.84707 7.984929999999999 11.69621 0 0 0
252 1 1 0 7.26473 18.56727 9.34318 0 0 0
253 18 2 0 7.31226 18.51974 12.21389 0 0 0
254 18 3 0 7.984929999999999 17.84707 11.69621 0 0 0
255 1 1 0 7.26473 7.26473 16.48882 0 0 0
256 21 2 0 7.31226 7.31226 13.61811 0 0 0
257 21 3 0 7.984929999999999 7.984929999999999 14.13579 0 0 0
258 1 1 0 18.56727 18.56727 16.48882 0 0 0
259 20 2 0 18.51974 18.51974 13.61811 0 0 0
260 20 3 0 17.84707 17.84707 14.13579 0 0 0
261 1 1 0 20.18073 9.34318 5.65127 0 0 0
262 23 2 0 20.22826 12.21389 5.60374 0 0 0
263 23 3 0 20.90093 11.69621 4.93107 0 0 0
264 1 1 0 5.65127 9.34318 20.18073 0 0 0
265 22 2 0 5.60374 12.21389 20.22826 0 0 0
266 22 3 0 4.93107 11.69621 20.90093 0 0 0
267 1 1 0 20.18073 16.48882 20.18073 0 0 0
268 25 2 0 20.22826 13.61811 20.22826 0 0 0
269 25 3 0 20.90093 14.13579 20.90093 0 0 0
270 1 1 0 5.65127 16.48882 5.65127 0 0 0
271 24 2 0 5.60374 13.61811 5.60374 0 0 0
272 24 3 0 4.93107 14.13579 4.93107 0 0 0
273 1 1 0 20.18073 5.65127 16.48882 0 0 0
274 19 2 0 20.22826 5.60374 13.61811 0 0 0
275 19 3 0 20.90093 4.93107 14.13579 0 0 0
276 1 1 0 5.65127 20.18073 16.48882 0 0 0
277 18 2 0 5.60374 20.22826 13.61811 0 0 0
278 18 3 0 4.93107 20.90093 14.13579 0 0 0
279 1 1 0 20.18073 20.18073 9.34318 0 0 0
280 20 2 0 20.22826 20.22826 12.21389 0 0 0
281 20 3 0 20.90093 20.90093 11.69621 0 0 0
282 1 1 0 5.65127 5.65127 9.34318 0 0 0
283 21 2 0 5.60374 5.60374 12.21389 0 0 0
284 21 3 0 4.93107 4.93107 11.69621 0 0 0
285 1 1 0 18.56727 9.34318 18.56727 0 0 0
286 25 2 0 18.51974 12.21389 18.51974 0 0 0
287 25 3 0 17.84707 11.69621 17.84707 0 0 0
288 1 1 0 7.26473 9.34318 7.26473 0 0 0
289 24 2 0 7.31226 12.21389 7.31226 0 0 0
290 24 3 0 7.984929999999999 11.69621 7.984929999999999 0 0 0
291 1 1 0 7.26473 16.48882 18.56727 0 0 0
292 22 2 0 7.31226 13.61811 18.51974 0 0 0
293 22 3 0 7.984929999999999 14.13579 17.84707 0 0 0
294 1 1 0 18.56727 16.48882 7.26473 0 0 0
295 23 2 0 18.51974 13.61811 7.31226 0 0 0
296 23 3 0 17.84707 14.13579 7.984929999999999 0 0 0
297 1 1 0 16.48882 7.26473 18.56727 0 0 0
298 26 2 0 15.837079999999998 6.458 19.374 0 0 0
299 26 2 0 14.341409999999998 6.458 19.374 0 0 0
300 26 2 0 13.61811 7.31226 18.51974 0 0 0
301 26 3 0 14.13579 7.984929999999999 17.84707 0 0 0
302 1 1 0 16.48882 18.56727 7.26473 0 0 0
303 27 2 0 15.837079999999998 19.374 6.458 0 0 0
304 27 2 0 14.341409999999998 19.374 6.458 0 0 0
305 27 2 0 13.61811 18.51974 7.31226 0 0 0
306 27 3 0 14.13579 17.84707 7.984929999999999 0 0 0
307 1 1 0 9.34318 18.56727 18.56727 0 0 0
308 28 2 0 9.99492 19.374 19.374 0 0 0
309 28 2 0 11.49059 19.374 19.374 0 0 0
310 28 2 0 12.21389 18.51974 18.51974 0 0 0
311 28 3 0 11.69621 17.84707 17.84707 0 0 0
312 1 1 0 9.34318 7.26473 7.26473 0 0 0
313 29 2 0 9.99492 6.458 6.458 0 0 0
314 29 2 0 11.49059 6.458 6.458 0 0 0
315 29 2 0 12.21389 7.31226 7.31226 0 0 0
316 29 3 0 11.69621 7.984929999999999 7.984929999999999 0 0 0
317 1 1 0 16.48882 5.65127 5.65127 0 0 0
318 29 2 0 15.837079999999998 6.458 6.458 0 0 0
319 29 2 0 14.341409999999998 6.458 6.458 0 0 0
320 29 2 0 13.61811 5.60374 5.60374 0 0 0
321 29 3 0 14.13579 4.93107 4.93107 0 0 0
322 1 1 0 16.48882 20.18073 20.18073 0 0 0
323 28 2 0 15.837079999999998 19.374 19.374 0 0 0
324 28 2 0 14.341409999999998 19.374 19.374 0 0 0
325 28 2 0 13.61811 20.22826 20.22826 0 0 0
326 28 3 0 14.13579 20.90093 20.90093 0 0 0
327 1 1 0 9.34318 5.65127 20.18073 0 0 0
328 26 2 0 9.99492 6.458 19.374 0 0 0
329 26 2 0 11.49059 6.458 19.374 0 0 0
330 26 2 0 12.21389 5.60374 20.22826 0 0 0
331 26 3 0 11.69621 4.93107 20.90093 0 0 0
332 1 1 0 9.34318 20.18073 5.65127 0 0 0
333 27 2 0 9.99492 19.374 6.458 0 0 0
334 27 2 0 11.49059 19.374 6.458 0 0 0
335 27 2 0 12.21389 20.22826 5.60374 0 0 0
336 27 3 0 11.69621 20.90093 4.93107 0 0 0
337 1 1 0 9.34318 18.56727 7.26473 0 0 0
338 27 2 0 12.21389 18.51974 7.31226 0 0 0
339 27 3 0 11.69621 17.84707 7.984929999999999 0 0 0
340 1 1 0 9.34318 7.26473 18.56727 0 0 0
341 26 2 0 12.21389 7.31226 18.51974 0 0 0
342 26 3 0 11.69621 7.984929999999999 17.84707 0 0 0
343 1 1 0 16.48882 7.26473 7.26473 0 0 0
344 29 2 0 13.61811 7.31226 7.31226 0 0 0
345 29 3 0 14.13579 7.984929999999999 7.984929999999999 0 0 0
346 1 1 0 16.48882 18.56727 18.56727 0 0 0
347 28 2 0 13.61811 18.51974 18.51974 0 0 0
348 28 3 0 14.13579 17.84707 17.84707 0 0 0
349 1 1 0 9.34318 20.18073 20.18073 0 0 0
350 28 2 0 12.21389 20.22826 20.22826 0 0 0
351 28 3 0 11.69621 20.90093 20.90093 0 0 0
352 1 1 0 9.34318 5.65127 5.65127 0 0 0
353 29 2 0 12.21389 5.60374 5.60374 0 0 0
354 29 3 0 11.69621 4.93107 4.93107 0 0 0
355 1 1 0 16.48882 20.18073 5.65127 0 0 0
356 27 2 0 13.61811 20.22826 5.60374 0 0 0
357 27 3 0 14.13579 20.90093 4.93107 0 0 0
358 1 1 0 16.48882 5.65127 20.18073 0 0 0
359 26 2 0 13.61811 5.60374 20.22826 0 0 0
360 26 3 0 14.13579 4.93107 20.90093 0 0 0
361 1 1 0 18.56727 5.65127 22.25918 0 0 0
362 1 1 0 7.26473 20.18073 22.25918 0 0 0
363 1 1 0 22.25918 18.56727 5.65127 0 0 0
364 1 1 0 22.25918 7.26473 20.18073 0 0 0
365 1 1 0 5.65127 22.25918 18.56727 0 0 0
366 1 1 0 20.18073 22.25918 7.26473 0 0 0
367 1 1 0 5.65127 7.26473 22.25918 0 0 0
368 1 1 0 20.18073 18.56727 22.25918 0 0 0
369 1 1 0 18.56727 20.18073 22.25918 0 0 0
370 1 1 0 7.26473 5.65127 22.25918 0 0 0
371 1 1 0 20.18073 7.26473 22.25918 0 0 0
372 1 1 0 5.65127 18.56727 22.25918 0 0 0
373 1 1 0 18.56727 22.25918 5.65127 0 0 0
374 1 1 0 7.26473 22.25918 20.18073 0 0 0
375 1 1 0 22.25918 20.18073 7.26473 0 0 0
376 1 1 0 22.25918 5.65127 18.56727 0 0 0
377 30 2 0 19.374 6.458 22.91092 0 0 0
378 30 2 0 19.374 6.458 24.40659 0 0 0
379 30 2 0 18.51974 5.60374 25.12989 0 0 0
380 30 3 0 17.84707 4.93107 24.61221 0 0 0
381 31 2 0 6.458 19.374 22.91092 0 0 0
382 31 2 0 6.458 19.374 24.40659 0 0 0
383 31 2 0 7.31226 20.22826 25.12989 0 0 0
384 31 3 0 7.984929999999999 20.90093 24.61221 0 0 0
385 32 2 0 6.458 6.458 22.91092 0 0 0
386 32 2 0 6.458 6.458 24.40659 0 0 0
387 32 2 0 5.60374 7.31226 25.12989 0 0 0
388 32 3 0 4.93107 7.984929999999999 24.61221 0 0 0
389 33 2 0 19.374 19.374 22.91092 0 0 0
390 33 2 0 19.374 19.374 24.40659 0 0 0
391 33 2 0 20.22826 18.51974 25.12989 0 0 0
392 33 3 0 20.90093 17.84707 24.61221 0 0 0
393 33 2 0 18.51974 20.22826 25.12989 0 0 0
394 33 3 0 17.84707 20.90093 24.61221 0 0 0
395 32 2 0 7.31226 5.60374 25.12989 0 0 0
396 32 3 0 7.984929999999999 4.93107 24.61221 0 0 0
397 30 2 0 20.22826 7.31226 25.12989 0 0 0
398 30 3 0 20.90093 7.984929999999999 24.61221 0 0 0
399 31 2 0 5.60374 18.51974 25.12989 0 0 0
400 31 3 0 4.93107 17.84707 24.61221 0 0 0
401 34 2 0 6.458 22.91092 19.374 0 0 0
402 34 2 0 6.458 24.40659 19.374 0 0 0
403 34 2 0 5.60374 25.12989 18.51974 0 0 0
404 34 3 0 4.93107 24.61221 17.84707 0 0 0
405 35 2 0 19.374 22.91092 6.458 0 0 0
406 35 2 0 19.374 24.40659 6.458 0 0 0
407 35 2 0 20.22826 25.12989 7.31226 0 0 0
408 35 3 0 20.90093 24.61221 7.984929999999999 0 0 0
409 35 2 0 18.51974 25.12989 5.60374 0 0 0
410 35 3 0 17.84707 24.61221 4.93107 0 0 0
411 34 2 0 7.31226 25.12989 20.22826 0 0 0
412 34 3 0 7.984929999999999 24.61221 20.90093 0 0 0
413 36 2 0 22.91092 19.374 6.458 0 0 0
414 36 2 0 24.40659 19.374 6.458 0 0 0
415 36 2 0 25.12989 18.51974 5.60374 0 0 0
416 36 3 0 24.61221 17.84707 4.93107 0 0 0
417 37 2 0 22.91092 6.458 19.374 0 0 0
418 37 2 0 24.40659 6.458 19.374 0 0 0
419 37 2 0 25.12989 7.31226 20.22826 0 0 0
420 37 3 0 24.61221 7.984929999999999 20.90093 0 0 0
421 36 2 0 25.12989 20.22826 7.31226 0 0 0
422 36 3 0 24.61221 20.90093 7.984929999999999 0 0 0
423 37 2 0 25.12989 5.60374 18.51974 0 0 0
424 37 3 0 24.61221 4.93107 17.84707 0 0 0
425 1 1 0 3.57282 7.26473 31.48327 0 0 0
426 38 2 0 2.92108 6.458 32.29 0 0 0
427 38 2 0 1.42541 6.458 32.29 0 0 0
428 38 2 0 0.70211 7.31226 31.435740000000003 0 0 0
429 38 3 0 1.21979 7.984929999999999 30.76307 0 0 0
430 1 1 0 3.57282 18.56727 46.01273 0 0 0
431 39 2 0 2.92108 19.374 45.206 0 0 0
432 39 2 0 1.42541 19.374 45.206 0 0 0
433 39 2 0 0.70211 18.51974 46.06026 0 0 0
434 39 3 0 1.21979 17.84707 46.73293 0 0 0
435 1 1 0 3.57282 20.18073 44.39927 0 0 0
436 39 2 0 0.70211 20.22826 44.35174 0 0 0
437 39 3 0 1.21979 20.90093 43.67907 0 0 0
438 1 1 0 3.57282 5.65127 33.09673 0 0 0
439 38 2 0 0.70211 5.60374 33.14426 0 0 0
440 38 3 0 1.21979 4.93107 33.81693 0 0 0
441 1 4 0 5.39217 7.52383 31.22417 0 0 0
442 1 4 0 5.39217 18.30817 46.27183 0 0 0
443 1 4 0 5.39217 5.39217 33.35583 0 0 0
444 1 4 0 5.39217 20.43983 44.14017 0 0 0
445 1 1 0 5.65127 3.57282 33.09673 0 0 0
446 40 2 0 6.458 2.92108 32.29 0 0 0
447 40 2 0 6.458 1.42541 32.29 0 0 0
448 40 2 0 5.60374 0.70211 33.14426 0 0 0
449 40 3 0 4.93107 1.21979 33.81693 0 0 0
450 1 1 0 20.18073 3.57282 44.39927 0 0 0
451 41 2 0 19.374 2.92108 45.206 0 0 0
452 41 2 0 19.374 1.42541 45.206 0 0 0
453 41 2 0 20.22826 0.70211 44.35174 0 0 0
454 41 3 0 20.90093 1.21979 43.67907 0 0 0
455 1 1 0 7.26473 3.57282 31.48327 0 0 0
456 40 2 0 7.31226 0.70211 31.435740000000003 0 0 0
457 40 3 0 7.984929999999999 1.21979 30.76307 0 0 0
458 1 1 0 18.56727 3.57282 46.01273 0 0 0
459 41 2 0 18.51974 0.70211 46.06026 0 0 0
460 41 3 0 17.84707 1.21979 46.73293 0 0 0
461 1 4 0 7.52383 5.39217 31.22417 0 0 0
462 1 4 0 18.30817 5.39217 46.27183 0 0 0
463 1 4 0 20.43983 5.39217 44.14017 0 0 0
464 1 5 0 6.458 6.458 32.29 0 0 0
465 1 1 0 7.26473 5.65127 29.40482 0 0 0
466 32 2 0 6.458 6.458 28.75308 0 0 0
467 32 2 0 6.458 6.458 27.25741 0 0 0
468 32 2 0 7.31226 5.60374 26.53411 0 0 0
469 32 3 0 7.984929999999999 4.93107 27.051789999999997 0 0 0
470 1 4 0 18.30817 20.43983 31.22417 0 0 0
471 1 5 0 19.374 19.374 32.29 0 0 0
472 1 1 0 18.56727 20.18073 29.40482 0 0 0
473 33 2 0 19.374 19.374 28.75308 0 0 0
474 33 2 0 19.374 19.374 27.25741 0 0 0
475 33 2 0 18.51974 20.22826 26.53411 0 0 0
476 33 3 0 17.84707 20.90093 27.051789999999997 0 0 0
477 1 5 0 19.374 6.458 45.206 0 0 0
478 1 4 0 7.52383 20.43983 46.27183 0 0 0
479 1 5 0 6.458 19.374 45.206 0 0 0
480 1 4 0 20.43983 18.30817 31.22417 0 0 0
481 1 4 0 20.43983 7.52383 46.27183 0 0 0
482 1 4 0 20.43983 20.43983 33.35583 0 0 0
483 1 4 0 5.39217 7.52383 46.27183 0 0 0
484 1 5 0 6.458 6.458 45.206 0 0 0
485 1 4 0 20.43983 18.30817 46.27183 0 0 0
486 1 5 0 19.374 19.374 45.206 0 0 0
487 1 4 0 5.39217 18.30817 31.22417 0 0 0
488 1 5 0 6.458 19.374 32.29 0 0 0
489 1 1 0 5.65127 18.56727 29.40482 0 0 0
490 31 2 0 6.458 19.374 28.75308 0 0 0
491 31 2 0 6.458 19.374 27.25741 0 0 0
492 31 2 0 5.60374 18.51974 26.53411 0 0 0
493 31 3 0 4.93107 17.84707 27.051789999999997 0 0 0
494 1 4 0 20.43983 7.52383 31.22417 0 0 0
495 1 5 0 19.374 6.458 32.29 0 0 0
496 1 1 0 20.18073 7.26473 29.40482 0 0 0
497 30 2 0 19.374 6.458 28.75308 0 0 0
498 30 2 0 19.374 6.458 27.25741 0 0 0
499 30 2 0 20.22826 7.31226 26.53411 0 0 0
500 30 3 0 20.90093 7.984929999999999 27.051789999999997 0 0 0
501 1 4 0 7.52383 5.39217 46.27183 0 0 0
502 1 1 0 7.26473 3.57282 46.01273 0 0 0
503 42 2 0 6.458 2.92108 45.206 0 0 0
504 42 2 0 6.458 1.42541 45.206 0 0 0
505 42 2 0 7.31226 0.70211 46.06026 0 0 0
506 42 3 0 7.984929999999999 1.21979 46.73293 0 0 0
507 1 4 0 18.30817 5.39217 31.22417 0 0 0
508 1 1 0 18.56727 3.57282 31.48327 0 0 0
509 43 2 0 19.374 2.92108 32.29 0 0 0
510 43 2 0 19.374 1.42541 32.29 0 0 0
511 43 2 0 18.51974 0.70211 31.435740000000003 0 0 0
512 43 3 0 17.84707 1.21979 30.76307 0 0 0
513 1 4 0 18.30817 20.43983 46.27183 0 0 0
514 1 1 0 18.56727 22.25918 46.01273 0 0 0
515 44 2 0 19.374 22.91092 45.206 0 0 0
516 44 2 0 19.374 24.40659 45.206 0 0 0
517 44 2 0 18.51974 25.12989 46.06026 0 0 0
518 44 3 0 17.84707 24.61221 46.73293 0 0 0
519 1 4 0 7.52383 20.43983 31.22417 0 0 0
520 1 1 0 7.26473 22.25918 31.48327 0 0 0
521 45 2 0 6.458 22.91092 32.29 0 0 0
522 45 2 0 6.458 24.40659 32.29 0 0 0
523 45 2 0 7.31226 25.12989 31.435740000000003 0 0 0
524 45 3 0 7.984929999999999 24.61221 30.76307 0 0 0
525 1 4 0 5.39217 5.39217 44.14017 0 0 0
526 1 1 0 3.57282 5.65127 44.39927 0 0 0
527 46 2 0 2.92108 6.458 45.206 0 0 0
528 46 2 0 1.42541 6.458 45.206 0 0 0
529 46 2 0 0.70211 5.60374 44.35174 0 0 0
530 46 3 0 1.21979 4.93107 43.67907 0 0 0
531 1 4 0 5.39217 20.43983 33.35583 0 0 0
532 1 1 0 3.57282 20.18073 33.09673 0 0 0
533 47 2 0 2.92108 19.374 32.29 0 0 0
534 47 2 0 1.42541 19.374 32.29 0 0 0
535 47 2 0 0.70211 20.22826 33.14426 0 0 0
536 47 3 0 1.21979 20.90093 33.81693 0 0 0
537 1 4 0 20.43983 5.39217 33.35583 0 0 0
538 1 1 0 22.25918 5.65127 33.09673 0 0 0
539 48 2 0 22.91092 6.458 32.29 0 0 0
540 48 2 0 24.40659 6.458 32.29 0 0 0
541 48 2 0 25.12989 5.60374 33.14426 0 0 0
542 48 3 0 24.61221 4.93107 33.81693 0 0 0
543 1 4 0 20.43983 20.43983 44.14017 0 0 0
544 1 1 0 22.25918 20.18073 44.39927 0 0 0
545 49 2 0 22.91092 19.374 45.206 0 0 0
546 49 2 0 24.40659 19.374 45.206 0 0 0
547 49 2 0 25.12989 20.22826 44.35174 0 0 0
548 49 3 0 24.61221 20.90093 43.67907 0 0 0
549 1 1 0 7.26473 20.18073 29.40482 0 0 0
550 31 2 0 7.31226 20.22826 26.53411 0 0 0
551 31 3 0 7.984929999999999 20.90093 27.051789999999997 0 0 0
552 1 1 0 18.56727 5.65127 29.40482 0 0 0
553 30 2 0 18.51974 5.60374 26.53411 0 0 0
554 30 3 0 17.84707 4.93107 27.051789999999997 0 0 0
555 1 1 0 22.25918 18.56727 46.01273 0 0 0
556 49 2 0 25.12989 18.51974 46.06026 0 0 0
557 49 3 0 24.61221 17.84707 46.73293 0 0 0
558 1 1 0 22.25918 7.26473 31.48327 0 0 0
559 48 2 0 25.12989 7.31226 31.435740000000003 0 0 0
560 48 3 0 24.61221 7.984929999999999 30.76307 0 0 0
561 1 1 0 3.57282 7.26473 46.01273 0 0 0
562 46 2 0 0.70211 7.31226 46.06026 0 0 0
563 46 3 0 1.21979 7.984929999999999 46.73293 0 0 0
564 1 1 0 3.57282 18.56727 31.48327 0 0 0
565 47 2 0 0.70211 18.51974 31.435740000000003 0 0 0
566 47 3 0 1.21979 17.84707 30.76307 0 0 0
567 1 1 0 20.18073 22.25918 44.39927 0 0 0
568 44 2 0 20.22826 25.12989 44.35174 0 0 0
569 44 3 0 20.90093 24.61221 43.67907 0 0 0
570 1 1 0 5.65127 22.25918 33.09673 0 0 0
571 45 2 0 5.60374 25.12989 33.14426 0 0 0
572 45 3 0 4.93107 24.61221 33.81693 0 0 0
573 1 1 0 20.18073 3.57282 33.09673 0 0 0
574 43 2 0 20.22826 0.70211 33.14426 0 0 0
575 43 3 0 20.90093 1.21979 33.81693 0 0 0
576 1 1 0 5.65127 3.57282 44.39927 0 0 0
577 42 2 0 5.60374 0.70211 44.35174 0 0 0
578 42 3 0 4.93107 1.21979 43.67907 0 0 0
579 1 1 0 20.18073 18.56727 29.40482 0 0 0
580 33 2 0 20.22826 18.51974 26.53411 0 0 0
581 33 3 0 20.90093 17.84707 27.051789999999997 0 0 0
582 1 1 0 5.65127 7.26473 29.40482 0 0 0
583 32 2 0 5.60374 7.31226 26.53411 0 0 0
584 32 3 0 4.93107 7.984929999999999 27.051789999999997 0 0 0
585 1 4 0 7.52383 18.30817 44.14017 0 0 0
586 1 1 0 7.26473 18.56727 42.32082 0 0 0
587 50 2 0 6.458 19.374 41.66908 0 0 0
588 50 2 0 6.458 19.374 40.17341 0 0 0
589 50 2 0 7.31226 18.51974 39.45011 0 0 0
590 50 3 0 7.984929999999999 17.84707 39.96779 0 0 0
591 1 4 0 18.30817 7.52383 44.14017 0 0 0
592 1 1 0 18.56727 7.26473 42.32082 0 0 0
593 51 2 0 19.374 6.458 41.66908 0 0 0
594 51 2 0 19.374 6.458 40.17341 0 0 0
595 51 2 0 18.51974 7.31226 39.45011 0 0 0
596 51 3 0 17.84707 7.984929999999999 39.96779 0 0 0
597 1 4 0 18.30817 18.30817 33.35583 0 0 0
598 1 1 0 18.56727 18.56727 35.17518 0 0 0
599 52 2 0 19.374 19.374 35.82692 0 0 0
600 52 2 0 19.374 19.374 37.32258999999999 0 0 0
601 52 2 0 18.51974 18.51974 38.04589 0 0 0
602 52 3 0 17.84707 17.84707 37.52821 0 0 0
603 1 4 0 7.52383 7.52383 33.35583 0 0 0
604 1 1 0 7.26473 7.26473 35.17518 0 0 0
605 53 2 0 6.458 6.458 35.82692 0 0 0
606 53 2 0 6.458 6.458 37.32258999999999 0 0 0
607 53 2 0 7.31226 7.31226 38.04589 0 0 0
608 53 3 0 7.984929999999999 7.984929999999999 37.52821 0 0 0
609 1 1 0 5.65127 16.48882 46.01273 0 0 0
610 54 2 0 6.458 15.837079999999998 45.206 0 0 0
611 54 2 0 6.458 14.341409999999998 45.206 0 0 0
612 54 2 0 5.60374 13.61811 46.06026 0 0 0
613 54 3 0 4.93107 14.13579 46.73293 0 0 0
614 1 1 0 20.18073 16.48882 31.48327 0 0 0
615 55 2 0 19.374 15.837079999999998 32.29 0 0 0
616 55 2 0 19.374 14.341409999999998 32.29 0 0 0
617 55 2 0 20.22826 13.61811 31.435740000000003 0 0 0
618 55 3 0 20.90093 14.13579 30.76307 0 0 0
619 1 1 0 5.65127 9.34318 31.48327 0 0 0
620 56 2 0 6.458 9.99492 32.29 0 0 0
621 56 2 0 6.458 11.49059 32.29 0 0 0
622 56 2 0 5.60374 12.21389 31.435740000000003 0 0 0
623 56 3 0 4.93107 11.69621 30.76307 0 0 0
624 1 1 0 20.18073 9.34318 46.01273 0 0 0
625 57 2 0 19.374 9.99492 45.206 0 0 0
626 57 2 0 19.374 11.49059 45.206 0 0 0
627 57 2 0 20.22826 12.21389 46.06026 0 0 0
628 57 3 0 20.90093 11.69621 46.73293 0 0 0
629 1 1 0 5.65127 20.18073 35.17518 0 0 0
630 50 2 0 6.458 19.374 35.82692 0 0 0
631 50 2 0 6.458 19.374 37.32258999999999 0 0 0
632 50 2 0 5.60374 20.22826 38.04589 0 0 0
633 50 3 0 4.93107 20.90093 37.52821 0 0 0
634 1 1 0 20.18073 5.65127 35.17518 0 0 0
635 51 2 0 19.374 6.458 35.82692 0 0 0
636 51 2 0 19.374 6.458 37.32258999999999 0 0 0
637 51 2 0 20.22826 5.60374 38.04589 0 0 0
638 51 3 0 20.90093 4.93107 37.52821 0 0 0
639 1 1 0 5.65127 5.65127 42.32082 0 0 0
640 53 2 0 6.458 6.458 41.66908 0 0 0
641 53 2 0 6.458 6.458 40.17341 0 0 0
642 53 2 0 5.60374 5.60374 39.45011 0 0 0
643 53 3 0 4.93107 4.93107 39.96779 0 0 0
644 1 1 0 20.18073 20.18073 42.32082 0 0 0
645 52 2 0 19.374 19.374 41.66908 0 0 0
646 52 2 0 19.374 19.374 40.17341 0 0 0
647 52 2 0 20.22826 20.22826 39.45011 0 0 0
648 52 3 0 20.90093 20.90093 39.96779 0 0 0
649 1 4 0 7.52383 18.30817 33.35583 0 0 0
650 1 1 0 7.26473 16.48882 33.09673 0 0 0
651 56 2 0 6.458 15.837079999999998 32.29 0 0 0
652 56 2 0 6.458 14.341409999999998 32.29 0 0 0
653 56 2 0 7.31226 13.61811 33.14426 0 0 0
654 56 3 0 7.984929999999999 14.13579 33.81693 0 0 0
655 1 4 0 18.30817 18.30817 44.14017 0 0 0
656 1 1 0 18.56727 16.48882 44.39927 0 0 0
657 57 2 0 19.374 15.837079999999998 45.206 0 0 0
658 57 2 0 19.374 14.341409999999998 45.206 0 0 0
659 57 2 0 18.51974 13.61811 44.35174 0 0 0
660 57 3 0 17.84707 14.13579 43.67907 0 0 0
661 1 4 0 18.30817 7.52383 33.35583 0 0 0
662 1 1 0 18.56727 9.34318 33.09673 0 0 0
663 55 2 0 19.374 9.99492 32.29 0 0 0
664 55 2 0 19.374 11.49059 32.29 0 0 0
665 55 2 0 18.51974 12.21389 33.14426 0 0 0
666 55 3 0 17.84707 11.69621 33.81693 0 0 0
667 1 4 0 7.52383 7.52383 44.14017 0 0 0
668 1 1 0 7.26473 9.34318 44.39927 0 0 0
669 54 2 0 6.458 9.99492 45.206 0 0 0
670 54 2 0 6.458 11.49059 45.206 0 0 0
671 54 2 0 7.31226 12.21389 44.35174 0 0 0
672 54 3 0 7.984929999999999 11.69621 43.67907 0 0 0
673 1 1 0 18.56727 7.26473 35.17518 0 0 0
674 51 2 0 18.51974 7.31226 38.04589 0 0 0
675 51 3 0 17.84707 7.984929999999999 37.52821 0 0 0
676 1 1 0 7.26473 18.56727 35.17518 0 0 0
677 50 2 0 7.31226 18.51974 38.04589 0 0 0
678 50 3 0 7.984929999999999 17.84707 37.52821 0 0 0
679 1 1 0 7.26473 7.26473 42.32082 0 0 0
680 53 2 0 7.31226 7.31226 39.45011 0 0 0
681 53 3 0 7.984929999999999 7.984929999999999 39.96779 0 0 0
682 1 1 0 18.56727 18.56727 42.32082 0 0 0
683 52 2 0 18.51974 18.51974 39.45011 0 0 0
684 52 3 0 17.84707 17.84707 39.96779 0 0 0
685 1 1 0 20.18073 9.34318 31.48327 0 0 0
686 55 2 0 20.22826 12.21389 31.435740000000003 0 0 0
687 55 3 0 20.90093 11.69621 30.76307 0 0 0
688 1 1 0 5.65127 9.34318 46.01273 0 0 0
689 54 2 0 5.60374 12.21389 46.06026 0 0 0
690 54 3 0 4.93107 11.69621 46.73293 0 0 0
691 1 1 0 20.18073 16.48882 46.01273 0 0 0
692 57 2 0 20.22826 13.61811 46.06026 0 0 0
693 57 3 0 20.90093 14.13579 46.73293 0 0 0
694 1 1 0 5.65127 16.48882 31.48327 0 0 0
695 56 2 0 5.60374 13.61811 31.435740000000003 0 0 0
696 56 3 0 4.93107 14.13579 30.76307 0 0 0
697 1 1 0 20.18073 5.65127 42.32082 0 0 0
698 51 2 0 20.22826 5.60374 39.45011 0 0 0
699 51 3 0 20.90093 4.93107 39.96779 0 0 0
700 1 1 0 5.65127 20.18073 42.32082 0 0 0
701 50 2 0 5.60374 20.22826 39.45011 0 0 0
702 50 3 0 4.93107 20.90093 39.96779 0 0 0
703 1 1 0 20.18073 20.18073 35.17518 0 0 0
704 52 2 0 20.22826 20.22826 38.04589 0 0 0
705 52 3 0 20.90093 20.90093 37.52821 0 0 0
706 1 1 0 5.65127 5.65127 35.17518 0 0 0
707 53 2 0 5.60374 5.60374 38.04589 0 0 0
708 53 3 0 4.93107 4.93107 37.52821 0 0 0
709 1 1 0 18.56727 9.34318 44.39927 0 0 0
710 57 2 0 18.51974 12.21389 44.35174 0 0 0
711 57 3 0 17.84707 11.69621 43.67907 0 0 0
712 1 1 0 7.26473 9.34318 33.09673 0 0 0
713 56 2 0 7.31226 12.21389 33.14426 0 0 0
714 56 3 0 7.984929999999999 11.69621 33.81693 0 0 0
715 1 1 0 7.26473 16.48882 44.39927 0 0 0
716 54 2 0 7.31226 13.61811 44.35174 0 0 0
717 54 3 0 7.984929999999999 14.13579 43.67907 0 0 0
718 1 1 0 18.56727 16.48882 33.09673 0 0 0
719 55 2 0 18.51974 13.61811 33.14426 0 0 0
720 55 3 0 17.84707 14.13579 33.81693 0 0 0
721 1 1 0 16.48882 7.26473 44.39927 0 0 0
722 58 2 0 15.837079999999998 6.458 45.206 0 0 0
723 58 2 0 14.341409999999998 6.458 45.206 0 0 0
724 58 2 0 13.61811 7.31226 44.35174 0 0 0
725 58 3 0 14.13579 7.984929999999999 43.67907 0 0 0
726 1 1 0 16.48882 18.56727 33.09673 0 0 0
727 59 2 0 15.837079999999998 19.374 32.29 0 0 0
728 59 2 0 14.341409999999998 19.374 32.29 0 0 0
729 59 2 0 13.61811 18.51974 33.14426 0 0 0
730 59 3 0 14.13579 17.84707 33.81693 0 0 0
731 1 1 0 9.34318 18.56727 44.39927 0 0 0
732 60 2 0 9.99492 19.374 45.206 0 0 0
733 60 2 0 11.49059 19.374 45.206 0 0 0
734 60 2 0 12.21389 18.51974 44.35174 0 0 0
735 60 3 0 11.69621 17.84707 43.67907 0 0 0
736 1 1 0 9.34318 7.26473 33.09673 0 0 0
737 61 2 0 9.99492 6.458 32.29 0 0 0
738 61 2 0 11.49059 6.458 32.29 0 0 0
739 61 2 0 12.21389 7.31226 33.14426 0 0 0
740 61 3 0 11.69621 7.984929999999999 33.81693 0 0 0
741 1 1 0 16.48882 5.65127 31.48327 0 0 0
742 61 2 0 15.837079999999998 6.458 32.29 0 0 0
743 61 2 0 14.341409999999998 6.458 32.29 0 0 0
744 61 2 0 13.61811 5.60374 31.435740000000003 0 0 0
745 61 3 0 14.13579 4.93107 30.76307 0 0 0
746 1 1 0 16.48882 20.18073 46.01273 0 0 0
747 60 2 0 15.837079999999998 19.374 45.206 0 0 0
748 60 2 0 14.341409999999998 19.374 45.206 0 0 0
749 60 2 0 13.61811 20.22826 46.06026 0 0 0
750 60 3 0 14.13579 20.90093 46.73293 0 0 0
751 1 1 0 9.34318 5.65127 46.01273 0 0 0
752 58 2 0 9.99492 6.458 45.206 0 0 0
753 58 2 0 11.49059 6.458 45.206 0 0 0
754 58 2 0 12.21389 5.60374 46.06026 0 0 0
755 58 3 0 11.69621 4.93107 46.73293 0 0 0
756 1 1 0 9.34318 20.18073 31.48327 0 0 0
757 59 2 0 9.99492 19.374 32.29 0 0 0
758 59 2 0 11.49059 19.374 32.29 0 0 0
759 59 2 0 12.21389 20.22826 31.435740000000003 0 0 0
760 59 3 0 11.69621 20.90093 30.76307 0 0 0
761 1 1 0 9.34318 18.56727 33.09673 0 0 0
762 59 2 0 12.21389 18.51974 33.14426 0 0 0
763 59 3 0 11.69621 17.84707 33.81693 0 0 0
764 1 1 0 9.34318 7.26473 44.39927 0 0 0
765 58 2 0 12.21389 7.31226 44.35174 0 0 0
766 58 3 0 11.69621 7.984929999999999 43.67907 0 0 0
767 1 1 0 16.48882 7.26473 33.09673 0 0 0
768 61 2 0 13.61811 7.31226 33.14426 0 0 0
769 61 3 0 14.13579 7.984929999999999 33.81693 0 0 0
770 1 1 0 16.48882 18.56727 44.39927 0 0 0
771 60 2 0 13.61811 18.51974 44.35174 0 0 0
772 60 3 0 14.13579 17.84707 43.67907 0 0 0
773 1 1 0 9.34318 20.18073 46.01273 0 0 0
774 60 2 0 12.21389 20.22826 46.06026 0 0 0
775 60 3 0 11.69621 20.90093 46.73293 0 0 0
776 1 1 0 9.34318 5.65127 31.48327 0 0 0
777 61 2 0 12.21389 5.60374 31.435740000000003 0 0 0
778 61 3 0 11.69621 4.93107 30.76307 0 0 0
779 1 1 0 16.48882 20.18073 31.48327 0 0 0
780 59 2 0 13.61811 20.22826 31.435740000000003 0 0 0
781 59 3 0 14.13579 20.90093 30.76307 0 0 0
782 1 1 0 16.48882 5.65127 46.01273 0 0 0
783 58 2 0 13.61811 5.60374 46.06026 0 0 0
784 58 3 0 14.13579 4.93107 46.73293 0 0 0
785 1 1 0 18.56727 5.65127 48.09118 0 0 0
786 1 1 0 7.26473 20.18073 48.09118 0 0 0
787 1 1 0 22.25918 18.56727 31.48327 0 0 0
788 1 1 0 22.25918 7.26473 46.01273 0 0 0
789 1 1 0 5.65127 22.25918 44.39927 0 0 0
790 1 1 0 20.18073 22.25918 33.09673 0 0 0
791 1 1 0 5.65127 7.26473 48.09118 0 0 0
792 1 1 0 20.18073 18.56727 48.09118 0 0 0
793 1 1 0 18.56727 20.18073 48.09118 0 0 0
794 1 1 0 7.26473 5.65127 48.09118 0 0 0
795 1 1 0 20.18073 7.26473 48.09118 0 0 0
796 1 1 0 5.65127 18.56727 48.09118 0 0 0
797 1 1 0 18.56727 22.25918 31.48327 0 0 0
798 1 1 0 7.26473 22.25918 46.01273 0 0 0
799 1 1 0 22.25918 20.18073 33.09673 0 0 0
800 1 1 0 22.25918 5.65127 44.39927 0 0 0
801 9 2 0 19.374 6.458 48.74292 0 0 0
802 9 2 0 19.374 6.458 50.23859 0 0 0
803 9 2 0 18.51974 5.60374 50.96189 0 0 0
804 9 3 0 17.84707 4.93107 50.44421 0 0 0
805 8 2 0 6.458 19.374 48.74292 0 0 0
806 8 2 0 6.458 19.374 50.23859 0 0 0
807 8 2 0 7.31226 20.22826 50.96189 0 0 0
808 8 3 0 7.984929999999999 20.90093 50.44421 0 0 0
809 6 2 0 6.458 6.458 48.74292 0 0 0
810 6 2 0 6.458 6.458 50.23859 0 0 0
811 6 2 0 5.60374 7.31226 50.96189 0 0 0
812 6 3 0 4.93107 7.984929999999999 50.44421 0 0 0
813 7 2 0 19.374 19.374 48.74292 0 0 0
814 7 2 0 19.374 19.374 50.23859 0 0 0
815 7 2 0 20.22826 18.51974 50.96189 0 0 0
816 7 3 0 20.90093 17.84707 50.44421 0 0 0
817 7 2 0 18.51974 20.22826 50.96189 0 0 0
818 7 3 0 17.84707 20.90093 50.44421 0 0 0
819 6 2 0 7.31226 5.60374 50.96189 0 0 0
820 6 3 0 7.984929999999999 4.93107 50.44421 0 0 0
821 9 2 0 20.22826 7.31226 50.96189 0 0 0
822 9 3 0 20.90093 7.984929999999999 50.44421 0 0 0
823 8 2 0 5.60374 18.51974 50.96189 0 0 0
824 8 3 0 4.93107 17.84707 50.44421 0 0 0
825 62 2 0 6.458 22.91092 45.206 0 0 0
826 62 2 0 6.458 24.40659 45.206 0 0 0
827 62 2 0 5.60374 25.12989 44.35174 0 0 0
828 62 3 0 4.93107 24.61221 43.67907 0 0 0
829 63 2 0 19.374 22.91092 32.29 0 0 0
830 63 2 0 19.374 24.40659 32.29 0 0 0
831 63 2 0 20.22826 25.12989 33.14426 0 0 0
832 63 3 0 20.90093 24.61221 33.81693 0 0 0
833 63 2 0 18.51974 25.12989 31.435740000000003 0 0 0
834 63 3 0 17.84707 24.61221 30.76307 0 0 0
835 62 2 0 7.31226 25.12989 46.06026 0 0 0
836 62 3 0 7.984929999999999 24.61221 46.73293 0 0 0
837 64 2 0 22.91092 19.374 32.29 0 0 0
838 64 2 0 24.40659 19.374 32.29 0 0 0
839 64 2 0 25.12989 18.51974 31.435740000000003 0 0 0
840 64 3 0 24.61221 17.84707 30.76307 0 0 0
841 65 2 0 22.91092 6.458 45.206 0 0 0
842 65 2 0 24.40659 6.458 45.206 0 0 0
843 65 2 0 25.12989 7.31226 46.06026 0 0 0
844 65 3 0 24.61221 7.984929999999999 46.73293 0 0 0
845 64 2 0 25.12989 20.22826 33.14426 0 0 0
846 64 3 0 24.61221 20.90093 33.81693 0 0 0
847 65 2 0 25.12989 5.60374 44.35174 0 0 0
848 65 3 0 24.61221 4.93107 43.67907 0 0 0
849 1 1 0 3.57282 33.09673 5.65127 0 0 0
850 66 2 0 2.92108 32.29 6.458 0 0 0
851 66 2 0 1.42541 32.29 6.458 0 0 0
852 66 2 0 0.70211 33.14426 5.60374 0 0 0
853 66 3 0 1.21979 33.81693 4.93107 0 0 0
854 1 1 0 3.57282 44.39927 20.18073 0 0 0
855 67 2 0 2.92108 45.206 19.374 0 0 0
856 67 2 0 1.42541 45.206 19.374 0 0 0
857 67 2 0 0.70211 44.35174 20.22826 0 0 0
858 67 3 0 1.21979 43.67907 20.90093 0 0 0
859 1 1 0 3.57282 46.01273 18.56727 0 0 0
860 67 2 0 0.70211 46.06026 18.51974 0 0 0
861 67 3 0 1.21979 46.73293 17.84707 0 0 0
862 1 1 0 3.57282 31.48327 7.26473 0 0 0
863 66 2 0 0.70211 31.435740000000003 7.31226 0 0 0
864 66 3 0 1.21979 30.76307 7.984929999999999 0 0 0
865 1 4 0 5.39217 33.35583 5.39217 0 0 0
866 1 4 0 5.39217 44.14017 20.43983 0 0 0
867 1 4 0 5.39217 31.22417 7.52383 0 0 0
868 1 4 0 5.39217 46.27183 18.30817 0 0 0
869 1 1 0 5.65127 29.40482 7.26473 0 0 0
870 13 2 0 6.458 28.75308 6.458 0 0 0
871 13 2 0 6.458 27.25741 6.458 0 0 0
872 13 2 0 5.60374 26.53411 7.31226 0 0 0
873 13 3 0 4.93107 27.051789999999997 7.984929999999999 0 0 0
874 1 1 0 20.18073 29.40482 18.56727 0 0 0
875 12 2 0 19.374 28.75308 19.374 0 0 0
876 12 2 0 19.374 27.25741 19.374 0 0 0
877 12 2 0 20.22826 26.53411 18.51974 0 0 0
878 12 3 0 20.90093 27.051789999999997 17.84707 0 0 0
879 1 1 0 7.26473 29.40482 5.65127 0 0 0
880 13 2 0 7.31226 26.53411 5.60374 0 0 0
881 13 3 0 7.984929999999999 27.051789999999997 4.93107 0 0 0
882 1 1 0 18.56727 29.40482 20.18073 0 0 0
883 12 2 0 18.51974 26.53411 20.22826 0 0 0
884 12 3 0 17.84707 27.051789999999997 20.90093 0 0 0
885 1 4 0 7.52383 31.22417 5.39217 0 0 0
886 1 4 0 18.30817 31.22417 20.43983 0 0 0
887 1 4 0 20.43983 31.22417 18.30817 0 0 0
888 1 5 0 6.458 32.29 6.458 0 0 0
889 1 1 0 7.26473 31.48327 3.57282 0 0 0
890 68 2 0 6.458 32.29 2.92108 0 0 0
891 68 2 0 6.458 32.29 1.42541 0 0 0
892 68 2 0 7.31226 31.435740000000003 0.70211 0 0 0
893 68 3 0 7.984929999999999 30.76307 1.21979 0 0 0
894 1 4 0 18.30817 46.27183 5.39217 0 0 0
895 1 5 0 19.374 45.206 6.458 0 0 0
896 1 1 0 18.56727 46.01273 3.57282 0 0 0
897 69 2 0 19.374 45.206 2.92108 0 0 0
898 69 2 0 19.374 45.206 1.42541 0 0 0
899 69 2 0 18.51974 46.06026 0.70211 0 0 0
900 69 3 0 17.84707 46.73293 1.21979 0 0 0
901 1 5 0 19.374 32.29 19.374 0 0 0
902 1 4 0 7.52383 46.27183 20.43983 0 0 0
903 1 5 0 6.458 45.206 19.374 0 0 0
904 1 4 0 20.43983 44.14017 5.39217 0 0 0
905 1 4 0 20.43983 33.35583 20.43983 0 0 0
906 1 4 0 20.43983 46.27183 7.52383 0 0 0
907 1 4 0 5.39217 33.35583 20.43983 0 0 0
908 1 5 0 6.458 32.29 19.374 0 0 0
909 1 4 0 20.43983 44.14017 20.43983 0 0 0
910 1 5 0 19.374 45.206 19.374 0 0 0
911 1 4 0 5.39217 44.14017 5.39217 0 0 0
912 1 5 0 6.458 45.206 6.458 0 0 0
913 1 1 0 5.65127 44.39927 3.57282 0 0 0
914 70 2 0 6.458 45.206 2.92108 0 0 0
915 70 2 0 6.458 45.206 1.42541 0 0 0
916 70 2 0 5.60374 44.35174 0.70211 0 0 0
917 70 3 0 4.93107 43.67907 1.21979 0 0 0
918 1 4 0 20.43983 33.35583 5.39217 0 0 0
919 1 5 0 19.374 32.29 6.458 0 0 0
920 1 1 0 20.18073 33.09673 3.57282 0 0 0
921 71 2 0 19.374 32.29 2.92108 0 0 0
922 71 2 0 19.374 32.29 1.42541 0 0 0
923 71 2 0 20.22826 33.14426 0.70211 0 0 0
924 71 3 0 20.90093 33.81693 1.21979 0 0 0
925 1 4 0 7.52383 31.22417 20.43983 0 0 0
926 1 1 0 7.26473 29.40482 20.18073 0 0 0
927 34 2 0 6.458 28.75308 19.374 0 0 0
928 34 2 0 6.458 27.25741 19.374 0 0 0
929 34 2 0 7.31226 26.53411 20.22826 0 0 0
930 34 3 0 7.984929999999999 27.051789999999997 20.90093 0 0 0
931 1 4 0 18.30817 31.22417 5.39217 0 0 0
932 1 1 0 18.56727 29.40482 5.65127 0 0 0
933 35 2 0 19.374 28.75308 6.458 0 0 0
934 35 2 0 19.374 27.25741 6.458 0 0 0
935 35 2 0 18.51974 26.53411 5.60374 0 0 0
936 35 3 0 17.84707 27.051789999999997 4.93107 0 0 0
937 1 4 0 18.30817 46.27183 20.43983 0 0 0
938 1 1 0 18.56727 48.09118 20.18073 0 0 0
939 5 2 0 19.374 48.74292 19.374 0 0 0
940 5 2 0 19.374 50.23859 19.374 0 0 0
941 5 2 0 18.51974 50.96189 20.22826 0 0 0
942 5 3 0 17.84707 50.44421 20.90093 0 0 0
943 1 4 0 7.52383 46.27183 5.39217 0 0 0
944 1 1 0 7.26473 48.09118 5.65127 0 0 0
945 4 2 0 6.458 48.74292 6.458 0 0 0
946 4 2 0 6.458 50.23859 6.458 0 0 0
947 4 2 0 7.31226 50.96189 5.60374 0 0 0
948 4 3 0 7.984929999999999 50.44421 4.93107 0 0 0
949 1 4 0 5.39217 31.22417 18.30817 0 0 0
950 1 1 0 3.57282 31.48327 18.56727 0 0 0
951 72 2 0 2.92108 32.29 19.374 0 0 0
952 72 2 0 1.42541 32.29 19.374 0 0 0
953 72 2 0 0.70211 31.435740000000003 18.51974 0 0 0
954 72 3 0 1.21979 30.76307 17.84707 0 0 0
955 1 4 0 5.39217 46.27183 7.52383 0 0 0
956 1 1 0 3.57282 46.01273 7.26473 0 0 0
957 73 2 0 2.92108 45.206 6.458 0 0 0
958 73 2 0 1.42541 45.206 6.458 0 0 0
959 73 2 0 0.70211 46.06026 7.31226 0 0 0
960 73 3 0 1.21979 46.73293 7.984929999999999 0 0 0
961 1 4 0 20.43983 31.22417 7.52383 0 0 0
962 1 1 0 22.25918 31.48327 7.26473 0 0 0
963 74 2 0 22.91092 32.29 6.458 0 0 0
964 74 2 0 24.40659 32.29 6.458 0 0 0
965 74 2 0 25.12989 31.435740000000003 7.31226 0 0 0
966 74 3 0 24.61221 30.76307 7.984929999999999 0 0 0
967 1 4 0 20.43983 46.27183 18.30817 0 0 0
968 1 1 0 22.25918 46.01273 18.56727 0 0 0
969 75 2 0 22.91092 45.206 19.374 0 0 0
970 75 2 0 24.40659 45.206 19.374 0 0 0
971 75 2 0 25.12989 46.06026 18.51974 0 0 0
972 75 3 0 24.61221 46.73293 17.84707 0 0 0
973 1 1 0 7.26473 46.01273 3.57282 0 0 0
974 70 2 0 7.31226 46.06026 0.70211 0 0 0
975 70 3 0 7.984929999999999 46.73293 1.21979 0 0 0
976 1 1 0 18.56727 31.48327 3.57282 0 0 0
977 71 2 0 18.51974 31.435740000000003 0.70211 0 0 0
978 71 3 0 17.84707 30.76307 1.21979 0 0 0
979 1 1 0 22.25918 44.39927 20.18073 0 0 0
980 75 2 0 25.12989 44.35174 20.22826 0 0 0
981 75 3 0 24.61221 43.67907 20.90093 0 0 0
982 1 1 0 22.25918 33.09673 5.65127 0 0 0
983 74 2 0 25.12989 33.14426 5.60374 0 0 0
984 74 3 0 24.61221 33.81693 4.93107 0 0 0
985 1 1 0 3.57282 33.09673 20.18073 0 0 0
986 72 2 0 0.70211 33.14426 20.22826 0 0 0
987 72 3 0 1.21979 33.81693 20.90093 0 0 0
988 1 1 0 3.57282 44.39927 5.65127 0 0 0
989 73 2 0 0.70211 44.35174 5.60374 0 0 0
990 73 3 0 1.21979 43.67907 4.93107 0 0 0
991 1 1 0 20.18073 48.09118 18.56727 0 0 0
992 5 2 0 20.22826 50.96189 18.51974 0 0 0
993 5 3 0 20.90093 50.44421 17.84707 0 0 0
994 1 1 0 5.65127 48.09118 7.26473 0 0 0
995 4 2 0 5.60374 50.96189 7.31226 0 0 0
996 4 3 0 4.93107 50.44421 7.984929999999999 0 0 0
997 1 1 0 20.18073 29.40482 7.26473 0 0 0
998 35 2 0 20.22826 26.53411 7.31226 0 0 0
999 35 3 0 20.90093 27.051789999999997 7.984929999999999 0 0 0
1000 1 1 0 5.65127 29.40482 18.56727 0 0 0
1001 34 2 0 5.60374 26.53411 18.51974 0 0 0
1002 34 3 0 4.93107 27.051789999999997 17.84707 0 0 0
1003 1 1 0 20.18073 44.39927 3.57282 0 0 0
1004 69 2 0 20.22826 44.35174 0.70211 0 0 0
1005 69 3 0 20.90093 43.67907 1.21979 0 0 0
1006 1 1 0 5.65127 33.09673 3.57282 0 0 0
1007 68 2 0 5.60374 33.14426 0.70211 0 0 0
1008 68 3 0 4.93107 33.81693 1.21979 0 0 0
1009 1 4 0 7.52383 44.14017 18.30817 0 0 0
1010 1 1 0 7.26473 44.39927 16.48882 0 0 0
1011 76 2 0 6.458 45.206 15.837079999999998 0 0 0
1012 76 2 0 6.458 45.206 14.341409999999998 0 0 0
1013 76 2 0 7.31226 44.35174 13.61811 0 0 0
1014 76 3 0 7.984929999999999 43.67907 14.13579 0 0 0
1015 1 4 0 18.30817 33.35583 18.30817 0 0 0
1016 1 1 0 18.56727 33.09673 16.48882 0 0 0
1017 77 2 0 19.374 32.29 15.837079999999998 0 0 0
1018 77 2 0 19.374 32.29 14.341409999999998 0 0 0
1019 77 2 0 18.51974 33.14426 13.61811 0 0 0
1020 77 3 0 17.84707 33.81693 14.13579 0 0 0
1021 1 4 0 18.30817 44.14017 7.52383 0 0 0
1022 1 1 0 18.56727 44.39927 9.34318 0 0 0
1023 78 2 0 19.374 45.206 9.99492 0 0 0
1024 78 2 0 19.374 45.206 11.49059 0 0 0
1025 78 2 0 18.51974 44.35174 12.21389 0 0 0
1026 78 3 0 17.84707 43.67907 11.69621 0 0 0
1027 1 4 0 7.52383 33.35583 7.52383 0 0 0
1028 1 1 0 7.26473 33.09673 9.34318 0 0 0
1029 79 2 0 6.458 32.29 9.99492 0 0 0
1030 79 2 0 6.458 32.29 11.49059 0 0 0
1031 79 2 0 7.31226 33.14426 12.21389 0 0 0
1032 79 3 0 7.984929999999999 33.81693 11.69621 0 0 0
1033 1 1 0 5.65127 42.32082 20.18073 0 0 0
1034 80 2 0 6.458 41.66908 19.374 0 0 0
1035 80 2 0 6.458 40.17341 19.374 0 0 0
1036 80 2 0 5.60374 39.45011 20.22826 0 0 0
1037 80 3 0 4.93107 39.96779 20.90093 0 0 0
1038 1 1 0 20.18073 42.32082 5.65127 0 0 0
1039 81 2 0 19.374 41.66908 6.458 0 0 0
1040 81 2 0 19.374 40.17341 6.458 0 0 0
1041 81 2 0 20.22826 39.45011 5.60374 0 0 0
1042 81 3 0 20.90093 39.96779 4.93107 0 0 0
1043 1 1 0 5.65127 35.17518 5.65127 0 0 0
1044 82 2 0 6.458 35.82692 6.458 0 0 0
1045 82 2 0 6.458 37.32258999999999 6.458 0 0 0
1046 82 2 0 5.60374 38.04589 5.60374 0 0 0
1047 82 3 0 4.93107 37.52821 4.93107 0 0 0
1048 1 1 0 20.18073 35.17518 20.18073 0 0 0
1049 83 2 0 19.374 35.82692 19.374 0 0 0
1050 83 2 0 19.374 37.32258999999999 19.374 0 0 0
1051 83 2 0 20.22826 38.04589 20.22826 0 0 0
1052 83 3 0 20.90093 37.52821 20.90093 0 0 0
1053 1 1 0 5.65127 46.01273 9.34318 0 0 0
1054 76 2 0 6.458 45.206 9.99492 0 0 0
1055 76 2 0 6.458 45.206 11.49059 0 0 0
1056 76 2 0 5.60374 46.06026 12.21389 0 0 0
1057 76 3 0 4.93107 46.73293 11.69621 0 0 0
1058 1 1 0 20.18073 31.48327 9.34318 0 0 0
1059 77 2 0 19.374 32.29 9.99492 0 0 0
1060 77 2 0 19.374 32.29 11.49059 0 0 0
1061 77 2 0 20.22826 31.435740000000003 12.21389 0 0 0
1062 77 3 0 20.90093 30.76307 11.69621 0 0 0
1063 1 1 0 5.65127 31.48327 16.48882 0 0 0
1064 79 2 0 6.458 32.29 15.837079999999998 0 0 0
1065 79 2 0 6.458 32.29 14.341409999999998 0 0 0
1066 79 2 0 5.60374 31.435740000000003 13.61811 0 0 0
1067 79 3 0 4.93107 30.76307 14.13579 0 0 0
1068 1 1 0 20.18073 46.01273 16.48882 0 0 0
1069 78 2 0 19.374 45.206 15.837079999999998 0 0 0
1070 78 2 0 19.374 45.206 14.341409999999998 0 0 0
1071 78 2 0 20.22826 46.06026 13.61811 0 0 0
1072 78 3 0 20.90093 46.73293 14.13579 0 0 0
1073 1 4 0 7.52383 44.14017 7.52383 0 0 0
1074 1 1 0 7.26473 42.32082 7.26473 0 0 0
1075 82 2 0 6.458 41.66908 6.458 0 0 0
1076 82 2 0 6.458 40.17341 6.458 0 0 0
1077 82 2 0 7.31226 39.45011 7.31226 0 0 0
1078 82 3 0 7.984929999999999 39.96779 7.984929999999999 0 0 0
1079 1 4 0 18.30817 44.14017 18.30817 0 0 0
1080 1 1 0 18.56727 42.32082 18.56727 0 0 0
1081 83 2 0 19.374 41.66908 19.374 0 0 0
1082 83 2 0 19.374 40.17341 19.374 0 0 0
1083 83 2 0 18.51974 39.45011 18.51974 0 0 0
1084 83 3 0 17.84707 39.96779 17.84707 0 0 0
1085 1 4 0 18.30817 33.35583 7.52383 0 0 0
1086 1 1 0 18.56727 35.17518 7.26473 0 0 0
1087 81 2 0 19.374 35.82692 6.458 0 0 0
1088 81 2 0 19.374 37.32258999999999 6.458 0 0 0
1089 81 2 0 18.51974 38.04589 7.31226 0 0 0
1090 81 3 0 17.84707 37.52821 7.984929999999999 0 0 0
1091 1 4 0 7.52383 33.35583 18.30817 0 0 0
1092 1 1 0 7.26473 35.17518 18.56727 0 0 0
1093 80 2 0 6.458 35.82692 19.374 0 0 0
1094 80 2 0 6.458 37.32258999999999 19.374 0 0 0
1095 80 2 0 7.31226 38.04589 18.51974 0 0 0
1096 80 3 0 7.984929999999999 37.52821 17.84707 0 0 0
1097 1 1 0 18.56727 33.09673 9.34318 0 0 0
1098 77 2 0 18.51974 33.14426 12.21389 0 0 0
1099 77 3 0 17.84707 33.81693 11.69621 0 0 0
1100 1 1 0 7.26473 44.39927 9.34318 0 0 0
1101 76 2 0 7.31226 44.35174 12.21389 0 0 0
1102 76 3 0 7.984929999999999 43.67907 11.69621 0 0 0
1103 1 1 0 7.26473 33.09673 16.48882 0 0 0
1104 79 2 0 7.31226 33.14426 13.61811 0 0 0
1105 79 3 0 7.984929999999999 33.81693 14.13579 0 0 0
1106 1 1 0 18.56727 44.39927 16.48882 0 0 0
1107 78 2 0 18.51974 44.35174 13.61811 0 0 0
1108 78 3 0 17.84707 43.67907 14.13579 0 0 0
1109 1 1 0 20.18073 35.17518 5.65127 0 0 0
1110 81 2 0 20.22826 38.04589 5.60374 0 0 0
1111 81 3 0 20.90093 37.52821 4.93107 0 0 0
1112 1 1 0 5.65127 35.17518 20.18073 0 0 0
1113 80 2 0 5.60374 38.04589 20.22826 0 0 0
1114 80 3 0 4.93107 37.52821 20.90093 0 0 0
1115 1 1 0 20.18073 42.32082 20.18073 0 0 0
1116 83 2 0 20.22826 39.45011 20.22826 0 0 0
1117 83 3 0 20.90093 39.96779 20.90093 0 0 0
1118 1 1 0 5.65127 42.32082 5.65127 0 0 0
1119 82 2 0 5.60374 39.45011 5.60374 0 0 0
1120 82 3 0 4.93107 39.96779 4.93107 0 0 0
1121 1 1 0 20.18073 31.48327 16.48882 0 0 0
1122 77 2 0 20.22826 31.435740000000003 13.61811 0 0 0
1123 77 3 0 20.90093 30.76307 14.13579 0 0 0
1124 1 1 0 5.65127 46.01273 16.48882 0 0 0
1125 76 2 0 5.60374 46.06026 13.61811 0 0 0
1126 76 3 0 4.93107 46.73293 14.13579 0 0 0
1127 1 1 0 20.18073 46.01273 9.34318 0 0 0
1128 78 2 0 20.22826 46.06026 12.21389 0 0 0
1129 78 3 0 20.90093 46.73293 11.69621 0 0 0
1130 1 1 0 5.65127 31.48327 9.34318 0 0 0
1131 79 2 0 5.60374 31.435740000000003 12.21389 0 0 0
1132 79 3 0 4.93107 30.76307 11.69621 0 0 0
1133 1 1 0 18.56727 35.17518 18.56727 0 0 0
1134 83 2 0 18.51974 38.04589 18.51974 0 0 0
1135 83 3 0 17.84707 37.52821 17.84707 0 0 0
1136 1 1 0 7.26473 35.17518 7.26473 0 0 0
1137 82 2 0 7.31226 38.04589 7.31226 0 0 0
1138 82 3 0 7.984929999999999 37.52821 7.984929999999999 0 0 0
1139 1 1 0 7.26473 42.32082 18.56727 0 0 0
1140 80 2 0 7.31226 39.45011 18.51974 0 0 0
1141 80 3 0 7.984929999999999 39.96779 17.84707 0 0 0
1142 1 1 0 18.56727 42.32082 7.26473 0 0 0
1143 81 2 0 18.51974 39.45011 7.31226 0 0 0
1144 81 3 0 17.84707 39.96779 7.984929999999999 0 0 0
1145 1 1 0 16.48882 33.09673 18.56727 0 0 0
1146 84 2 0 15.837079999999998 32.29 19.374 0 0 0
1147 84 2 0 14.341409999999998 32.29 19.374 0 0 0
1148 84 2 0 13.61811 33.14426 18.51974 0 0 0
1149 84 3 0 14.13579 33.81693 17.84707 0 0 0
1150 1 1 0 16.48882 44.39927 7.26473 0 0 0
1151 85 2 0 15.837079999999998 45.206 6.458 0 0 0
1152 85 2 0 14.341409999999998 45.206 6.458 0 0 0
1153 85 2 0 13.61811 44.35174 7.31226 0 0 0
1154 85 3 0 14.13579 43.67907 7.984929999999999 0 0 0
1155 1 1 0 9.34318 44.39927 18.56727 0 0 0
1156 86 2 0 9.99492 45.206 19.374 0 0 0
1157 86 2 0 11.49059 45.206 19.374 0 0 0
1158 86 2 0 12.21389 44.35174 18.51974 0 0 0
1159 86 3 0 11.69621 43.67907 17.84707 0 0 0
1160 1 1 0 9.34318 33.09673 7.26473 0 0 0
1161 87 2 0 9.99492 32.29 6.458 0 0 0
1162 87 2 0 11.49059 32.29 6.458 0 0 0
1163 87 2 0 12.21389 33.14426 7.31226 0 0 0
1164 87 3 0 11.69621 33.81693 7.984929999999999 0 0 0
1165 1 1 0 16.48882 31.48327 5.65127 0 0 0
1166 87 2 0 15.837079999999998 32.29 6.458 0 0 0
1167 87 2 0 14.341409999999998 32.29 6.458 0 0 0
1168 87 2 0 13.61811 31.435740000000003 5.60374 0 0 0
1169 87 3 0 14.13579 30.76307 4.93107 0 0 0
1170 1 1 0 16.48882 46.01273 20.18073 0 0 0
1171 86 2 0 15.837079999999998 45.206 19.374 0 0 0
1172 86 2 0 14.341409999999998 45.206 19.374 0 0 0
1173 86 2 0 13.61811 46.06026 20.22826 0 0 0
1174 86 3 0 14.13579 46.73293 20.90093 0 0 0
1175 1 1 0 9.34318 31.48327 20.18073 0 0 0
1176 84 2 0 9.99492 32.29 19.374 0 0 0
1177 84 2 0 11.49059 32.29 19.374 0 0 0
1178 84 2 0 12.21389 31.435740000000003 20.22826 0 0 0
1179 84 3 0 11.69621 30.76307 20.90093 0 0 0
1180 1 1 0 9.34318 46.01273 5.65127 0 0 0
1181 85 2 0 9.99492 45.206 6.458 0 0 0
1182 85 2 0 11.49059 45.206 6.458 0 0 0
1183 85 2 0 12.21389 46.06026 5.60374 0 0 0
1184 85 3 0 11.69621 46.73293 4.93107 0 0 0
1185 1 1 0 9.34318 44.39927 7.26473 0 0 0
1186 85 2 0 12.21389 44.35174 7.31226 0 0 0
1187 85 3 0 11.69621 43.67907 7.984929999999999 0 0 0
1188 1 1 0 9.34318 33.09673 18.56727 0 0 0
1189 84 2 0 12.21389 33.14426 18.51974 0 0 0
1190 84 3 0 11.69621 33.81693 17.84707 0 0 0
1191 1 1 0 16.48882 33.09673 7.26473 0 0 0
1192 87 2 0 13.61811 33.14426 7.31226 0 0 0
1193 87 3 0 14.13579 33.81693 7.984929999999999 0 0 0
1194 1 1 0 16.48882 44.39927 18.56727 0 0 0
1195 86 2 0 13.61811 44.35174 18.51974 0 0 0
1196 86 3 0 14.13579 43.67907 17.84707 0 0 0
1197 1 1 0 9.34318 46.01273 20.18073 0 0 0
1198 86 2 0 12.21389 46.06026 20.22826 0 0 0
1199 86 3 0 11.69621 46.73293 20.90093 0 0 0
1200 1 1 0 9.34318 31.48327 5.65127 0 0 0
1201 87 2 0 12.21389 31.435740000000003 5.60374 0 0 0
1202 87 3 0 11.69621 30.76307 4.93107 0 0 0
1203 1 1 0 16.48882 46.01273 5.65127 0 0 0
1204 85 2 0 13.61811 46.06026 5.60374 0 0 0
1205 85 3 0 14.13579 46.73293 4.93107 0 0 0
1206 1 1 0 16.48882 31.48327 20.18073 0 0 0
1207 84 2 0 13.61811 31.435740000000003 20.22826 0 0 0
1208 84 3 0 14.13579 30.76307 20.90093 0 0 0
1209 1 1 0 18.56727 31.48327 22.25918 0 0 0
1210 1 1 0 7.26473 46.01273 22.25918 0 0 0
1211 1 1 0 22.25918 44.39927 5.65127 0 0 0
1212 1 1 0 22.25918 33.09673 20.18073 0 0 0
1213 1 1 0 5.65127 48.09118 18.56727 0 0 0
1214 1 1 0 20.18073 48.09118 7.26473 0 0 0
1215 1 1 0 5.65127 33.09673 22.25918 0 0 0
1216 1 1 0 20.18073 44.39927 22.25918 0 0 0
1217 1 1 0 18.56727 46.01273 22.25918 0 0 0
1218 1 1 0 7.26473 31.48327 22.25918 0 0 0
1219 1 1 0 20.18073 33.09673 22.25918 0 0 0
1220 1 1 0 5.65127 44.39927 22.25918 0 0 0
1221 1 1 0 18.56727 48.09118 5.65127 0 0 0
1222 1 1 0 7.26473 48.09118 20.18073 0 0 0
1223 1 1 0 22.25918 46.01273 7.26473 0 0 0
1224 1 1 0 22.25918 31.48327 18.56727 0 0 0
1225 88 2 0 19.374 32.29 22.91092 0 0 0
1226 88 2 0 19.374 32.29 24.40659 0 0 0
1227 88 2 0 18.51974 31.435740000000003 25.12989 0 0 0
1228 88 3 0 17.84707 30.76307 24.61221 0 0 0
1229 89 2 0 6.458 45.206 22.91092 0 0 0
1230 89 2 0 6.458 45.206 24.40659 0 0 0
1231 89 2 0 7.31226 46.06026 25.12989 0 0 0
1232 89 3 0 7.984929999999999 46.73293 24.61221 0 0 0
1233 90 2 0 6.458 32.29 22.91092 0 0 0
1234 90 2 0 6.458 32.29 24.40659 0 0 0
1235 90 2 0 5.60374 33.14426 25.12989 0 0 0
1236 90 3 0 4.93107 33.81693 24.61221 0 0 0
1237 91 2 0 19.374 45.206 22.91092 0 0 0
1238 91 2 0 19.374 45.206 24.40659 0 0 0
1239 91 2 0 20.22826 44.35174 25.12989 0 0 0
1240 91 3 0 20.90093 43.67907 24.61221 0 0 0
1241 91 2 0 18.51974 46.06026 25.12989 0 0 0
1242 91 3 0 17.84707 46.73293 24.61221 0 0 0
1243 90 2 0 7.31226 31.435740000000003 25.12989 0 0 0
1244 90 3 0 7.984929999999999 30.76307 24.61221 0 0 0
1245 88 2 0 20.22826 33.14426 25.12989 0 0 0
1246 88 3 0 20.90093 33.81693 24.61221 0 0 0
1247 89 2 0 5.60374 44.35174 25.12989 0 0 0
1248 89 3 0 4.93107 43.67907 24.61221 0 0 0
1249 10 2 0 6.458 48.74292 19.374 0 0 0
1250 10 2 0 6.458 50.23859 19.374 0 0 0
1251 10 2 0 5.60374 50.96189 18.51974 0 0 0
1252 10 3 0 4.93107 50.44421 17.84707 0 0 0
1253 11 2 0 19.374 48.74292 6.458 0 0 0
1254 11 2 0 19.374 50.23859 6.458 0 0 0
1255 11 2 0 20.22826 50.96189 7.31226 0 0 0
1256 11 3 0 20.90093 50.44421 7.984929999999999 0 0 0
1257 11 2 0 18.51974 50.96189 5.60374 0 0 0
1258 11 3 0 17.84707 50.44421 4.93107 0 0 0
1259 10 2 0 7.31226 50.96189 20.22826 0 0 0
1260 10 3 0 7.984929999999999 50.44421 20.90093 0 0 0
1261 92 2 0 22.91092 45.206 6.458 0 0 0
1262 92 2 0 24.40659 45.206 6.458 0 0 0
1263 92 2 0 25.12989 44.35174 5.60374 0 0 0
1264 92 3 0 24.61221 43.67907 4.93107 0 0 0
1265 93 2 0 22.91092 32.29 19.374 0 0 0
1266 93 2 0 24.40659 32.29 19.374 0 0 0
1267 93 2 0 25.12989 33.14426 20.22826 0 0 0
1268 93 3 0 24.61221 33.81693 20.90093 0 0 0
1269 92 2 0 25.12989 46.06026 7.31226 0 0 0
1270 92 3 0 24.61221 46.73293 7.984929999999999 0 0 0
1271 93 2 0 25.12989 31.435740000000003 18.51974 0 0 0
1272 93 3 0 24.61221 30.76307 17.84707 0 0 0
1273 1 1 0 3.57282 33.09673 31.48327 0 0 0
1274 94 2 0 2.92108 32.29 32.29 0 0 0
1275 94 2 0 1.42541 32.29 32.29 0 0 0
1276 94 2 0 0.70211 33.14426 31.435740000000003 0 0 0
1277 94 3 0 1.21979 33.81693 30.76307 0 0 0
1278 1 1 0 3.57282 44.39927 46.01273 0 0 0
1279 95 2 0 2.92108 45.206 45.206 0 0 0
1280 95 2 0 1.42541 45.206 45.206 0 0 0
1281 95 2 0 0.70211 44.35174 46.06026 0 0 0
1282 95 3 0 1.21979 43.67907 46.73293 0 0 0
1283 1 1 0 3.57282 46.01273 44.39927 0 0 0
1284 95 2 0 0.70211 46.06026 44.35174 0 0 0
1285 95 3 0 1.21979 46.73293 43.67907 0 0 0
1286 1 1 0 3.57282 31.48327 33.09673 0 0 0
1287 94 2 0 0.70211 31.435740000000003 33.14426 0 0 0
1288 94 3 0 1.21979 30.76307 33.81693 0 0 0
1289 1 4 0 5.39217 33.35583 31.22417 0 0 0
1290 1 4 0 5.39217 44.14017 46.27183 0 0 0
1291 1 4 0 5.39217 31.22417 33.35583 0 0 0
1292 1 4 0 5.39217 46.27183 44.14017 0 0 0
1293 1 1 0 5.65127 29.40482 33.09673 0 0 0
1294 45 2 0 6.458 28.75308 32.29 0 0 0
1295 45 2 0 6.458 27.25741 32.29 0 0 0
1296 45 2 0 5.60374 26.53411 33.14426 0 0 0
1297 45 3 0 4.93107 27.051789999999997 33.81693 0 0 0
1298 1 1 0 20.18073 29.40482 44.39927 0 0 0
1299 44 2 0 19.374 28.75308 45.206 0 0 0
1300 44 2 0 19.374 27.25741 45.206 0 0 0
1301 44 2 0 20.22826 26.53411 44.35174 0 0 0
1302 44 3 0 20.90093 27.051789999999997 43.67907 0 0 0
1303 1 1 0 7.26473 29.40482 31.48327 0 0 0
1304 45 2 0 7.31226 26.53411 31.435740000000003 0 0 0
1305 45 3 0 7.984929999999999 27.051789999999997 30.76307 0 0 0
1306 1 1 0 18.56727 29.40482 46.01273 0 0 0
1307 44 2 0 18.51974 26.53411 46.06026 0 0 0
1308 44 3 0 17.84707 27.051789999999997 46.73293 0 0 0
1309 1 4 0 7.52383 31.22417 31.22417 0 0 0
1310 1 4 0 18.30817 31.22417 46.27183 0 0 0
1311 1 4 0 20.43983 31.22417 44.14017 0 0 0
1312 1 5 0 6.458 32.29 32.29 0 0 0
1313 1 1 0 7.26473 31.48327 29.40482 0 0 0
1314 90 2 0 6.458 32.29 28.75308 0 0 0
1315 90 2 0 6.458 32.29 27.25741 0 0 0
1316 90 2 0 7.31226 31.435740000000003 26.53411 0 0 0
1317 90 3 0 7.984929999999999 30.76307 27.051789999999997 0 0 0
1318 1 4 0 18.30817 46.27183 31.22417 0 0 0
1319 1 5 0 19.374 45.206 32.29 0 0 0
1320 1 1 0 18.56727 46.01273 29.40482 0 0 0
1321 91 2 0 19.374 45.206 28.75308 0 0 0
1322 91 2 0 19.374 45.206 27.25741 0 0 0
1323 91 2 0 18.51974 46.06026 26.53411 0 0 0
1324 91 3 0 17.84707 46.73293 27.051789999999997 0 0 0
1325 1 5 0 19.374 32.29 45.206 0 0 0
1326 1 4 0 7.52383 46.27183 46.27183 0 0 0
1327 1 5 0 6.458 45.206 45.206 0 0 0
1328 1 4 0 20.43983 44.14017 31.22417 0 0 0
1329 1 4 0 20.43983 33.35583 46.27183 0 0 0
1330 1 4 0 20.43983 46.27183 33.35583 0 0 0
1331 1 4 0 5.39217 33.35583 46.27183 0 0 0
1332 1 5 0 6.458 32.29 45.206 0 0 0
1333 1 4 0 20.43983 44.14017 46.27183 0 0 0
1334 1 5 0 19.374 45.206 45.206 0 0 0
1335 1 4 0 5.39217 44.14017 31.22417 0 0 0
1336 1 5 0 6.458 45.206 32.29 0 0 0
1337 1 1 0 5.65127 44.39927 29.40482 0 0 0
1338 89 2 0 6.458 45.206 28.75308 0 0 0
1339 89 2 0 6.458 45.206 27.25741 0 0 0
1340 89 2 0 5.60374 44.35174 26.53411 0 0 0
1341 89 3 0 4.93107 43.67907 27.051789999999997 0 0 0
1342 1 4 0 20.43983 33.35583 31.22417 0 0 0
1343 1 5 0 19.374 32.29 32.29 0 0 0
1344 1 1 0 20.18073 33.09673 29.40482 0 0 0
1345 88 2 0 19.374 32.29 28.75308 0 0 0
1346 88 2 0 19.374 32.29 27.25741 0 0 0
1347 88 2 0 20.22826 33.14426 26.53411 0 0 0
1348 88 3 0 20.90093 33.81693 27.051789999999997 0 0 0
1349 1 4 0 7.52383 31.22417 46.27183 0 0 0
1350 1 1 0 7.26473 29.40482 46.01273 0 0 0
1351 62 2 0 6.458 28.75308 45.206 0 0 0
1352 62 2 0 6.458 27.25741 45.206 0 0 0
1353 62 2 0 7.31226 26.53411 46.06026 0 0 0
1354 62 3 0 7.984929999999999 27.051789999999997 46.73293 0 0 0
1355 1 4 0 18.30817 31.22417 31.22417 0 0 0
1356 1 1 0 18.56727 29.40482 31.48327 0 0 0
1357 63 2 0 19.374 28.75308 32.29 0 0 0
1358 63 2 0 19.374 27.25741 32.29 0 0 0
1359 63 2 0 18.51974 26.53411 31.435740000000003 0 0 0
1360 63 3 0 17.84707 27.051789999999997 30.76307 0 0 0
1361 1 4 0 18.30817 46.27183 46.27183 0 0 0
1362 1 1 0 18.56727 48.09118 46.01273 0 0 0
1363 41 2 0 19.374 48.74292 45.206 0 0 0
1364 41 2 0 19.374 50.23859 45.206 0 0 0
1365 41 2 0 18.51974 50.96189 46.06026 0 0 0
1366 41 3 0 17.84707 50.44421 46.73293 0 0 0
1367 1 4 0 7.52383 46.27183 31.22417 0 0 0
1368 1 1 0 7.26473 48.09118 31.48327 0 0 0
1369 40 2 0 6.458 48.74292 32.29 0 0 0
1370 40 2 0 6.458 50.23859 32.29 0 0 0
1371 40 2 0 7.31226 50.96189 31.435740000000003 0 0 0
1372 40 3 0 7.984929999999999 50.44421 30.76307 0 0 0
1373 1 4 0 5.39217 31.22417 44.14017 0 0 0
1374 1 1 0 3.57282 31.48327 44.39927 0 0 0
1375 96 2 0 2.92108 32.29 45.206 0 0 0
1376 96 2 0 1.42541 32.29 45.206 0 0 0
1377 96 2 0 0.70211 31.435740000000003 44.35174 0 0 0
1378 96 3 0 1.21979 30.76307 43.67907 0 0 0
1379 1 4 0 5.39217 46.27183 33.35583 0 0 0
1380 1 1 0 3.57282 46.01273 33.09673 0 0 0
1381 97 2 0 2.92108 45.206 32.29 0 0 0
1382 97 2 0 1.42541 45.206 32.29 0 0 0
1383 97 2 0 0.70211 46.06026 33.14426 0 0 0
1384 97 3 0 1.21979 46.73293 33.81693 0 0 0
1385 1 4 0 20.43983 31.22417 33.35583 0 0 0
1386 1 1 0 22.25918 31.48327 33.09673 0 0 0
1387 98 2 0 22.91092 32.29 32.29 0 0 0
1388 98 2 0 24.40659 32.29 32.29 0 0 0
1389 98 2 0 25.12989 31.435740000000003 33.14426 0 0 0
1390 98 3 0 24.61221 30.76307 33.81693 0 0 0
1391 1 4 0 20.43983 46.27183 44.14017 0 0 0
1392 1 1 0 22.25918 46.01273 44.39927 0 0 0
1393 99 2 0 22.91092 45.206 45.206 0 0 0
1394 99 2 0 24.40659 45.206 45.206 0 0 0
1395 99 2 0 25.12989 46.06026 44.35174 0 0 0
1396 99 3 0 24.61221 46.73293 43.67907 0 0 0
1397 1 1 0 7.26473 46.01273 29.40482 0 0 0
1398 89 2 0 7.31226 46.06026 26.53411 0 0 0
1399 89 3 0 7.984929999999999 46.73293 27.051789999999997 0 0 0
1400 1 1 0 18.56727 31.48327 29.40482 0 0 0
1401 88 2 0 18.51974 31.435740000000003 26.53411 0 0 0
1402 88 3 0 17.84707 30.76307 27.051789999999997 0 0 0
1403 1 1 0 22.25918 44.39927 46.01273 0 0 0
1404 99 2 0 25.12989 44.35174 46.06026 0 0 0
1405 99 3 0 24.61221 43.67907 46.73293 0 0 0
1406 1 1 0 22.25918 33.09673 31.48327 0 0 0
1407 98 2 0 25.12989 33.14426 31.435740000000003 0 0 0
1408 98 3 0 24.61221 33.81693 30.76307 0 0 0
1409 1 1 0 3.57282 33.09673 46.01273 0 0 0
1410 96 2 0 0.70211 33.14426 46.06026 0 0 0
1411 96 3 0 1.21979 33.81693 46.73293 0 0 0
1412 1 1 0 3.57282 44.39927 31.48327 0 0 0
1413 97 2 0 0.70211 44.35174 31.435740000000003 0 0 0
1414 97 3 0 1.21979 43.67907 30.76307 0 0 0
1415 1 1 0 20.18073 48.09118 44.39927 0 0 0
1416 41 2 0 20.22826 50.96189 44.35174 0 0 0
1417 41 3 0 20.90093 50.44421 43.67907 0 0 0
1418 1 1 0 5.65127 48.09118 33.09673 0 0 0
1419 40 2 0 5.60374 50.96189 33.14426 0 0 0
1420 40 3 0 4.93107 50.44421 33.81693 0 0 0
1421 1 1 0 20.18073 29.40482 33.09673 0 0 0
1422 63 2 0 20.22826 26.53411 33.14426 0 0 0
1423 63 3 0 20.90093 27.051789999999997 33.81693 0 0 0
1424 1 1 0 5.65127 29.40482 44.39927 0 0 0
1425 62 2 0 5.60374 26.53411 44.35174 0 0 0
1426 62 3 0 4.93107 27.051789999999997 43.67907 0 0 0
1427 1 1 0 20.18073 44.39927 29.40482 0 0 0
1428 91 2 0 20.22826 44.35174 26.53411 0 0 0
1429 91 3 0 20.90093 43.67907 27.051789999999997 0 0 0
1430 1 1 0 5.65127 33.09673 29.40482 0 0 0
1431 90 2 0 5.60374 33.14426 26.53411 0 0 0
1432 90 3 0 4.93107 33.81693 27.051789999999997 0 0 0
1433 1 4 0 7.52383 44.14017 44.14017 0 0 0
1434 1 1 0 7.26473 44.39927 42.32082 0 0 0
1435 100 2 0 6.458 45.206 41.66908 0 0 0
1436 100 2 0 6.458 45.206 40.17341 0 0 0
1437 100 2 0 7.31226 44.35174 39.45011 0 0 0
1438 100 3 0 7.984929999999999 43.67907 39.96779 0 0 0
1439 1 4 0 18.30817 33.35583 44.14017 0 0 0
1440 1 1 0 18.56727 33.09673 42.32082 0 0 0
1441 101 2 0 19.374 32.29 41.66908 0 0 0
1442 101 2 0 19.374 32.29 40.17341 0 0 0
1443 101 2 0 18.51974 33.14426 39.45011 0 0 0
1444 101 3 0 17.84707 33.81693 39.96779 0 0 0
1445 1 4 0 18.30817 44.14017 33.35583 0 0 0
1446 1 1 0 18.56727 44.39927 35.17518 0 0 0
1447 102 2 0 19.374 45.206 35.82692 0 0 0
1448 102 2 0 19.374 45.206 37.32258999999999 0 0 0
1449 102 2 0 18.51974 44.35174 38.04589 0 0 0
1450 102 3 0 17.84707 43.67907 37.52821 0 0 0
1451 1 4 0 7.52383 33.35583 33.35583 0 0 0
1452 1 1 0 7.26473 33.09673 35.17518 0 0 0
1453 103 2 0 6.458 32.29 35.82692 0 0 0
1454 103 2 0 6.458 32.29 37.32258999999999 0 0 0
1455 103 2 0 7.31226 33.14426 38.04589 0 0 0
1456 103 3 0 7.984929999999999 33.81693 37.52821 0 0 0
1457 1 1 0 5.65127 42.32082 46.01273 0 0 0
1458 104 2 0 6.458 41.66908 45.206 0 0 0
1459 104 2 0 6.458 40.17341 45.206 0 0 0
1460 104 2 0 5.60374 39.45011 46.06026 0 0 0
1461 104 3 0 4.93107 39.96779 46.73293 0 0 0
1462 1 1 0 20.18073 42.32082 31.48327 0 0 0
1463 105 2 0 19.374 41.66908 32.29 0 0 0
1464 105 2 0 19.374 40.17341 32.29 0 0 0
1465 105 2 0 20.22826 39.45011 31.435740000000003 0 0 0
1466 105 3 0 20.90093 39.96779 30.76307 0 0 0
1467 1 1 0 5.65127 35.17518 31.48327 0 0 0
1468 106 2 0 6.458 35.82692 32.29 0 0 0
1469 106 2 0 6.458 37.32258999999999 32.29 0 0 0
1470 106 2 0 5.60374 38.04589 31.435740000000003 0 0 0
1471 106 3 0 4.93107 37.52821 30.76307 0 0 0
1472 1 1 0 20.18073 35.17518 46.01273 0 0 0
1473 107 2 0 19.374 35.82692 45.206 0 0 0
1474 107 2 0 19.374 37.32258999999999 45.206 0 0 0
1475 107 2 0 20.22826 38.04589 46.06026 0 0 0
1476 107 3 0 20.90093 37.52821 46.73293 0 0 0
1477 1 1 0 5.65127 46.01273 35.17518 0 0 0
1478 100 2 0 6.458 45.206 35.82692 0 0 0
1479 100 2 0 6.458 45.206 37.32258999999999 0 0 0
1480 100 2 0 5.60374 46.06026 38.04589 0 0 0
1481 100 3 0 4.93107 46.73293 37.52821 0 0 0
1482 1 1 0 20.18073 31.48327 35.17518 0 0 0
1483 101 2 0 19.374 32.29 35.82692 0 0 0
1484 101 2 0 19.374 32.29 37.32258999999999 0 0 0
1485 101 2 0 20.22826 31.435740000000003 38.04589 0 0 0
1486 101 3 0 20.90093 30.76307 37.52821 0 0 0
1487 1 1 0 5.65127 31.48327 42.32082 0 0 0
1488 103 2 0 6.458 32.29 41.66908 0 0 0
1489 103 2 0 6.458 32.29 40.17341 0 0 0
1490 103 2 0 5.60374 31.435740000000003 39.45011 0 0 0
1491 103 3 0 4.93107 30.76307 39.96779 0 0 0
1492 1 1 0 20.18073 46.01273 42.32082 0 0 0
1493 102 2 0 19.374 45.206 41.66908 0 0 0
1494 102 2 0 19.374 45.206 40.17341 0 0 0
1495 102 2 0 20.22826 46.06026 39.45011 0 0 0
1496 102 3 0 20.90093 46.73293 39.96779 0 0 0
1497 1 4 0 7.52383 44.14017 33.35583 0 0 0
1498 1 1 0 7.26473 42.32082 33.09673 0 0 0
1499 106 2 0 6.458 41.66908 32.29 0 0 0
1500 106 2 0 6.458 40.17341 32.29 0 0 0
1501 106 2 0 7.31226 39.45011 33.14426 0 0 0
1502 106 3 0 7.984929999999999 39.96779 33.81693 0 0 0
1503 1 4 0 18.30817 44.14017 44.14017 0 0 0
1504 1 1 0 18.56727 42.32082 44.39927 0 0 0
1505 107 2 0 19.374 41.66908 45.206 0 0 0
1506 107 2 0 19.374 40.17341 45.206 0 0 0
1507 107 2 0 18.51974 39.45011 44.35174 0 0 0
1508 107 3 0 17.84707 39.96779 43.67907 0 0 0
1509 1 4 0 18.30817 33.35583 33.35583 0 0 0
1510 1 1 0 18.56727 35.17518 33.09673 0 0 0
1511 105 2 0 19.374 35.82692 32.29 0 0 0
1512 105 2 0 19.374 37.32258999999999 32.29 0 0 0
1513 105 2 0 18.51974 38.04589 33.14426 0 0 0
1514 105 3 0 17.84707 37.52821 33.81693 0 0 0
1515 1 4 0 7.52383 33.35583 44.14017 0 0 0
1516 1 1 0 7.26473 35.17518 44.39927 0 0 0
1517 104 2 0 6.458 35.82692 45.206 0 0 0
1518 104 2 0 6.458 37.32258999999999 45.206 0 0 0
1519 104 2 0 7.31226 38.04589 44.35174 0 0 0
1520 104 3 0 7.984929999999999 37.52821 43.67907 0 0 0
1521 1 1 0 18.56727 33.09673 35.17518 0 0 0
1522 101 2 0 18.51974 33.14426 38.04589 0 0 0
1523 101 3 0 17.84707 33.81693 37.52821 0 0 0
1524 1 1 0 7.26473 44.39927 35.17518 0 0 0
1525 100 2 0 7.31226 44.35174 38.04589 0 0 0
1526 100 3 0 7.984929999999999 43.67907 37.52821 0 0 0
1527 1 1 0 7.26473 33.09673 42.32082 0 0 0
1528 103 2 0 7.31226 33.14426 39.45011 0 0 0
1529 103 3 0 7.984929999999999 33.81693 39.96779 0 0 0
1530 1 1 0 18.56727 44.39927 42.32082 0 0 0
1531 102 2 0 18.51974 44.35174 39.45011 0 0 0
1532 102 3 0 17.84707 43.67907 39.96779 0 0 0
1533 1 1 0 20.18073 35.17518 31.48327 0 0 0
1534 105 2 0 20.22826 38.04589 31.435740000000003 0 0 0
1535 105 3 0 20.90093 37.52821 30.76307 0 0 0
1536 1 1 0 5.65127 35.17518 46.01273 0 0 0
1537 104 2 0 5.60374 38.04589 46.06026 0 0 0
1538 104 3 0 4.93107 37.52821 46.73293 0 0 0
1539 1 1 0 20.18073 42.32082 46.01273 0 0 0
1540 107 2 0 20.22826 39.45011 46.06026 0 0 0
1541 107 3 0 20.90093 39.96779 46.73293 0 0 0
1542 1 1 0 5.65127 42.32082 31.48327 0 0 0
1543 106 2 0 5.60374 39.45011 31.435740000000003 0 0 0
1544 106 3 0 4.93107 39.96779 30.76307 0 0 0
1545 1 1 0 20.18073 31.48327 42.32082 0 0 0
1546 101 2 0 20.22826 31.435740000000003 39.45011 0 0 0
1547 101 3 0 20.90093 30.76307 39.96779 0 0 0
1548 1 1 0 5.65127 46.01273 42.32082 0 0 0
1549 100 2 0 5.60374 46.06026 39.45011 0 0 0
1550 100 3 0 4.93107 46.73293 39.96779 0 0 0
1551 1 1 0 20.18073 46.01273 35.17518 0 0 0
1552 102 2 0 20.22826 46.06026 38.04589 0 0 0
1553 102 3 0 20.90093 46.73293 37.52821 0 0 0
1554 1 1 0 5.65127 31.48327 35.17518 0 0 0
1555 103 2 0 5.60374 31.435740000000003 38.04589 0 0 0
1556 103 3 0 4.93107 30.76307 37.52821 0 0 0
1557 1 1 0 18.56727 35.17518 44.39927 0 0 0
1558 107 2 0 18.51974 38.04589 44.35174 0 0 0
1559 107 3 0 17.84707 37.52821 43.67907 0 0 0
1560 1 1 0 7.26473 35.17518 33.09673 0 0 0
1561 106 2 0 7.31226 38.04589 33.14426 0 0 0
1562 106 3 0 7.984929999999999 37.52821 33.81693 0 0 0
1563 1 1 0 7.26473 42.32082 44.39927 0 0 0
1564 104 2 0 7.31226 39.45011 44.35174 0 0 0
1565 104 3 0 7.984929999999999 39.96779 43.67907 0 0 0
1566 1 1 0 18.56727 42.32082 33.09673 0 0 0
1567 105 2 0 18.51974 39.45011 33.14426 0 0 0
1568 105 3 0 17.84707 39.96779 33.81693 0 0 0
1569 1 1 0 16.48882 33.09673 44.39927 0 0 0
1570 108 2 0 15.837079999999998 32.29 45.206 0 0 0
1571 108 2 0 14.341409999999998 32.29 45.206 0 0 0
1572 108 2 0 13.61811 33.14426 44.35174 0 0 0
1573 108 3 0 14.13579 33.81693 43.67907 0 0 0
1574 1 1 0 16.48882 44.39927 33.09673 0 0 0
1575 109 2 0 15.837079999999998 45.206 32.29 0 0 0
1576 109 2 0 14.341409999999998 45.206 32.29 0 0 0
1577 109 2 0 13.61811 44.35174 33.14426 0 0 0
1578 109 3 0 14.13579 43.67907 33.81693 0 0 0
1579 1 1 0 9.34318 44.39927 44.39927 0 0 0
1580 110 2 0 9.99492 45.206 45.206 0 0 0
1581 110 2 0 11.49059 45.206 45.206 0 0 0
1582 110 2 0 12.21389 44.35174 44.35174 0 0 0
1583 110 3 0 11.69621 43.67907 43.67907 0 0 0
1584 1 1 0 9.34318 33.09673 33.09673 0 0 0
1585 111 2 0 9.99492 32.29 32.29 0 0 0
1586 111 2 0 11.49059 32.29 32.29 0 0 0
1587 111 2 0 12.21389 33.14426 33.14426 0 0 0
1588 111 3 0 11.69621 33.81693 33.81693 0 0 0
1589 1 1 0 16.48882 31.48327 31.48327 0 0 0
1590 111 2 0 15.837079999999998 32.29 32.29 0 0 0
1591 111 2 0 14.341409999999998 32.29 32.29 0 0 0
1592 111 2 0 13.61811 31.435740000000003 31.435740000000003 0 0 0
1593 111 3 0 14.13579 30.76307 30.76307 0 0 0
1594 1 1 0 16.48882 46.01273 46.01273 0 0 0
1595 110 2 0 15.837079999999998 45.206 45.206 0 0 0
1596 110 2 0 14.341409999999998 45.206 45.206 0 0 0
1597 110 2 0 13.61811 46.06026 46.06026 0 0 0
1598 110 3 0 14.13579 46.73293 46.73293 0 0 0
1599 1 1 0 9.34318 31.48327 46.01273 0 0 0
1600 108 2 0 9.99492 32.29 45.206 0 0 0
1601 108 2 0 11.49059 32.29 45.206 0 0 0
1602 108 2 0 12.21389 31.435740000000003 46.06026 0 0 0
1603 108 3 0 11.69621 30.76307 46.73293 0 0 0
1604 1 1 0 9.34318 46.01273 31.48327 0 0 0
1605 109 2 0 9.99492 45.206 32.29 0 0 0
1606 109 2 0 11.49059 45.206 32.29 0 0 0
1607 109 2 0 12.21389 46.06026 31.435740000000003 0 0 0
1608 109 3 0 11.69621 46.73293 30.76307 0 0 0
1609 1 1 0 9.34318 44.39927 33.09673 0 0 0
1610 109 2 0 12.21389 44.35174 33.14426 0 0 0
1611 109 3 0 11.69621 43.67907 33.81693 0 0 0
1612 1 1 0 9.34318 33.09673 44.39927 0 0 0
1613 108 2 0 12.21389 33.14426 44.35174 0 0 0
1614 108 3 0 11.69621 33.81693 43.67907 0 0 0
1615 1 1 0 16.48882 33.09673 33.09673 0 0 0
1616 111 2 0 13.61811 33.14426 33.14426 0 0 0
1617 111 3 0 14.13579 33.81693 33.81693 0 0 0
1618 1 1 0 16.48882 44.39927 44.39927 0 0 0
1619 110 2 0 13.61811 44.35174 44.35174 0 0 0
1620 110 3 0 14.13579 43.67907 43.67907 0 0 0
1621 1 1 0 9.34318 46.01273 46.01273 0 0 0
1622 110 2 0 12.21389 46.06026 46.06026 0 0 0
1623 110 3 0 11.69621 46.73293 46.73293 0 0 0
1624 1 1 0 9.34318 31.48327 31.48327 0 0 0
1625 111 2 0 12.21389 31.435740000000003 31.435740000000003 0 0 0
1626 111 3 0 11.69621 30.76307 30.76307 0 0 0
1627 1 1 0 16.48882 46.01273 31.48327 0 0 0
1628 109 2 0 13.61811 46.06026 31.435740000000003 0 0 0
1629 109 3 0 14.13579 46.73293 30.76307 0 0 0
1630 1 1 0 16.48882 31.48327 46.01273 0 0 0
1631 108 2 0 13.61811 31.435740000000003 46.06026 0 0 0
1632 108 3 0 14.13579 30.76307 46.73293 0 0 0
1633 1 1 0 18.56727 31.48327 48.09118 0 0 0
1634 1 1 0 7.26473 46.01273 48.09118 0 0 0
1635 1 1 0 22.25918 44.39927 31.48327 0 0 0
1636 1 1 0 22.25918 33.09673 46.01273 0 0 0
1637 1 1 0 5.65127 48.09118 44.39927 0 0 0
1638 1 1 0 20.18073 48.09118 33.09673 0 0 0
1639 1 1 0 5.65127 33.09673 48.09118 0 0 0
1640 1 1 0 20.18073 44.39927 48.09118 0 0 0
1641 1 1 0 18.56727 46.01273 48.09118 0 0 0
1642 1 1 0 7.26473 31.48327 48.09118 0 0 0
1643 1 1 0 20.18073 33.09673 48.09118 0 0 0
1644 1 1 0 5.65127 44.39927 48.09118 0 0 0
1645 1 1 0 18.56727 48.09118 31.48327 0 0 0
1646 1 1 0 7.26473 48.09118 46.01273 0 0 0
1647 1 1 0 22.25918 46.01273 33.09673 0 0 0
1648 1 1 0 22.25918 31.48327 44.39927 0 0 0
1649 71 2 0 19.374 32.29 48.74292 0 0 0
1650 71 2 0 19.374 32.29 50.23859 0 0 0
1651 71 2 0 18.51974 31.435740000000003 50.96189 0 0 0
1652 71 3 0 17.84707 30.76307 50.44421 0 0 0
1653 70 2 0 6.458 45.206 48.74292 0 0 0
1654 70 2 0 6.458 45.206 50.23859 0 0 0
1655 70 2 0 7.31226 46.06026 50.96189 0 0 0
1656 70 3 0 7.984929999999999 46.73293 50.44421 0 0 0
1657 68 2 0 6.458 32.29 48.74292 0 0 0
1658 68 2 0 6.458 32.29 50.23859 0 0 0
1659 68 2 0 5.60374 33.14426 50.96189 0 0 0
1660 68 3 0 4.93107 33.81693 50.44421 0 0 0
1661 69 2 0 19.374 45.206 48.74292 0 0 0
1662 69 2 0 19.374 45.206 50.23859 0 0 0
1663 69 2 0 20.22826 44.35174 50.96189 0 0 0
1664 69 3 0 20.90093 43.67907 50.44421 0 0 0
1665 69 2 0 18.51974 46.06026 50.96189 0 0 0
1666 69 3 0 17.84707 46.73293 50.44421 0 0 0
1667 68 2 0 7.31226 31.435740000000003 50.96189 0 0 0
1668 68 3 0 7.984929999999999 30.76307 50.44421 0 0 0
1669 71 2 0 20.22826 33.14426 50.96189 0 0 0
1670 71 3 0 20.90093 33.81693 50.44421 0 0 0
1671 70 2 0 5.60374 44.35174 50.96189 0 0 0
1672 70 3 0 4.93107 43.67907 50.44421 0 0 0
1673 42 2 0 6.458 48.74292 45.206 0 0 0
1674 42 2 0 6.458 50.23859 45.206 0 0 0
1675 42 2 0 5.60374 50.96189 44.35174 0 0 0
1676 42 3 0 4.93107 50.44421 43.67907 0 0 0
1677 43 2 0 19.374 48.74292 32.29 0 0 0
1678 43 2 0 19.374 50.23859 32.29 0 0 0
1679 43 2 0 20.22826 50.96189 33.14426 0 0 0
1680 43 3 0 20.90093 50.44421 33.81693 0 0 0
1681 43 2 0 18.51974 50.96189 31.435740000000003 0 0 0
1682 43 3 0 17.84707 50.44421 30.76307 0 0 0
1683 42 2 0 7.31226 50.96189 46.06026 0 0 0
1684 42 3 0 7.984929999999999 50.44421 46.73293 0 0 0
1685 112 2 0 22.91092 45.206 32.29 0 0 0
1686 112 2 0 24.40659 45.206 32.29 0 0 0
1687 112 2 0 25.12989 44.35174 31.435740000000003 0 0 0
1688 112 3 0 24.61221 43.67907 30.76307 0 0 0
1689 113 2 0 22.91092 32.29 45.206 0 0 0
1690 113 2 0 24.40659 32.29 45.206 0 0 0
1691 113 2 0 25.12989 33.14426 46.06026 0 0 0
1692 113 3 0 24.61221 33.81693 46.73293 0 0 0
1693 112 2 0 25.12989 46.06026 33.14426 0 0 0
1694 112 3 0 24.61221 46.73293 33.81693 0 0 0
1695 113 2 0 25.12989 31.435740000000003 44.35174 0 0 0
1696 113 3 0 24.61221 30.76307 43.67907 0 0 0
1697 1 1 0 29.40482 7.26473 5.65127 0 0 0
1698 16 2 0 28.75308 6.458 6.458 0 0 0
1699 16 2 0 27.25741 6.458 6.458 0 0 0
1700 16 2 0 26.53411 7.31226 5.60374 0 0 0
1701 16 3 0 27.051789999999997 7.984929999999999 4.93107 0 0 0
1702 1 1 0 29.40482 18.56727 20.18073 0 0 0
1703 17 2 0 28.75308 19.374 19.374 0 0 0
1704 17 2 0 27.25741 19.374 19.374 0 0 0
1705 17 2 0 26.53411 18.51974 20.22826 0 0 0
1706 17 3 0 27.051789999999997 17.84707 20.90093 0 0 0
1707 1 1 0 29.40482 20.18073 18.56727 0 0 0
1708 17 2 0 26.53411 20.22826 18.51974 0 0 0
1709 17 3 0 27.051789999999997 20.90093 17.84707 0 0 0
1710 1 1 0 29.40482 5.65127 7.26473 0 0 0
1711 16 2 0 26.53411 5.60374 7.31226 0 0 0
1712 16 3 0 27.051789999999997 4.93107 7.984929999999999 0 0 0
1713 1 4 0 31.22417 7.52383 5.39217 0 0 0
1714 1 4 0 31.22417 18.30817 20.43983 0 0 0
1715 1 4 0 31.22417 5.39217 7.52383 0 0 0
1716 1 4 0 31.22417 20.43983 18.30817 0 0 0
1717 1 1 0 31.48327 3.57282 7.26473 0 0 0
1718 114 2 0 32.29 2.92108 6.458 0 0 0
1719 114 2 0 32.29 1.42541 6.458 0 0 0
1720 114 2 0 31.435740000000003 0.70211 7.31226 0 0 0
1721 114 3 0 30.76307 1.21979 7.984929999999999 0 0 0
1722 1 1 0 46.01273 3.57282 18.56727 0 0 0
1723 115 2 0 45.206 2.92108 19.374 0 0 0
1724 115 2 0 45.206 1.42541 19.374 0 0 0
1725 115 2 0 46.06026 0.70211 18.51974 0 0 0
1726 115 3 0 46.73293 1.21979 17.84707 0 0 0
1727 1 1 0 33.09673 3.57282 5.65127 0 0 0
1728 114 2 0 33.14426 0.70211 5.60374 0 0 0
1729 114 3 0 33.81693 1.21979 4.93107 0 0 0
1730 1 1 0 44.39927 3.57282 20.18073 0 0 0
1731 115 2 0 44.35174 0.70211 20.22826 0 0 0
1732 115 3 0 43.67907 1.21979 20.90093 0 0 0
1733 1 4 0 33.35583 5.39217 5.39217 0 0 0
1734 1 4 0 44.14017 5.39217 20.43983 0 0 0
1735 1 4 0 46.27183 5.39217 18.30817 0 0 0
1736 1 5 0 32.29 6.458 6.458 0 0 0
1737 1 1 0 33.09673 5.65127 3.57282 0 0 0
1738 116 2 0 32.29 6.458 2.92108 0 0 0
1739 116 2 0 32.29 6.458 1.42541 0 0 0
1740 116 2 0 33.14426 5.60374 0.70211 0 0 0
1741 116 3 0 33.81693 4.93107 1.21979 0 0 0
1742 1 4 0 44.14017 20.43983 5.39217 0 0 0
1743 1 5 0 45.206 19.374 6.458 0 0 0
1744 1 1 0 44.39927 20.18073 3.57282 0 0 0
1745 117 2 0 45.206 19.374 2.92108 0 0 0
1746 117 2 0 45.206 19.374 1.42541 0 0 0
1747 117 2 0 44.35174 20.22826 0.70211 0 0 0
1748 117 3 0 43.67907 20.90093 1.21979 0 0 0
1749 1 5 0 45.206 6.458 19.374 0 0 0
1750 1 4 0 33.35583 20.43983 20.43983 0 0 0
1751 1 5 0 32.29 19.374 19.374 0 0 0
1752 1 4 0 46.27183 18.30817 5.39217 0 0 0
1753 1 4 0 46.27183 7.52383 20.43983 0 0 0
1754 1 4 0 46.27183 20.43983 7.52383 0 0 0
1755 1 4 0 31.22417 7.52383 20.43983 0 0 0
1756 1 5 0 32.29 6.458 19.374 0 0 0
1757 1 4 0 46.27183 18.30817 20.43983 0 0 0
1758 1 5 0 45.206 19.374 19.374 0 0 0
1759 1 4 0 31.22417 18.30817 5.39217 0 0 0
1760 1 5 0 32.29 19.374 6.458 0 0 0
1761 1 1 0 31.48327 18.56727 3.57282 0 0 0
1762 118 2 0 32.29 19.374 2.92108 0 0 0
1763 118 2 0 32.29 19.374 1.42541 0 0 0
1764 118 2 0 31.435740000000003 18.51974 0.70211 0 0 0
1765 118 3 0 30.76307 17.84707 1.21979 0 0 0
1766 1 4 0 46.27183 7.52383 5.39217 0 0 0
1767 1 5 0 45.206 6.458 6.458 0 0 0
1768 1 1 0 46.01273 7.26473 3.57282 0 0 0
1769 119 2 0 45.206 6.458 2.92108 0 0 0
1770 119 2 0 45.206 6.458 1.42541 0 0 0
1771 119 2 0 46.06026 7.31226 0.70211 0 0 0
1772 119 3 0 46.73293 7.984929999999999 1.21979 0 0 0
1773 1 4 0 33.35583 5.39217 20.43983 0 0 0
1774 1 1 0 33.09673 3.57282 20.18073 0 0 0
1775 120 2 0 32.29 2.92108 19.374 0 0 0
1776 120 2 0 32.29 1.42541 19.374 0 0 0
1777 120 2 0 33.14426 0.70211 20.22826 0 0 0
1778 120 3 0 33.81693 1.21979 20.90093 0 0 0
1779 1 4 0 44.14017 5.39217 5.39217 0 0 0
1780 1 1 0 44.39927 3.57282 5.65127 0 0 0
1781 121 2 0 45.206 2.92108 6.458 0 0 0
1782 121 2 0 45.206 1.42541 6.458 0 0 0
1783 121 2 0 44.35174 0.70211 5.60374 0 0 0
1784 121 3 0 43.67907 1.21979 4.93107 0 0 0
1785 1 4 0 44.14017 20.43983 20.43983 0 0 0
1786 1 1 0 44.39927 22.25918 20.18073 0 0 0
1787 122 2 0 45.206 22.91092 19.374 0 0 0
1788 122 2 0 45.206 24.40659 19.374 0 0 0
1789 122 2 0 44.35174 25.12989 20.22826 0 0 0
1790 122 3 0 43.67907 24.61221 20.90093 0 0 0
1791 1 4 0 33.35583 20.43983 5.39217 0 0 0
1792 1 1 0 33.09673 22.25918 5.65127 0 0 0
1793 123 2 0 32.29 22.91092 6.458 0 0 0
1794 123 2 0 32.29 24.40659 6.458 0 0 0
1795 123 2 0 33.14426 25.12989 5.60374 0 0 0
1796 123 3 0 33.81693 24.61221 4.93107 0 0 0
1797 1 4 0 31.22417 5.39217 18.30817 0 0 0
1798 1 1 0 29.40482 5.65127 18.56727 0 0 0
1799 37 2 0 28.75308 6.458 19.374 0 0 0
1800 37 2 0 27.25741 6.458 19.374 0 0 0
1801 37 2 0 26.53411 5.60374 18.51974 0 0 0
1802 37 3 0 27.051789999999997 4.93107 17.84707 0 0 0
1803 1 4 0 31.22417 20.43983 7.52383 0 0 0
1804 1 1 0 29.40482 20.18073 7.26473 0 0 0
1805 36 2 0 28.75308 19.374 6.458 0 0 0
1806 36 2 0 27.25741 19.374 6.458 0 0 0
1807 36 2 0 26.53411 20.22826 7.31226 0 0 0
1808 36 3 0 27.051789999999997 20.90093 7.984929999999999 0 0 0
1809 1 4 0 46.27183 5.39217 7.52383 0 0 0
1810 1 1 0 48.09118 5.65127 7.26473 0 0 0
1811 2 2 0 48.74292 6.458 6.458 0 0 0
1812 2 2 0 50.23859 6.458 6.458 0 0 0
1813 2 2 0 50.96189 5.60374 7.31226 0 0 0
1814 2 3 0 50.44421 4.93107 7.984929999999999 0 0 0
1815 1 4 0 46.27183 20.43983 18.30817 0 0 0
1816 1 1 0 48.09118 20.18073 18.56727 0 0 0
1817 3 2 0 48.74292 19.374 19.374 0 0 0
1818 3 2 0 50.23859 19.374 19.374 0 0 0
1819 3 2 0 50.96189 20.22826 18.51974 0 0 0
1820 3 3 0 50.44421 20.90093 17.84707 0 0 0
1821 1 1 0 33.09673 20.18073 3.57282 0 0 0
1822 118 2 0 33.14426 20.22826 0.70211 0 0 0
1823 118 3 0 33.81693 20.90093 1.21979 0 0 0
1824 1 1 0 44.39927 5.65127 3.57282 0 0 0
1825 119 2 0 44.35174 5.60374 0.70211 0 0 0
1826 119 3 0 43.67907 4.93107 1.21979 0 0 0
1827 1 1 0 48.09118 18.56727 20.18073 0 0 0
1828 3 2 0 50.96189 18.51974 20.22826 0 0 0
1829 3 3 0 50.44421 17.84707 20.90093 0 0 0
1830 1 1 0 48.09118 7.26473 5.65127 0 0 0
1831 2 2 0 50.96189 7.31226 5.60374 0 0 0
1832 2 3 0 50.44421 7.984929999999999 4.93107 0 0 0
1833 1 1 0 29.40482 7.26473 20.18073 0 0 0
1834 37 2 0 26.53411 7.31226 20.22826 0 0 0
1835 37 3 0 27.051789999999997 7.984929999999999 20.90093 0 0 0
1836 1 1 0 29.40482 18.56727 5.65127 0 0 0
1837 36 2 0 26.53411 18.51974 5.60374 0 0 0
1838 36 3 0 27.051789999999997 17.84707 4.93107 0 0 0
1839 1 1 0 46.01273 22.25918 18.56727 0 0 0
1840 122 2 0 46.06026 25.12989 18.51974 0 0 0
1841 122 3 0 46.73293 24.61221 17.84707 0 0 0
1842 1 1 0 31.48327 22.25918 7.26473 0 0 0
1843 123 2 0 31.435740000000003 25.12989 7.31226 0 0 0
1844 123 3 0 30.76307 24.61221 7.984929999999999 0 0 0
1845 1 1 0 46.01273 3.57282 7.26473 0 0 0
1846 121 2 0 46.06026 0.70211 7.31226 0 0 0
1847 121 3 0 46.73293 1.21979 7.984929999999999 0 0 0
1848 1 1 0 31.48327 3.57282 18.56727 0 0 0
1849 120 2 0 31.435740000000003 0.70211 18.51974 0 0 0
1850 120 3 0 30.76307 1.21979 17.84707 0 0 0
1851 1 1 0 46.01273 18.56727 3.57282 0 0 0
1852 117 2 0 46.06026 18.51974 0.70211 0 0 0
1853 117 3 0 46.73293 17.84707 1.21979 0 0 0
1854 1 1 0 31.48327 7.26473 3.57282 0 0 0
1855 116 2 0 31.435740000000003 7.31226 0.70211 0 0 0
1856 116 3 0 30.76307 7.984929999999999 1.21979 0 0 0
1857 1 4 0 33.35583 18.30817 18.30817 0 0 0
1858 1 1 0 33.09673 18.56727 16.48882 0 0 0
1859 124 2 0 32.29 19.374 15.837079999999998 0 0 0
1860 124 2 0 32.29 19.374 14.341409999999998 0 0 0
1861 124 2 0 33.14426 18.51974 13.61811 0 0 0
1862 124 3 0 33.81693 17.84707 14.13579 0 0 0
1863 1 4 0 44.14017 7.52383 18.30817 0 0 0
1864 1 1 0 44.39927 7.26473 16.48882 0 0 0
1865 125 2 0 45.206 6.458 15.837079999999998 0 0 0
1866 125 2 0 45.206 6.458 14.341409999999998 0 0 0
1867 125 2 0 44.35174 7.31226 13.61811 0 0 0
1868 125 3 0 43.67907 7.984929999999999 14.13579 0 0 0
1869 1 4 0 44.14017 18.30817 7.52383 0 0 0
1870 1 1 0 44.39927 18.56727 9.34318 0 0 0
1871 126 2 0 45.206 19.374 9.99492 0 0 0
1872 126 2 0 45.206 19.374 11.49059 0 0 0
1873 126 2 0 44.35174 18.51974 12.21389 0 0 0
1874 126 3 0 43.67907 17.84707 11.69621 0 0 0
1875 1 4 0 33.35583 7.52383 7.52383 0 0 0
1876 1 1 0 33.09673 7.26473 9.34318 0 0 0
1877 127 2 0 32.29 6.458 9.99492 0 0 0
1878 127 2 0 32.29 6.458 11.49059 0 0 0
1879 127 2 0 33.14426 7.31226 12.21389 0 0 0
1880 127 3 0 33.81693 7.984929999999999 11.69621 0 0 0
1881 1 1 0 31.48327 16.48882 20.18073 0 0 0
1882 128 2 0 32.29 15.837079999999998 19.374 0 0 0
1883 128 2 0 32.29 14.341409999999998 19.374 0 0 0
1884 128 2 0 31.435740000000003 13.61811 20.22826 0 0 0
1885 128 3 0 30.76307 14.13579 20.90093 0 0 0
1886 1 1 0 46.01273 16.48882 5.65127 0 0 0
1887 129 2 0 45.206 15.837079999999998 6.458 0 0 0
1888 129 2 0 45.206 14.341409999999998 6.458 0 0 0
1889 129 2 0 46.06026 13.61811 5.60374 0 0 0
1890 129 3 0 46.73293 14.13579 4.93107 0 0 0
1891 1 1 0 31.48327 9.34318 5.65127 0 0 0
1892 130 2 0 32.29 9.99492 6.458 0 0 0
1893 130 2 0 32.29 11.49059 6.458 0 0 0
1894 130 2 0 31.435740000000003 12.21389 5.60374 0 0 0
1895 130 3 0 30.76307 11.69621 4.93107 0 0 0
1896 1 1 0 46.01273 9.34318 20.18073 0 0 0
1897 131 2 0 45.206 9.99492 19.374 0 0 0
1898 131 2 0 45.206 11.49059 19.374 0 0 0
1899 131 2 0 46.06026 12.21389 20.22826 0 0 0
1900 131 3 0 46.73293 11.69621 20.90093 0 0 0
1901 1 1 0 31.48327 20.18073 9.34318 0 0 0
1902 124 2 0 32.29 19.374 9.99492 0 0 0
1903 124 2 0 32.29 19.374 11.49059 0 0 0
1904 124 2 0 31.435740000000003 20.22826 12.21389 0 0 0
1905 124 3 0 30.76307 20.90093 11.69621 0 0 0
1906 1 1 0 46.01273 5.65127 9.34318 0 0 0
1907 125 2 0 45.206 6.458 9.99492 0 0 0
1908 125 2 0 45.206 6.458 11.49059 0 0 0
1909 125 2 0 46.06026 5.60374 12.21389 0 0 0
1910 125 3 0 46.73293 4.93107 11.69621 0 0 0
1911 1 1 0 31.48327 5.65127 16.48882 0 0 0
1912 127 2 0 32.29 6.458 15.837079999999998 0 0 0
1913 127 2 0 32.29 6.458 14.341409999999998 0 0 0
1914 127 2 0 31.435740000000003 5.60374 13.61811 0 0 0
1915 127 3 0 30.76307 4.93107 14.13579 0 0 0
1916 1 1 0 46.01273 20.18073 16.48882 0 0 0
1917 126 2 0 45.206 19.374 15.837079999999998 0 0 0
1918 126 2 0 45.206 19.374 14.341409999999998 0 0 0
1919 126 2 0 46.06026 20.22826 13.61811 0 0 0
1920 126 3 0 46.73293 20.90093 14.13579 0 0 0
1921 1 4 0 33.35583 18.30817 7.52383 0 0 0
1922 1 1 0 33.09673 16.48882 7.26473 0 0 0
1923 130 2 0 32.29 15.837079999999998 6.458 0 0 0
1924 130 2 0 32.29 14.341409999999998 6.458 0 0 0
1925 130 2 0 33.14426 13.61811 7.31226 0 0 0
1926 130 3 0 33.81693 14.13579 7.984929999999999 0 0 0
1927 1 4 0 44.14017 18.30817 18.30817 0 0 0
1928 1 1 0 44.39927 16.48882 18.56727 0 0 0
1929 131 2 0 45.206 15.837079999999998 19.374 0 0 0
1930 131 2 0 45.206 14.341409999999998 19.374 0 0 0
1931 131 2 0 44.35174 13.61811 18.51974 0 0 0
1932 131 3 0 43.67907 14.13579 17.84707 0 0 0
1933 1 4 0 44.14017 7.52383 7.52383 0 0 0
1934 1 1 0 44.39927 9.34318 7.26473 0 0 0
1935 129 2 0 45.206 9.99492 6.458 0 0 0
1936 129 2 0 45.206 11.49059 6.458 0 0 0
1937 129 2 0 44.35174 12.21389 7.31226 0 0 0
1938 129 3 0 43.67907 11.69621 7.984929999999999 0 0 0
1939 1 4 0 33.35583 7.52383 18.30817 0 0 0
1940 1 1 0 33.09673 9.34318 18.56727 0 0 0
1941 128 2 0 32.29 9.99492 19.374 0 0 0
1942 128 2 0 32.29 11.49059 19.374 0 0 0
1943 128 2 0 33.14426 12.21389 18.51974 0 0 0
1944 128 3 0 33.81693 11.69621 17.84707 0 0 0
1945 1 1 0 44.39927 7.26473 9.34318 0 0 0
1946 125 2 0 44.35174 7.31226 12.21389 0 0 0
1947 125 3 0 43.67907 7.984929999999999 11.69621 0 0 0
1948 1 1 0 33.09673 18.56727 9.34318 0 0 0
1949 124 2 0 33.14426 18.51974 12.21389 0 0 0
1950 124 3 0 33.81693 17.84707 11.69621 0 0 0
1951 1 1 0 33.09673 7.26473 16.48882 0 0 0
1952 127 2 0 33.14426 7.31226 13.61811 0 0 0
1953 127 3 0 33.81693 7.984929999999999 14.13579 0 0 0
1954 1 1 0 44.39927 18.56727 16.48882 0 0 0
1955 126 2 0 44.35174 18.51974 13.61811 0 0 0
1956 126 3 0 43.67907 17.84707 14.13579 0 0 0
1957 1 1 0 46.01273 9.34318 5.65127 0 0 0
1958 129 2 0 46.06026 12.21389 5.60374 0 0 0
1959 129 3 0 46.73293 11.69621 4.93107 0 0 0
1960 1 1 0 31.48327 9.34318 20.18073 0 0 0
1961 128 2 0 31.435740000000003 12.21389 20.22826 0 0 0
1962 128 3 0 30.76307 11.69621 20.90093 0 0 0
1963 1 1 0 46.01273 16.48882 20.18073 0 0 0
1964 131 2 0 46.06026 13.61811 20.22826 0 0 0
1965 131 3 0 46.73293 14.13579 20.90093 0 0 0
1966 1 1 0 31.48327 16.48882 5.65127 0 0 0
1967 130 2 0 31.435740000000003 13.61811 5.60374 0 0 0
1968 130 3 0 30.76307 14.13579 4.93107 0 0 0
1969 1 1 0 46.01273 5.65127 16.48882 0 0 0
1970 125 2 0 46.06026 5.60374 13.61811 0 0 0
1971 125 3 0 46.73293 4.93107 14.13579 0 0 0
1972 1 1 0 31.48327 20.18073 16.48882 0 0 0
1973 124 2 0 31.435740000000003 20.22826 13.61811 0 0 0
1974 124 3 0 30.76307 20.90093 14.13579 0 0 0
1975 1 1 0 46.01273 20.18073 9.34318 0 0 0
1976 126 2 0 46.06026 20.22826 12.21389 0 0 0
1977 126 3 0 46.73293 20.90093 11.69621 0 0 0
1978 1 1 0 31.48327 5.65127 9.34318 0 0 0
1979 127 2 0 31.435740000000003 5.60374 12.21389 0 0 0
1980 127 3 0 30.76307 4.93107 11.69621 0 0 0
1981 1 1 0 44.39927 9.34318 18.56727 0 0 0
1982 131 2 0 44.35174 12.21389 18.51974 0 0 0
1983 131 3 0 43.67907 11.69621 17.84707 0 0 0
1984 1 1 0 33.09673 9.34318 7.26473 0 0 0
1985 130 2 0 33.14426 12.21389 7.31226 0 0 0
1986 130 3 0 33.81693 11.69621 7.984929999999999 0 0 0
1987 1 1 0 33.09673 16.48882 18.56727 0 0 0
1988 128 2 0 33.14426 13.61811 18.51974 0 0 0
1989 128 3 0 33.81693 14.13579 17.84707 0 0 0
1990 1 1 0 44.39927 16.48882 7.26473 0 0 0
1991 129 2 0 44.35174 13.61811 7.31226 0 0 0
1992 129 3 0 43.67907 14.13579 7.984929999999999 0 0 0
1993 1 1 0 42.32082 7.26473 18.56727 0 0 0
1994 132 2 0 41.66908 6.458 19.374 0 0 0
1995 132 2 0 40.17341 6.458 19.374 0 0 0
1996 132 2 0 39.45011 7.31226 18.51974 0 0 0
1997 132 3 0 39.96779 7.984929999999999 17.84707 0 0 0
1998 1 1 0 42.32082 18.56727 7.26473 0 0 0
1999 133 2 0 41.66908 19.374 6.458 0 0 0
2000 133 2 0 40.17341 19.374 6.458 0 0 0
2001 133 2 0 39.45011 18.51974 7.31226 0 0 0
2002 133 3 0 39.96779 17.84707 7.984929999999999 0 0 0
2003 1 1 0 35.17518 18.56727 18.56727 0 0 0
2004 134 2 0 35.82692 19.374 19.374 0 0 0
2005 134 2 0 37.32258999999999 19.374 19.374 0 0 0
2006 134 2 0 38.04589 18.51974 18.51974 0 0 0
2007 134 3 0 37.52821 17.84707 17.84707 0 0 0
2008 1 1 0 35.17518 7.26473 7.26473 0 0 0
2009 135 2 0 35.82692 6.458 6.458 0 0 0
2010 135 2 0 37.32258999999999 6.458 6.458 0 0 0
2011 135 2 0 38.04589 7.31226 7.31226 0 0 0
2012 135 3 0 37.52821 7.984929999999999 7.984929999999999 0 0 0
2013 1 1 0 42.32082 5.65127 5.65127 0 0 0
2014 135 2 0 41.66908 6.458 6.458 0 0 0
2015 135 2 0 40.17341 6.458 6.458 0 0 0
2016 135 2 0 39.45011 5.60374 5.60374 0 0 0
2017 135 3 0 39.96779 4.93107 4.93107 0 0 0
2018 1 1 0 42.32082 20.18073 20.18073 0 0 0
2019 134 2 0 41.66908 19.374 19.374 0 0 0
2020 134 2 0 40.17341 19.374 19.374 0 0 0
2021 134 2 0 39.45011 20.22826 20.22826 0 0 0
2022 134 3 0 39.96779 20.90093 20.90093 0 0 0
2023 1 1 0 35.17518 5.65127 20.18073 0 0 0
2024 132 2 0 35.82692 6.458 19.374 0 0 0
2025 132 2 0 37.32258999999999 6.458 19.374 0 0 0
2026 132 2 0 38.04589 5.60374 20.22826 0 0 0
2027 132 3 0 37.52821 4.93107 20.90093 0 0 0
2028 1 1 0 35.17518 20.18073 5.65127 0 0 0
2029 133 2 0 35.82692 19.374 6.458 0 0 0
2030 133 2 0 37.32258999999999 19.374 6.458 0 0 0
2031 133 2 0 38.04589 20.22826 5.60374 0 0 0
2032 133 3 0 37.52821 20.90093 4.93107 0 0 0
2033 1 1 0 35.17518 18.56727 7.26473 0 0 0
2034 133 2 0 38.04589 18.51974 7.31226 0 0 0
2035 133 3 0 37.52821 17.84707 7.984929999999999 0 0 0
2036 1 1 0 35.17518 7.26473 18.56727 0 0 0
2037 132 2 0 38.04589 7.31226 18.51974 0 0 0
2038 132 3 0 37.52821 7.984929999999999 17.84707 0 0 0
2039 1 1 0 42.32082 7.26473 7.26473 0 0 0
2040 135 2 0 39.45011 7.31226 7.31226 0 0 0
2041 135 3 0 39.96779 7.984929999999999 7.984929999999999 0 0 0
2042 1 1 0 42.32082 18.56727 18.56727 0 0 0
2043 134 2 0 39.45011 18.51974 18.51974 0 0 0
2044 134 3 0 39.96779 17.84707 17.84707 0 0 0
2045 1 1 0 35.17518 20.18073 20.18073 0 0 0
2046 134 2 0 38.04589 20.22826 20.22826 0 0 0
2047 134 3 0 37.52821 20.90093 20.90093 0 0 0
2048 1 1 0 35.17518 5.65127 5.65127 0 0 0
2049 135 2 0 38.04589 5.60374 5.60374 0 0 0
2050 135 3 0 37.52821 4.93107 4.93107 0 0 0
2051 1 1 0 42.32082 20.18073 5.65127 0 0 0
2052 133 2 0 39.45011 20.22826 5.60374 0 0 0
2053 133 3 0 39.96779 20.90093 4.93107 0 0 0
2054 1 1 0 42.32082 5.65127 20.18073 0 0 0
2055 132 2 0 39.45011 5.60374 20.22826 0 0 0
2056 132 3 0 39.96779 4.93107 20.90093 0 0 0
2057 1 1 0 44.39927 5.65127 22.25918 0 0 0
2058 1 1 0 33.09673 20.18073 22.25918 0 0 0
2059 1 1 0 48.09118 18.56727 5.65127 0 0 0
2060 1 1 0 48.09118 7.26473 20.18073 0 0 0
2061 1 1 0 31.48327 22.25918 18.56727 0 0 0
2062 1 1 0 46.01273 22.25918 7.26473 0 0 0
2063 1 1 0 31.48327 7.26473 22.25918 0 0 0
2064 1 1 0 46.01273 18.56727 22.25918 0 0 0
2065 1 1 0 44.39927 20.18073 22.25918 0 0 0
2066 1 1 0 33.09673 5.65127 22.25918 0 0 0
2067 1 1 0 46.01273 7.26473 22.25918 0 0 0
2068 1 1 0 31.48327 18.56727 22.25918 0 0 0
2069 1 1 0 44.39927 22.25918 5.65127 0 0 0
2070 1 1 0 33.09673 22.25918 20.18073 0 0 0
2071 1 1 0 48.09118 20.18073 7.26473 0 0 0
2072 1 1 0 48.09118 5.65127 18.56727 0 0 0
2073 136 2 0 45.206 6.458 22.91092 0 0 0
2074 136 2 0 45.206 6.458 24.40659 0 0 0
2075 136 2 0 44.35174 5.60374 25.12989 0 0 0
2076 136 3 0 43.67907 4.93107 24.61221 0 0 0
2077 137 2 0 32.29 19.374 22.91092 0 0 0
2078 137 2 0 32.29 19.374 24.40659 0 0 0
2079 137 2 0 33.14426 20.22826 25.12989 0 0 0
2080 137 3 0 33.81693 20.90093 24.61221 0 0 0
2081 138 2 0 32.29 6.458 22.91092 0 0 0
2082 138 2 0 32.29 6.458 24.40659 0 0 0
2083 138 2 0 31.435740000000003 7.31226 25.12989 0 0 0
2084 138 3 0 30.76307 7.984929999999999 24.61221 0 0 0
2085 139 2 0 45.206 19.374 22.91092 0 0 0
2086 139 2 0 45.206 19.374 24.40659 0 0 0
2087 139 2 0 46.06026 18.51974 25.12989 0 0 0
2088 139 3 0 46.73293 17.84707 24.61221 0 0 0
2089 139 2 0 44.35174 20.22826 25.12989 0 0 0
2090 139 3 0 43.67907 20.90093 24.61221 0 0 0
2091 138 2 0 33.14426 5.60374 25.12989 0 0 0
2092 138 3 0 33.81693 4.93107 24.61221 0 0 0
2093 136 2 0 46.06026 7.31226 25.12989 0 0 0
2094 136 3 0 46.73293 7.984929999999999 24.61221 0 0 0
2095 137 2 0 31.435740000000003 18.51974 25.12989 0 0 0
2096 137 3 0 30.76307 17.84707 24.61221 0 0 0
2097 140 2 0 32.29 22.91092 19.374 0 0 0
2098 140 2 0 32.29 24.40659 19.374 0 0 0
2099 140 2 0 31.435740000000003 25.12989 18.51974 0 0 0
2100 140 3 0 30.76307 24.61221 17.84707 0 0 0
2101 141 2 0 45.206 22.91092 6.458 0 0 0
2102 141 2 0 45.206 24.40659 6.458 0 0 0
2103 141 2 0 46.06026 25.12989 7.31226 0 0 0
2104 141 3 0 46.73293 24.61221 7.984929999999999 0 0 0
2105 141 2 0 44.35174 25.12989 5.60374 0 0 0
2106 141 3 0 43.67907 24.61221 4.93107 0 0 0
2107 140 2 0 33.14426 25.12989 20.22826 0 0 0
2108 140 3 0 33.81693 24.61221 20.90093 0 0 0
2109 15 2 0 48.74292 19.374 6.458 0 0 0
2110 15 2 0 50.23859 19.374 6.458 0 0 0
2111 15 2 0 50.96189 18.51974 5.60374 0 0 0
2112 15 3 0 50.44421 17.84707 4.93107 0 0 0
2113 14 2 0 48.74292 6.458 19.374 0 0 0
2114 14 2 0 50.23859 6.458 19.374 0 0 0
2115 14 2 0 50.96189 7.31226 20.22826 0 0 0
2116 14 3 0 50.44421 7.984929999999999 20.90093 0 0 0
2117 15 2 0 50.96189 20.22826 7.31226 0 0 0
2118 15 3 0 50.44421 20.90093 7.984929999999999 0 0 0
2119 14 2 0 50.96189 5.60374 18.51974 0 0 0
2120 14 3 0 50.44421 4.93107 17.84707 0 0 0
2121 1 1 0 29.40482 7.26473 31.48327 0 0 0
2122 48 2 0 28.75308 6.458 32.29 0 0 0
2123 48 2 0 27.25741 6.458 32.29 0 0 0
2124 48 2 0 26.53411 7.31226 31.435740000000003 0 0 0
2125 48 3 0 27.051789999999997 7.984929999999999 30.76307 0 0 0
2126 1 1 0 29.40482 18.56727 46.01273 0 0 0
2127 49 2 0 28.75308 19.374 45.206 0 0 0
2128 49 2 0 27.25741 19.374 45.206 0 0 0
2129 49 2 0 26.53411 18.51974 46.06026 0 0 0
2130 49 3 0 27.051789999999997 17.84707 46.73293 0 0 0
2131 1 1 0 29.40482 20.18073 44.39927 0 0 0
2132 49 2 0 26.53411 20.22826 44.35174 0 0 0
2133 49 3 0 27.051789999999997 20.90093 43.67907 0 0 0
2134 1 1 0 29.40482 5.65127 33.09673 0 0 0
2135 48 2 0 26.53411 5.60374 33.14426 0 0 0
2136 48 3 0 27.051789999999997 4.93107 33.81693 0 0 0
2137 1 4 0 31.22417 7.52383 31.22417 0 0 0
2138 1 4 0 31.22417 18.30817 46.27183 0 0 0
2139 1 4 0 31.22417 5.39217 33.35583 0 0 0
2140 1 4 0 31.22417 20.43983 44.14017 0 0 0
2141 1 1 0 31.48327 3.57282 33.09673 0 0 0
2142 142 2 0 32.29 2.92108 32.29 0 0 0
2143 142 2 0 32.29 1.42541 32.29 0 0 0
2144 142 2 0 31.435740000000003 0.70211 33.14426 0 0 0
2145 142 3 0 30.76307 1.21979 33.81693 0 0 0
2146 1 1 0 46.01273 3.57282 44.39927 0 0 0
2147 143 2 0 45.206 2.92108 45.206 0 0 0
2148 143 2 0 45.206 1.42541 45.206 0 0 0
2149 143 2 0 46.06026 0.70211 44.35174 0 0 0
2150 143 3 0 46.73293 1.21979 43.67907 0 0 0
2151 1 1 0 33.09673 3.57282 31.48327 0 0 0
2152 142 2 0 33.14426 0.70211 31.435740000000003 0 0 0
2153 142 3 0 33.81693 1.21979 30.76307 0 0 0
2154 1 1 0 44.39927 3.57282 46.01273 0 0 0
2155 143 2 0 44.35174 0.70211 46.06026 0 0 0
2156 143 3 0 43.67907 1.21979 46.73293 0 0 0
2157 1 4 0 33.35583 5.39217 31.22417 0 0 0
2158 1 4 0 44.14017 5.39217 46.27183 0 0 0
2159 1 4 0 46.27183 5.39217 44.14017 0 0 0
2160 1 5 0 32.29 6.458 32.29 0 0 0
2161 1 1 0 33.09673 5.65127 29.40482 0 0 0
2162 138 2 0 32.29 6.458 28.75308 0 0 0
2163 138 2 0 32.29 6.458 27.25741 0 0 0
2164 138 2 0 33.14426 5.60374 26.53411 0 0 0
2165 138 3 0 33.81693 4.93107 27.051789999999997 0 0 0
2166 1 4 0 44.14017 20.43983 31.22417 0 0 0
2167 1 5 0 45.206 19.374 32.29 0 0 0
2168 1 1 0 44.39927 20.18073 29.40482 0 0 0
2169 139 2 0 45.206 19.374 28.75308 0 0 0
2170 139 2 0 45.206 19.374 27.25741 0 0 0
2171 139 2 0 44.35174 20.22826 26.53411 0 0 0
2172 139 3 0 43.67907 20.90093 27.051789999999997 0 0 0
2173 1 5 0 45.206 6.458 45.206 0 0 0
2174 1 4 0 33.35583 20.43983 46.27183 0 0 0
2175 1 5 0 32.29 19.374 45.206 0 0 0
2176 1 4 0 46.27183 18.30817 31.22417 0 0 0
2177 1 4 0 46.27183 7.52383 46.27183 0 0 0
2178 1 4 0 46.27183 20.43983 33.35583 0 0 0
2179 1 4 0 31.22417 7.52383 46.27183 0 0 0
2180 1 5 0 32.29 6.458 45.206 0 0 0
2181 1 4 0 46.27183 18.30817 46.27183 0 0 0
2182 1 5 0 45.206 19.374 45.206 0 0 0
2183 1 4 0 31.22417 18.30817 31.22417 0 0 0
2184 1 5 0 32.29 19.374 32.29 0 0 0
2185 1 1 0 31.48327 18.56727 29.40482 0 0 0
2186 137 2 0 32.29 19.374 28.75308 0 0 0
2187 137 2 0 32.29 19.374 27.25741 0 0 0
2188 137 2 0 31.435740000000003 18.51974 26.53411 0 0 0
2189 137 3 0 30.76307 17.84707 27.051789999999997 0 0 0
2190 1 4 0 46.27183 7.52383 31.22417 0 0 0
2191 1 5 0 45.206 6.458 32.29 0 0 0
2192 1 1 0 46.01273 7.26473 29.40482 0 0 0
2193 136 2 0 45.206 6.458 28.75308 0 0 0
2194 136 2 0 45.206 6.458 27.25741 0 0 0
2195 136 2 0 46.06026 7.31226 26.53411 0 0 0
2196 136 3 0 46.73293 7.984929999999999 27.051789999999997 0 0 0
2197 1 4 0 33.35583 5.39217 46.27183 0 0 0
2198 1 1 0 33.09673 3.57282 46.01273 0 0 0
2199 144 2 0 32.29 2.92108 45.206 0 0 0
2200 144 2 0 32.29 1.42541 45.206 0 0 0
2201 144 2 0 33.14426 0.70211 46.06026 0 0 0
2202 144 3 0 33.81693 1.21979 46.73293 0 0 0
2203 1 4 0 44.14017 5.39217 31.22417 0 0 0
2204 1 1 0 44.39927 3.57282 31.48327 0 0 0
2205 145 2 0 45.206 2.92108 32.29 0 0 0
2206 145 2 0 45.206 1.42541 32.29 0 0 0
2207 145 2 0 44.35174 0.70211 31.435740000000003 0 0 0
2208 145 3 0 43.67907 1.21979 30.76307 0 0 0
2209 1 4 0 44.14017 20.43983 46.27183 0 0 0
2210 1 1 0 44.39927 22.25918 46.01273 0 0 0
2211 146 2 0 45.206 22.91092 45.206 0 0 0
2212 146 2 0 45.206 24.40659 45.206 0 0 0
2213 146 2 0 44.35174 25.12989 46.06026 0 0 0
2214 146 3 0 43.67907 24.61221 46.73293 0 0 0
2215 1 4 0 33.35583 20.43983 31.22417 0 0 0
2216 1 1 0 33.09673 22.25918 31.48327 0 0 0
2217 147 2 0 32.29 22.91092 32.29 0 0 0
2218 147 2 0 32.29 24.40659 32.29 0 0 0
2219 147 2 0 33.14426 25.12989 31.435740000000003 0 0 0
2220 147 3 0 33.81693 24.61221 30.76307 0 0 0
2221 1 4 0 31.22417 5.39217 44.14017 0 0 0
2222 1 1 0 29.40482 5.65127 44.39927 0 0 0
2223 65 2 0 28.75308 6.458 45.206 0 0 0
2224 65 2 0 27.25741 6.458 45.206 0 0 0
2225 65 2 0 26.53411 5.60374 44.35174 0 0 0
2226 65 3 0 27.051789999999997 4.93107 43.67907 0 0 0
2227 1 4 0 31.22417 20.43983 33.35583 0 0 0
2228 1 1 0 29.40482 20.18073 33.09673 0 0 0
2229 64 2 0 28.75308 19.374 32.29 0 0 0
2230 64 2 0 27.25741 19.374 32.29 0 0 0
2231 64 2 0 26.53411 20.22826 33.14426 0 0 0
2232 64 3 0 27.051789999999997 20.90093 33.81693 0 0 0
2233 1 4 0 46.27183 5.39217 33.35583 0 0 0
2234 1 1 0 48.09118 5.65127 33.09673 0 0 0
2235 38 2 0 48.74292 6.458 32.29 0 0 0
2236 38 2 0 50.23859 6.458 32.29 0 0 0
2237 38 2 0 50.96189 5.60374 33.14426 0 0 0
2238 38 3 0 50.44421 4.93107 33.81693 0 0 0
2239 1 4 0 46.27183 20.43983 44.14017 0 0 0
2240 1 1 0 48.09118 20.18073 44.39927 0 0 0
2241 39 2 0 48.74292 19.374 45.206 0 0 0
2242 39 2 0 50.23859 19.374 45.206 0 0 0
2243 39 2 0 50.96189 20.22826 44.35174 0 0 0
2244 39 3 0 50.44421 20.90093 43.67907 0 0 0
2245 1 1 0 33.09673 20.18073 29.40482 0 0 0
2246 137 2 0 33.14426 20.22826 26.53411 0 0 0
2247 137 3 0 33.81693 20.90093 27.051789999999997 0 0 0
2248 1 1 0 44.39927 5.65127 29.40482 0 0 0
2249 136 2 0 44.35174 5.60374 26.53411 0 0 0
2250 136 3 0 43.67907 4.93107 27.051789999999997 0 0 0
2251 1 1 0 48.09118 18.56727 46.01273 0 0 0
2252 39 2 0 50.96189 18.51974 46.06026 0 0 0
2253 39 3 0 50.44421 17.84707 46.73293 0 0 0
2254 1 1 0 48.09118 7.26473 31.48327 0 0 0
2255 38 2 0 50.96189 7.31226 31.435740000000003 0 0 0
2256 38 3 0 50.44421 7.984929999999999 30.76307 0 0 0
2257 1 1 0 29.40482 7.26473 46.01273 0 0 0
2258 65 2 0 26.53411 7.31226 46.06026 0 0 0
2259 65 3 0 27.051789999999997 7.984929999999999 46.73293 0 0 0
2260 1 1 0 29.40482 18.56727 31.48327 0 0 0
2261 64 2 0 26.53411 18.51974 31.435740000000003 0 0 0
2262 64 3 0 27.051789999999997 17.84707 30.76307 0 0 0
2263 1 1 0 46.01273 22.25918 44.39927 0 0 0
2264 146 2 0 46.06026 25.12989 44.35174 0 0 0
2265 146 3 0 46.73293 24.61221 43.67907 0 0 0
2266 1 1 0 31.48327 22.25918 33.09673 0 0 0
2267 147 2 0 31.435740000000003 25.12989 33.14426 0 0 0
2268 147 3 0 30.76307 24.61221 33.81693 0 0 0
2269 1 1 0 46.01273 3.57282 33.09673 0 0 0
2270 145 2 0 46.06026 0.70211 33.14426 0 0 0
2271 145 3 0 46.73293 1.21979 33.81693 0 0 0
2272 1 1 0 31.48327 3.57282 44.39927 0 0 0
2273 144 2 0 31.435740000000003 0.70211 44.35174 0 0 0
2274 144 3 0 30.76307 1.21979 43.67907 0 0 0
2275 1 1 0 46.01273 18.56727 29.40482 0 0 0
2276 139 2 0 46.06026 18.51974 26.53411 0 0 0
2277 139 3 0 46.73293 17.84707 27.051789999999997 0 0 0
2278 1 1 0 31.48327 7.26473 29.40482 0 0 0
2279 138 2 0 31.435740000000003 7.31226 26.53411 0 0 0
2280 138 3 0 30.76307 7.984929999999999 27.051789999999997 0 0 0
2281 1 4 0 33.35583 18.30817 44.14017 0 0 0
2282 1 1 0 33.09673 18.56727 42.32082 0 0 0
2283 148 2 0 32.29 19.374 41.66908 0 0 0
2284 148 2 0 32.29 19.374 40.17341 0 0 0
2285 148 2 0 33.14426 18.51974 39.45011 0 0 0
2286 148 3 0 33.81693 17.84707 39.96779 0 0 0
2287 1 4 0 44.14017 7.52383 44.14017 0 0 0
2288 1 1 0 44.39927 7.26473 42.32082 0 0 0
2289 149 2 0 45.206 6.458 41.66908 0 0 0
2290 149 2 0 45.206 6.458 40.17341 0 0 0
2291 149 2 0 44.35174 7.31226 39.45011 0 0 0
2292 149 3 0 43.67907 7.984929999999999 39.96779 0 0 0
2293 1 4 0 44.14017 18.30817 33.35583 0 0 0
2294 1 1 0 44.39927 18.56727 35.17518 0 0 0
2295 150 2 0 45.206 19.374 35.82692 0 0 0
2296 150 2 0 45.206 19.374 37.32258999999999 0 0 0
2297 150 2 0 44.35174 18.51974 38.04589 0 0 0
2298 150 3 0 43.67907 17.84707 37.52821 0 0 0
2299 1 4 0 33.35583 7.52383 33.35583 0 0 0
2300 1 1 0 33.09673 7.26473 35.17518 0 0 0
2301 151 2 0 32.29 6.458 35.82692 0 0 0
2302 151 2 0 32.29 6.458 37.32258999999999 0 0 0
2303 151 2 0 33.14426 7.31226 38.04589 0 0 0
2304 151 3 0 33.81693 7.984929999999999 37.52821 0 0 0
2305 1 1 0 31.48327 16.48882 46.01273 0 0 0
2306 152 2 0 32.29 15.837079999999998 45.206 0 0 0
2307 152 2 0 32.29 14.341409999999998 45.206 0 0 0
2308 152 2 0 31.435740000000003 13.61811 46.06026 0 0 0
2309 152 3 0 30.76307 14.13579 46.73293 0 0 0
2310 1 1 0 46.01273 16.48882 31.48327 0 0 0
2311 153 2 0 45.206 15.837079999999998 32.29 0 0 0
2312 153 2 0 45.206 14.341409999999998 32.29 0 0 0
2313 153 2 0 46.06026 13.61811 31.435740000000003 0 0 0
2314 153 3 0 46.73293 14.13579 30.76307 0 0 0
2315 1 1 0 31.48327 9.34318 31.48327 0 0 0
2316 154 2 0 32.29 9.99492 32.29 0 0 0
2317 154 2 0 32.29 11.49059 32.29 0 0 0
2318 154 2 0 31.435740000000003 12.21389 31.435740000000003 0 0 0
2319 154 3 0 30.76307 11.69621 30.76307 0 0 0
2320 1 1 0 46.01273 9.34318 46.01273 0 0 0
2321 155 2 0 45.206 9.99492 45.206 0 0 0
2322 155 2 0 45.206 11.49059 45.206 0 0 0
2323 155 2 0 46.06026 12.21389 46.06026 0 0 0
2324 155 3 0 46.73293 11.69621 46.73293 0 0 0
2325 1 1 0 31.48327 20.18073 35.17518 0 0 0
2326 148 2 0 32.29 19.374 35.82692 0 0 0
2327 148 2 0 32.29 19.374 37.32258999999999 0 0 0
2328 148 2 0 31.435740000000003 20.22826 38.04589 0 0 0
2329 148 3 0 30.76307 20.90093 37.52821 0 0 0
2330 1 1 0 46.01273 5.65127 35.17518 0 0 0
2331 149 2 0 45.206 6.458 35.82692 0 0 0
2332 149 2 0 45.206 6.458 37.32258999999999 0 0 0
2333 149 2 0 46.06026 5.60374 38.04589 0 0 0
2334 149 3 0 46.73293 4.93107 37.52821 0 0 0
2335 1 1 0 31.48327 5.65127 42.32082 0 0 0
2336 151 2 0 32.29 6.458 41.66908 0 0 0
2337 151 2 0 32.29 6.458 40.17341 0 0 0
2338 151 2 0 31.435740000000003 5.60374 39.45011 0 0 0
2339 151 3 0 30.76307 4.93107 39.96779 0 0 0
2340 1 1 0 46.01273 20.18073 42.32082 0 0 0
2341 150 2 0 45.206 19.374 41.66908 0 0 0
2342 150 2 0 45.206 19.374 40.17341 0 0 0
2343 150 2 0 46.06026 20.22826 39.45011 0 0 0
2344 150 3 0 46.73293 20.90093 39.96779 0 0 0
2345 1 4 0 33.35583 18.30817 33.35583 0 0 0
2346 1 1 0 33.09673 16.48882 33.09673 0 0 0
2347 154 2 0 32.29 15.837079999999998 32.29 0 0 0
2348 154 2 0 32.29 14.341409999999998 32.29 0 0 0
2349 154 2 0 33.14426 13.61811 33.14426 0 0 0
2350 154 3 0 33.81693 14.13579 33.81693 0 0 0
2351 1 4 0 44.14017 18.30817 44.14017 0 0 0
2352 1 1 0 44.39927 16.48882 44.39927 0 0 0
2353 155 2 0 45.206 15.837079999999998 45.206 0 0 0
2354 155 2 0 45.206 14.341409999999998 45.206 0 0 0
2355 155 2 0 44.35174 13.61811 44.35174 0 0 0
2356 155 3 0 43.67907 14.13579 43.67907 0 0 0
2357 1 4 0 44.14017 7.52383 33.35583 0 0 0
2358 1 1 0 44.39927 9.34318 33.09673 0 0 0
2359 153 2 0 45.206 9.99492 32.29 0 0 0
2360 153 2 0 45.206 11.49059 32.29 0 0 0
2361 153 2 0 44.35174 12.21389 33.14426 0 0 0
2362 153 3 0 43.67907 11.69621 33.81693 0 0 0
2363 1 4 0 33.35583 7.52383 44.14017 0 0 0
2364 1 1 0 33.09673 9.34318 44.39927 0 0 0
2365 152 2 0 32.29 9.99492 45.206 0 0 0
2366 152 2 0 32.29 11.49059 45.206 0 0 0
2367 152 2 0 33.14426 12.21389 44.35174 0 0 0
2368 152 3 0 33.81693 11.69621 43.67907 0 0 0
2369 1 1 0 44.39927 7.26473 35.17518 0 0 0
2370 149 2 0 44.35174 7.31226 38.04589 0 0 0
2371 149 3 0 43.67907 7.984929999999999 37.52821 0 0 0
2372 1 1 0 33.09673 18.56727 35.17518 0 0 0
2373 148 2 0 33.14426 18.51974 38.04589 0 0 0
2374 148 3 0 33.81693 17.84707 37.52821 0 0 0
2375 1 1 0 33.09673 7.26473 42.32082 0 0 0
2376 151 2 0 33.14426 7.31226 39.45011 0 0 0
2377 151 3 0 33.81693 7.984929999999999 39.96779 0 0 0
2378 1 1 0 44.39927 18.56727 42.32082 0 0 0
2379 150 2 0 44.35174 18.51974 39.45011 0 0 0
2380 150 3 0 43.67907 17.84707 39.96779 0 0 0
2381 1 1 0 46.01273 9.34318 31.48327 0 0 0
2382 153 2 0 46.06026 12.21389 31.435740000000003 0 0 0
2383 153 3 0 46.73293 11.69621 30.76307 0 0 0
2384 1 1 0 31.48327 9.34318 46.01273 0 0 0
2385 152 2 0 31.435740000000003 12.21389 46.06026 0 0 0
2386 152 3 0 30.76307 11.69621 46.73293 0 0 0
2387 1 1 0 46.01273 16.48882 46.01273 0 0 0
2388 155 2 0 46.06026 13.61811 46.06026 0 0 0
2389 155 3 0 46.73293 14.13579 46.73293 0 0 0
2390 1 1 0 31.48327 16.48882 31.48327 0 0 0
2391 154 2 0 31.435740000000003 13.61811 31.435740000000003 0 0 0
2392 154 3 0 30.76307 14.13579 30.76307 0 0 0
2393 1 1 0 46.01273 5.65127 42.32082 0 0 0
2394 149 2 0 46.06026 5.60374 39.45011 0 0 0
2395 149 3 0 46.73293 4.93107 39.96779 0 0 0
2396 1 1 0 31.48327 20.18073 42.32082 0 0 0
2397 148 2 0 31.435740000000003 20.22826 39.45011 0 0 0
2398 148 3 0 30.76307 20.90093 39.96779 0 0 0
2399 1 1 0 46.01273 20.18073 35.17518 0 0 0
2400 150 2 0 46.06026 20.22826 38.04589 0 0 0
2401 150 3 0 46.73293 20.90093 37.52821 0 0 0
2402 1 1 0 31.48327 5.65127 35.17518 0 0 0
2403 151 2 0 31.435740000000003 5.60374 38.04589 0 0 0
2404 151 3 0 30.76307 4.93107 37.52821 0 0 0
2405 1 1 0 44.39927 9.34318 44.39927 0 0 0
2406 155 2 0 44.35174 12.21389 44.35174 0 0 0
2407 155 3 0 43.67907 11.69621 43.67907 0 0 0
2408 1 1 0 33.09673 9.34318 33.09673 0 0 0
2409 154 2 0 33.14426 12.21389 33.14426 0 0 0
2410 154 3 0 33.81693 11.69621 33.81693 0 0 0
2411 1 1 0 33.09673 16.48882 44.39927 0 0 0
2412 152 2 0 33.14426 13.61811 44.35174 0 0 0
2413 152 3 0 33.81693 14.13579 43.67907 0 0 0
2414 1 1 0 44.39927 16.48882 33.09673 0 0 0
2415 153 2 0 44.35174 13.61811 33.14426 0 0 0
2416 153 3 0 43.67907 14.13579 33.81693 0 0 0
2417 1 1 0 42.32082 7.26473 44.39927 0 0 0
2418 156 2 0 41.66908 6.458 45.206 0 0 0
2419 156 2 0 40.17341 6.458 45.206 0 0 0
2420 156 2 0 39.45011 7.31226 44.35174 0 0 0
2421 156 3 0 39.96779 7.984929999999999 43.67907 0 0 0
2422 1 1 0 42.32082 18.56727 33.09673 0 0 0
2423 157 2 0 41.66908 19.374 32.29 0 0 0
2424 157 2 0 40.17341 19.374 32.29 0 0 0
2425 157 2 0 39.45011 18.51974 33.14426 0 0 0
2426 157 3 0 39.96779 17.84707 33.81693 0 0 0
2427 1 1 0 35.17518 18.56727 44.39927 0 0 0
2428 158 2 0 35.82692 19.374 45.206 0 0 0
2429 158 2 0 37.32258999999999 19.374 45.206 0 0 0
2430 158 2 0 38.04589 18.51974 44.35174 0 0 0
2431 158 3 0 37.52821 17.84707 43.67907 0 0 0
2432 1 1 0 35.17518 7.26473 33.09673 0 0 0
2433 159 2 0 35.82692 6.458 32.29 0 0 0
2434 159 2 0 37.32258999999999 6.458 32.29 0 0 0
2435 159 2 0 38.04589 7.31226 33.14426 0 0 0
2436 159 3 0 37.52821 7.984929999999999 33.81693 0 0 0
2437 1 1 0 42.32082 5.65127 31.48327 0 0 0
2438 159 2 0 41.66908 6.458 32.29 0 0 0
2439 159 2 0 40.17341 6.458 32.29 0 0 0
2440 159 2 0 39.45011 5.60374 31.435740000000003 0 0 0
2441 159 3 0 39.96779 4.93107 30.76307 0 0 0
2442 1 1 0 42.32082 20.18073 46.01273 0 0 0
2443 158 2 0 41.66908 19.374 45.206 0 0 0
2444 158 2 0 40.17341 19.374 45.206 0 0 0
2445 158 2 0 39.45011 20.22826 46.06026 0 0 0
2446 158 3 0 39.96779 20.90093 46.73293 0 0 0
2447 1 1 0 35.17518 5.65127 46.01273 0 0 0
2448 156 2 0 35.82692 6.458 45.206 0 0 0
2449 156 2 0 37.32258999999999 6.458 45.206 0 0 0
2450 156 2 0 38.04589 5.60374 46.06026 0 0 0
2451 156 3 0 37.52821 4.93107 46.73293 0 0 0
2452 1 1 0 35.17518 20.18073 31.48327 0 0 0
2453 157 2 0 35.82692 19.374 32.29 0 0 0
2454 157 2 0 37.32258999999999 19.374 32.29 0 0 0
2455 157 2 0 38.04589 20.22826 31.435740000000003 0 0 0
2456 157 3 0 37.52821 20.90093 30.76307 0 0 0
2457 1 1 0 35.17518 18.56727 33.09673 0 0 0
2458 157 2 0 38.04589 18.51974 33.14426 0 0 0
2459 157 3 0 37.52821 17.84707 33.81693 0 0 0
2460 1 1 0 35.17518 7.26473 44.39927 0 0 0
2461 156 2 0 38.04589 7.31226 44.35174 0 0 0
2462 156 3 0 37.52821 7.984929999999999 43.67907 0 0 0
2463 1 1 0 42.32082 7.26473 33.09673 0 0 0
2464 159 2 0 39.45011 7.31226 33.14426 0 0 0
2465 159 3 0 39.96779 7.984929999999999 33.81693 0 0 0
2466 1 1 0 42.32082 18.56727 44.39927 0 0 0
2467 158 2 0 39.45011 18.51974 44.35174 0 0 0
2468 158 3 0 39.96779 17.84707 43.67907 0 0 0
2469 1 1 0 35.17518 20.18073 46.01273 0 0 0
2470 158 2 0 38.04589 20.22826 46.06026 0 0 0
2471 158 3 0 37.52821 20.90093 46.73293 0 0 0
2472 1 1 0 35.17518 5.65127 31.48327 0 0 0
2473 159 2 0 38.04589 5.60374 31.435740000000003 0 0 0
2474 159 3 0 37.52821 4.93107 30.76307 0 0 0
2475 1 1 0 42.32082 20.18073 31.48327 0 0 0
2476 157 2 0 39.45011 20.22826 31.435740000000003 0 0 0
2477 157 3 0 39.96779 20.90093 30.76307 0 0 0
2478 1 1 0 42.32082 5.65127 46.01273 0 0 0
2479 156 2 0 39.45011 5.60374 46.06026 0 0 0
2480 156 3 0 39.96779 4.93107 46.73293 0 0 0
2481 1 1 0 44.39927 5.65127 48.09118 0 0 0
2482 1 1 0 33.09673 20.18073 48.09118 0 0 0
2483 1 1 0 48.09118 18.56727 31.48327 0 0 0
2484 1 1 0 48.09118 7.26473 46.01273 0 0 0
2485 1 1 0 31.48327 22.25918 44.39927 0 0 0
2486 1 1 0 46.01273 22.25918 33.09673 0 0 0
2487 1 1 0 31.48327 7.26473 48.09118 0 0 0
2488 1 1 0 46.01273 18.56727 48.09118 0 0 0
2489 1 1 0 44.39927 20.18073 48.09118 0 0 0
2490 1 1 0 33.09673 5.65127 48.09118 0 0 0
2491 1 1 0 46.01273 7.26473 48.09118 0 0 0
2492 1 1 0 31.48327 18.56727 48.09118 0 0 0
2493 1 1 0 44.39927 22.25918 31.48327 0 0 0
2494 1 1 0 33.09673 22.25918 46.01273 0 0 0
2495 1 1 0 48.09118 20.18073 33.09673 0 0 0
2496 1 1 0 48.09118 5.65127 44.39927 0 0 0
2497 119 2 0 45.206 6.458 48.74292 0 0 0
2498 119 2 0 45.206 6.458 50.23859 0 0 0
2499 119 2 0 44.35174 5.60374 50.96189 0 0 0
2500 119 3 0 43.67907 4.93107 50.44421 0 0 0
2501 118 2 0 32.29 19.374 48.74292 0 0 0
2502 118 2 0 32.29 19.374 50.23859 0 0 0
2503 118 2 0 33.14426 20.22826 50.96189 0 0 0
2504 118 3 0 33.81693 20.90093 50.44421 0 0 0
2505 116 2 0 32.29 6.458 48.74292 0 0 0
2506 116 2 0 32.29 6.458 50.23859 0 0 0
2507 116 2 0 31.435740000000003 7.31226 50.96189 0 0 0
2508 116 3 0 30.76307 7.984929999999999 50.44421 0 0 0
2509 117 2 0 45.206 19.374 48.74292 0 0 0
2510 117 2 0 45.206 19.374 50.23859 0 0 0
2511 117 2 0 46.06026 18.51974 50.96189 0 0 0
2512 117 3 0 46.73293 17.84707 50.44421 0 0 0
2513 117 2 0 44.35174 20.22826 50.96189 0 0 0
2514 117 3 0 43.67907 20.90093 50.44421 0 0 0
2515 116 2 0 33.14426 5.60374 50.96189 0 0 0
2516 116 3 0 33.81693 4.93107 50.44421 0 0 0
2517 119 2 0 46.06026 7.31226 50.96189 0 0 0
2518 119 3 0 46.73293 7.984929999999999 50.44421 0 0 0
2519 118 2 0 31.435740000000003 18.51974 50.96189 0 0 0
2520 118 3 0 30.76307 17.84707 50.44421 0 0 0
2521 160 2 0 32.29 22.91092 45.206 0 0 0
2522 160 2 0 32.29 24.40659 45.206 0 0 0
2523 160 2 0 31.435740000000003 25.12989 44.35174 0 0 0
2524 160 3 0 30.76307 24.61221 43.67907 0 0 0
2525 161 2 0 45.206 22.91092 32.29 0 0 0
2526 161 2 0 45.206 24.40659 32.29 0 0 0
2527 161 2 0 46.06026 25.12989 33.14426 0 0 0
2528 161 3 0 46.73293 24.61221 33.81693 0 0 0
2529 161 2 0 44.35174 25.12989 31.435740000000003 0 0 0
2530 161 3 0 43.67907 24.61221 30.76307 0 0 0
2531 160 2 0 33.14426 25.12989 46.06026 0 0 0
2532 160 3 0 33.81693 24.61221 46.73293 0 0 0
2533 47 2 0 48.74292 19.374 32.29 0 0 0
2534 47 2 0 50.23859 19.374 32.29 0 0 0
2535 47 2 0 50.96189 18.51974 31.435740000000003 0 0 0
2536 47 3 0 50.44421 17.84707 30.76307 0 0 0
2537 46 2 0 48.74292 6.458 45.206 0 0 0
2538 46 2 0 50.23859 6.458 45.206 0 0 0
2539 46 2 0 50.96189 7.31226 46.06026 0 0 0
2540 46 3 0 50.44421 7.984929999999999 46.73293 0 0 0
2541 47 2 0 50.96189 20.22826 33.14426 0 0 0
2542 47 3 0 50.44421 20.90093 33.81693 0 0 0
2543 46 2 0 50.96189 5.60374 44.35174 0 0 0
2544 46 3 0 50.44421 4.93107 43.67907 0 0 0
2545 1 1 0 29.40482 33.09673 5.65127 0 0 0
2546 74 2 0 28.75308 32.29 6.458 0 0 0
2547 74 2 0 27.25741 32.29 6.458 0 0 0
2548 74 2 0 26.53411 33.14426 5.60374 0 0 0
2549 74 3 0 27.051789999999997 33.81693 4.93107 0 0 0
2550 1 1 0 29.40482 44.39927 20.18073 0 0 0
2551 75 2 0 28.75308 45.206 19.374 0 0 0
2552 75 2 0 27.25741 45.206 19.374 0 0 0
2553 75 2 0 26.53411 44.35174 20.22826 0 0 0
2554 75 3 0 27.051789999999997 43.67907 20.90093 0 0 0
2555 1 1 0 29.40482 46.01273 18.56727 0 0 0
2556 75 2 0 26.53411 46.06026 18.51974 0 0 0
2557 75 3 0 27.051789999999997 46.73293 17.84707 0 0 0
2558 1 1 0 29.40482 31.48327 7.26473 0 0 0
2559 74 2 0 26.53411 31.435740000000003 7.31226 0 0 0
2560 74 3 0 27.051789999999997 30.76307 7.984929999999999 0 0 0
2561 1 4 0 31.22417 33.35583 5.39217 0 0 0
2562 1 4 0 31.22417 44.14017 20.43983 0 0 0
2563 1 4 0 31.22417 31.22417 7.52383 0 0 0
2564 1 4 0 31.22417 46.27183 18.30817 0 0 0
2565 1 1 0 31.48327 29.40482 7.26473 0 0 0
2566 123 2 0 32.29 28.75308 6.458 0 0 0
2567 123 2 0 32.29 27.25741 6.458 0 0 0
2568 123 2 0 31.435740000000003 26.53411 7.31226 0 0 0
2569 123 3 0 30.76307 27.051789999999997 7.984929999999999 0 0 0
2570 1 1 0 46.01273 29.40482 18.56727 0 0 0
2571 122 2 0 45.206 28.75308 19.374 0 0 0
2572 122 2 0 45.206 27.25741 19.374 0 0 0
2573 122 2 0 46.06026 26.53411 18.51974 0 0 0
2574 122 3 0 46.73293 27.051789999999997 17.84707 0 0 0
2575 1 1 0 33.09673 29.40482 5.65127 0 0 0
2576 123 2 0 33.14426 26.53411 5.60374 0 0 0
2577 123 3 0 33.81693 27.051789999999997 4.93107 0 0 0
2578 1 1 0 44.39927 29.40482 20.18073 0 0 0
2579 122 2 0 44.35174 26.53411 20.22826 0 0 0
2580 122 3 0 43.67907 27.051789999999997 20.90093 0 0 0
2581 1 4 0 33.35583 31.22417 5.39217 0 0 0
2582 1 4 0 44.14017 31.22417 20.43983 0 0 0
2583 1 4 0 46.27183 31.22417 18.30817 0 0 0
2584 1 5 0 32.29 32.29 6.458 0 0 0
2585 1 1 0 33.09673 31.48327 3.57282 0 0 0
2586 162 2 0 32.29 32.29 2.92108 0 0 0
2587 162 2 0 32.29 32.29 1.42541 0 0 0
2588 162 2 0 33.14426 31.435740000000003 0.70211 0 0 0
2589 162 3 0 33.81693 30.76307 1.21979 0 0 0
2590 1 4 0 44.14017 46.27183 5.39217 0 0 0
2591 1 5 0 45.206 45.206 6.458 0 0 0
2592 1 1 0 44.39927 46.01273 3.57282 0 0 0
2593 163 2 0 45.206 45.206 2.92108 0 0 0
2594 163 2 0 45.206 45.206 1.42541 0 0 0
2595 163 2 0 44.35174 46.06026 0.70211 0 0 0
2596 163 3 0 43.67907 46.73293 1.21979 0 0 0
2597 1 5 0 45.206 32.29 19.374 0 0 0
2598 1 4 0 33.35583 46.27183 20.43983 0 0 0
2599 1 5 0 32.29 45.206 19.374 0 0 0
2600 1 4 0 46.27183 44.14017 5.39217 0 0 0
2601 1 4 0 46.27183 33.35583 20.43983 0 0 0
2602 1 4 0 46.27183 46.27183 7.52383 0 0 0
2603 1 4 0 31.22417 33.35583 20.43983 0 0 0
2604 1 5 0 32.29 32.29 19.374 0 0 0
2605 1 4 0 46.27183 44.14017 20.43983 0 0 0
2606 1 5 0 45.206 45.206 19.374 0 0 0
2607 1 4 0 31.22417 44.14017 5.39217 0 0 0
2608 1 5 0 32.29 45.206 6.458 0 0 0
2609 1 1 0 31.48327 44.39927 3.57282 0 0 0
2610 164 2 0 32.29 45.206 2.92108 0 0 0
2611 164 2 0 32.29 45.206 1.42541 0 0 0
2612 164 2 0 31.435740000000003 44.35174 0.70211 0 0 0
2613 164 3 0 30.76307 43.67907 1.21979 0 0 0
2614 1 4 0 46.27183 33.35583 5.39217 0 0 0
2615 1 5 0 45.206 32.29 6.458 0 0 0
2616 1 1 0 46.01273 33.09673 3.57282 0 0 0
2617 165 2 0 45.206 32.29 2.92108 0 0 0
2618 165 2 0 45.206 32.29 1.42541 0 0 0
2619 165 2 0 46.06026 33.14426 0.70211 0 0 0
2620 165 3 0 46.73293 33.81693 1.21979 0 0 0
2621 1 4 0 33.35583 31.22417 20.43983 0 0 0
2622 1 1 0 33.09673 29.40482 20.18073 0 0 0
2623 140 2 0 32.29 28.75308 19.374 0 0 0
2624 140 2 0 32.29 27.25741 19.374 0 0 0
2625 140 2 0 33.14426 26.53411 20.22826 0 0 0
2626 140 3 0 33.81693 27.051789999999997 20.90093 0 0 0
2627 1 4 0 44.14017 31.22417 5.39217 0 0 0
2628 1 1 0 44.39927 29.40482 5.65127 0 0 0
2629 141 2 0 45.206 28.75308 6.458 0 0 0
2630 141 2 0 45.206 27.25741 6.458 0 0 0
2631 141 2 0 44.35174 26.53411 5.60374 0 0 0
2632 141 3 0 43.67907 27.051789999999997 4.93107 0 0 0
2633 1 4 0 44.14017 46.27183 20.43983 0 0 0
2634 1 1 0 44.39927 48.09118 20.18073 0 0 0
2635 115 2 0 45.206 48.74292 19.374 0 0 0
2636 115 2 0 45.206 50.23859 19.374 0 0 0
2637 115 2 0 44.35174 50.96189 20.22826 0 0 0
2638 115 3 0 43.67907 50.44421 20.90093 0 0 0
2639 1 4 0 33.35583 46.27183 5.39217 0 0 0
2640 1 1 0 33.09673 48.09118 5.65127 0 0 0
2641 114 2 0 32.29 48.74292 6.458 0 0 0
2642 114 2 0 32.29 50.23859 6.458 0 0 0
2643 114 2 0 33.14426 50.96189 5.60374 0 0 0
2644 114 3 0 33.81693 50.44421 4.93107 0 0 0
2645 1 4 0 31.22417 31.22417 18.30817 0 0 0
2646 1 1 0 29.40482 31.48327 18.56727 0 0 0
2647 93 2 0 28.75308 32.29 19.374 0 0 0
2648 93 2 0 27.25741 32.29 19.374 0 0 0
2649 93 2 0 26.53411 31.435740000000003 18.51974 0 0 0
2650 93 3 0 27.051789999999997 30.76307 17.84707 0 0 0
2651 1 4 0 31.22417 46.27183 7.52383 0 0 0
2652 1 1 0 29.40482 46.01273 7.26473 0 0 0
2653 92 2 0 28.75308 45.206 6.458 0 0 0
2654 92 2 0 27.25741 45.206 6.458 0 0 0
2655 92 2 0 26.53411 46.06026 7.31226 0 0 0
2656 92 3 0 27.051789999999997 46.73293 7.984929999999999 0 0 0
2657 1 4 0 46.27183 31.22417 7.52383 0 0 0
2658 1 1 0 48.09118 31.48327 7.26473 0 0 0
2659 66 2 0 48.74292 32.29 6.458 0 0 0
2660 66 2 0 50.23859 32.29 6.458 0 0 0
2661 66 2 0 50.96189 31.435740000000003 7.31226 0 0 0
2662 66 3 0 50.44421 30.76307 7.984929999999999 0 0 0
2663 1 4 0 46.27183 46.27183 18.30817 0 0 0
2664 1 1 0 48.09118 46.01273 18.56727 0 0 0
2665 67 2 0 48.74292 45.206 19.374 0 0 0
2666 67 2 0 50.23859 45.206 19.374 0 0 0
2667 67 2 0 50.96189 46.06026 18.51974 0 0 0
2668 67 3 0 50.44421 46.73293 17.84707 0 0 0
2669 1 1 0 33.09673 46.01273 3.57282 0 0 0
2670 164 2 0 33.14426 46.06026 0.70211 0 0 0
2671 164 3 0 33.81693 46.73293 1.21979 0 0 0
2672 1 1 0 44.39927 31.48327 3.57282 0 0 0
2673 165 2 0 44.35174 31.435740000000003 0.70211 0 0 0
2674 165 3 0 43.67907 30.76307 1.21979 0 0 0
2675 1 1 0 48.09118 44.39927 20.18073 0 0 0
2676 67 2 0 50.96189 44.35174 20.22826 0 0 0
2677 67 3 0 50.44421 43.67907 20.90093 0 0 0
2678 1 1 0 48.09118 33.09673 5.65127 0 0 0
2679 66 2 0 50.96189 33.14426 5.60374 0 0 0
2680 66 3 0 50.44421 33.81693 4.93107 0 0 0
2681 1 1 0 29.40482 33.09673 20.18073 0 0 0
2682 93 2 0 26.53411 33.14426 20.22826 0 0 0
2683 93 3 0 27.051789999999997 33.81693 20.90093 0 0 0
2684 1 1 0 29.40482 44.39927 5.65127 0 0 0
2685 92 2 0 26.53411 44.35174 5.60374 0 0 0
2686 92 3 0 27.051789999999997 43.67907 4.93107 0 0 0
2687 1 1 0 46.01273 48.09118 18.56727 0 0 0
2688 115 2 0 46.06026 50.96189 18.51974 0 0 0
2689 115 3 0 46.73293 50.44421 17.84707 0 0 0
2690 1 1 0 31.48327 48.09118 7.26473 0 0 0
2691 114 2 0 31.435740000000003 50.96189 7.31226 0 0 0
2692 114 3 0 30.76307 50.44421 7.984929999999999 0 0 0
2693 1 1 0 46.01273 29.40482 7.26473 0 0 0
2694 141 2 0 46.06026 26.53411 7.31226 0 0 0
2695 141 3 0 46.73293 27.051789999999997 7.984929999999999 0 0 0
2696 1 1 0 31.48327 29.40482 18.56727 0 0 0
2697 140 2 0 31.435740000000003 26.53411 18.51974 0 0 0
2698 140 3 0 30.76307 27.051789999999997 17.84707 0 0 0
2699 1 1 0 46.01273 44.39927 3.57282 0 0 0
2700 163 2 0 46.06026 44.35174 0.70211 0 0 0
2701 163 3 0 46.73293 43.67907 1.21979 0 0 0
2702 1 1 0 31.48327 33.09673 3.57282 0 0 0
2703 162 2 0 31.435740000000003 33.14426 0.70211 0 0 0
2704 162 3 0 30.76307 33.81693 1.21979 0 0 0
2705 1 4 0 33.35583 44.14017 18.30817 0 0 0
2706 1 1 0 33.09673 44.39927 16.48882 0 0 0
2707 166 2 0 32.29 45.206 15.837079999999998 0 0 0
2708 166 2 0 32.29 45.206 14.341409999999998 0 0 0
2709 166 2 0 33.14426 44.35174 13.61811 0 0 0
2710 166 3 0 33.81693 43.67907 14.13579 0 0 0
2711 1 4 0 44.14017 33.35583 18.30817 0 0 0
2712 1 1 0 44.39927 33.09673 16.48882 0 0 0
2713 167 2 0 45.206 32.29 15.837079999999998 0 0 0
2714 167 2 0 45.206 32.29 14.341409999999998 0 0 0
2715 167 2 0 44.35174 33.14426 13.61811 0 0 0
2716 167 3 0 43.67907 33.81693 14.13579 0 0 0
2717 1 4 0 44.14017 44.14017 7.52383 0 0 0
2718 1 1 0 44.39927 44.39927 9.34318 0 0 0
2719 168 2 0 45.206 45.206 9.99492 0 0 0
2720 168 2 0 45.206 45.206 11.49059 0 0 0
2721 168 2 0 44.35174 44.35174 12.21389 0 0 0
2722 168 3 0 43.67907 43.67907 11.69621 0 0 0
2723 1 4 0 33.35583 33.35583 7.52383 0 0 0
2724 1 1 0 33.09673 33.09673 9.34318 0 0 0
2725 169 2 0 32.29 32.29 9.99492 0 0 0
2726 169 2 0 32.29 32.29 11.49059 0 0 0
2727 169 2 0 33.14426 33.14426 12.21389 0 0 0
2728 169 3 0 33.81693 33.81693 11.69621 0 0 0
2729 1 1 0 31.48327 42.32082 20.18073 0 0 0
2730 170 2 0 32.29 41.66908 19.374 0 0 0
2731 170 2 0 32.29 40.17341 19.374 0 0 0
2732 170 2 0 31.435740000000003 39.45011 20.22826 0 0 0
2733 170 3 0 30.76307 39.96779 20.90093 0 0 0
2734 1 1 0 46.01273 42.32082 5.65127 0 0 0
2735 171 2 0 45.206 41.66908 6.458 0 0 0
2736 171 2 0 45.206 40.17341 6.458 0 0 0
2737 171 2 0 46.06026 39.45011 5.60374 0 0 0
2738 171 3 0 46.73293 39.96779 4.93107 0 0 0
2739 1 1 0 31.48327 35.17518 5.65127 0 0 0
2740 172 2 0 32.29 35.82692 6.458 0 0 0
2741 172 2 0 32.29 37.32258999999999 6.458 0 0 0
2742 172 2 0 31.435740000000003 38.04589 5.60374 0 0 0
2743 172 3 0 30.76307 37.52821 4.93107 0 0 0
2744 1 1 0 46.01273 35.17518 20.18073 0 0 0
2745 173 2 0 45.206 35.82692 19.374 0 0 0
2746 173 2 0 45.206 37.32258999999999 19.374 0 0 0
2747 173 2 0 46.06026 38.04589 20.22826 0 0 0
2748 173 3 0 46.73293 37.52821 20.90093 0 0 0
2749 1 1 0 31.48327 46.01273 9.34318 0 0 0
2750 166 2 0 32.29 45.206 9.99492 0 0 0
2751 166 2 0 32.29 45.206 11.49059 0 0 0
2752 166 2 0 31.435740000000003 46.06026 12.21389 0 0 0
2753 166 3 0 30.76307 46.73293 11.69621 0 0 0
2754 1 1 0 46.01273 31.48327 9.34318 0 0 0
2755 167 2 0 45.206 32.29 9.99492 0 0 0
2756 167 2 0 45.206 32.29 11.49059 0 0 0
2757 167 2 0 46.06026 31.435740000000003 12.21389 0 0 0
2758 167 3 0 46.73293 30.76307 11.69621 0 0 0
2759 1 1 0 31.48327 31.48327 16.48882 0 0 0
2760 169 2 0 32.29 32.29 15.837079999999998 0 0 0
2761 169 2 0 32.29 32.29 14.341409999999998 0 0 0
2762 169 2 0 31.435740000000003 31.435740000000003 13.61811 0 0 0
2763 169 3 0 30.76307 30.76307 14.13579 0 0 0
2764 1 1 0 46.01273 46.01273 16.48882 0 0 0
2765 168 2 0 45.206 45.206 15.837079999999998 0 0 0
2766 168 2 0 45.206 45.206 14.341409999999998 0 0 0
2767 168 2 0 46.06026 46.06026 13.61811 0 0 0
2768 168 3 0 46.73293 46.73293 14.13579 0 0 0
2769 1 4 0 33.35583 44.14017 7.52383 0 0 0
2770 1 1 0 33.09673 42.32082 7.26473 0 0 0
2771 172 2 0 32.29 41.66908 6.458 0 0 0
2772 172 2 0 32.29 40.17341 6.458 0 0 0
2773 172 2 0 33.14426 39.45011 7.31226 0 0 0
2774 172 3 0 33.81693 39.96779 7.984929999999999 0 0 0
2775 1 4 0 44.14017 44.14017 18.30817 0 0 0
2776 1 1 0 44.39927 42.32082 18.56727 0 0 0
2777 173 2 0 45.206 41.66908 19.374 0 0 0
2778 173 2 0 45.206 40.17341 19.374 0 0 0
2779 173 2 0 44.35174 39.45011 18.51974 0 0 0
2780 173 3 0 43.67907 39.96779 17.84707 0 0 0
2781 1 4 0 44.14017 33.35583 7.52383 0 0 0
2782 1 1 0 44.39927 35.17518 7.26473 0 0 0
2783 171 2 0 45.206 35.82692 6.458 0 0 0
2784 171 2 0 45.206 37.32258999999999 6.458 0 0 0
2785 171 2 0 44.35174 38.04589 7.31226 0 0 0
2786 171 3 0 43.67907 37.52821 7.984929999999999 0 0 0
2787 1 4 0 33.35583 33.35583 18.30817 0 0 0
2788 1 1 0 33.09673 35.17518 18.56727 0 0 0
2789 170 2 0 32.29 35.82692 19.374 0 0 0
2790 170 2 0 32.29 37.32258999999999 19.374 0 0 0
2791 170 2 0 33.14426 38.04589 18.51974 0 0 0
2792 170 3 0 33.81693 37.52821 17.84707 0 0 0
2793 1 1 0 44.39927 33.09673 9.34318 0 0 0
2794 167 2 0 44.35174 33.14426 12.21389 0 0 0
2795 167 3 0 43.67907 33.81693 11.69621 0 0 0
2796 1 1 0 33.09673 44.39927 9.34318 0 0 0
2797 166 2 0 33.14426 44.35174 12.21389 0 0 0
2798 166 3 0 33.81693 43.67907 11.69621 0 0 0
2799 1 1 0 33.09673 33.09673 16.48882 0 0 0
2800 169 2 0 33.14426 33.14426 13.61811 0 0 0
2801 169 3 0 33.81693 33.81693 14.13579 0 0 0
2802 1 1 0 44.39927 44.39927 16.48882 0 0 0
2803 168 2 0 44.35174 44.35174 13.61811 0 0 0
2804 168 3 0 43.67907 43.67907 14.13579 0 0 0
2805 1 1 0 46.01273 35.17518 5.65127 0 0 0
2806 171 2 0 46.06026 38.04589 5.60374 0 0 0
2807 171 3 0 46.73293 37.52821 4.93107 0 0 0
2808 1 1 0 31.48327 35.17518 20.18073 0 0 0
2809 170 2 0 31.435740000000003 38.04589 20.22826 0 0 0
2810 170 3 0 30.76307 37.52821 20.90093 0 0 0
2811 1 1 0 46.01273 42.32082 20.18073 0 0 0
2812 173 2 0 46.06026 39.45011 20.22826 0 0 0
2813 173 3 0 46.73293 39.96779 20.90093 0 0 0
2814 1 1 0 31.48327 42.32082 5.65127 0 0 0
2815 172 2 0 31.435740000000003 39.45011 5.60374 0 0 0
2816 172 3 0 30.76307 39.96779 4.93107 0 0 0
2817 1 1 0 46.01273 31.48327 16.48882 0 0 0
2818 167 2 0 46.06026 31.435740000000003 13.61811 0 0 0
2819 167 3 0 46.73293 30.76307 14.13579 0 0 0
2820 1 1 0 31.48327 46.01273 16.48882 0 0 0
2821 166 2 0 31.435740000000003 46.06026 13.61811 0 0 0
2822 166 3 0 30.76307 46.73293 14.13579 0 0 0
2823 1 1 0 46.01273 46.01273 9.34318 0 0 0
2824 168 2 0 46.06026 46.06026 12.21389 0 0 0
2825 168 3 0 46.73293 46.73293 11.69621 0 0 0
2826 1 1 0 31.48327 31.48327 9.34318 0 0 0
2827 169 2 0 31.435740000000003 31.435740000000003 12.21389 0 0 0
2828 169 3 0 30.76307 30.76307 11.69621 0 0 0
2829 1 1 0 44.39927 35.17518 18.56727 0 0 0
2830 173 2 0 44.35174 38.04589 18.51974 0 0 0
2831 173 3 0 43.67907 37.52821 17.84707 0 0 0
2832 1 1 0 33.09673 35.17518 7.26473 0 0 0
2833 172 2 0 33.14426 38.04589 7.31226 0 0 0
2834 172 3 0 33.81693 37.52821 7.984929999999999 0 0 0
2835 1 1 0 33.09673 42.32082 18.56727 0 0 0
2836 170 2 0 33.14426 39.45011 18.51974 0 0 0
2837 170 3 0 33.81693 39.96779 17.84707 0 0 0
2838 1 1 0 44.39927 42.32082 7.26473 0 0 0
2839 171 2 0 44.35174 39.45011 7.31226 0 0 0
2840 171 3 0 43.67907 39.96779 7.984929999999999 0 0 0
2841 1 1 0 42.32082 33.09673 18.56727 0 0 0
2842 174 2 0 41.66908 32.29 19.374 0 0 0
2843 174 2 0 40.17341 32.29 19.374 0 0 0
2844 174 2 0 39.45011 33.14426 18.51974 0 0 0
2845 174 3 0 39.96779 33.81693 17.84707 0 0 0
2846 1 1 0 42.32082 44.39927 7.26473 0 0 0
2847 175 2 0 41.66908 45.206 6.458 0 0 0
2848 175 2 0 40.17341 45.206 6.458 0 0 0
2849 175 2 0 39.45011 44.35174 7.31226 0 0 0
2850 175 3 0 39.96779 43.67907 7.984929999999999 0 0 0
2851 1 1 0 35.17518 44.39927 18.56727 0 0 0
2852 176 2 0 35.82692 45.206 19.374 0 0 0
2853 176 2 0 37.32258999999999 45.206 19.374 0 0 0
2854 176 2 0 38.04589 44.35174 18.51974 0 0 0
2855 176 3 0 37.52821 43.67907 17.84707 0 0 0
2856 1 1 0 35.17518 33.09673 7.26473 0 0 0
2857 177 2 0 35.82692 32.29 6.458 0 0 0
2858 177 2 0 37.32258999999999 32.29 6.458 0 0 0
2859 177 2 0 38.04589 33.14426 7.31226 0 0 0
2860 177 3 0 37.52821 33.81693 7.984929999999999 0 0 0
2861 1 1 0 42.32082 31.48327 5.65127 0 0 0
2862 177 2 0 41.66908 32.29 6.458 0 0 0
2863 177 2 0 40.17341 32.29 6.458 0 0 0
2864 177 2 0 39.45011 31.435740000000003 5.60374 0 0 0
2865 177 3 0 39.96779 30.76307 4.93107 0 0 0
2866 1 1 0 42.32082 46.01273 20.18073 0 0 0
2867 176 2 0 41.66908 45.206 19.374 0 0 0
2868 176 2 0 40.17341 45.206 19.374 0 0 0
2869 176 2 0 39.45011 46.06026 20.22826 0 0 0
2870 176 3 0 39.96779 46.73293 20.90093 0 0 0
2871 1 1 0 35.17518 31.48327 20.18073 0 0 0
2872 174 2 0 35.82692 32.29 19.374 0 0 0
2873 174 2 0 37.32258999999999 32.29 19.374 0 0 0
2874 174 2 0 38.04589 31.435740000000003 20.22826 0 0 0
2875 174 3 0 37.52821 30.76307 20.90093 0 0 0
2876 1 1 0 35.17518 46.01273 5.65127 0 0 0
2877 175 2 0 35.82692 45.206 6.458 0 0 0
2878 175 2 0 37.32258999999999 45.206 6.458 0 0 0
2879 175 2 0 38.04589 46.06026 5.60374 0 0 0
2880 175 3 0 37.52821 46.73293 4.93107 0 0 0
2881 1 1 0 35.17518 44.39927 7.26473 0 0 0
2882 175 2 0 38.04589 44.35174 7.31226 0 0 0
2883 175 3 0 37.52821 43.67907 7.984929999999999 0 0 0
2884 1 1 0 35.17518 33.09673 18.56727 0 0 0
2885 174 2 0 38.04589 33.14426 18.51974 0 0 0
2886 174 3 0 37.52821 33.81693 17.84707 0 0 0
2887 1 1 0 42.32082 33.09673 7.26473 0 0 0
2888 177 2 0 39.45011 33.14426 7.31226 0 0 0
2889 177 3 0 39.96779 33.81693 7.984929999999999 0 0 0
2890 1 1 0 42.32082 44.39927 18.56727 0 0 0
2891 176 2 0 39.45011 44.35174 18.51974 0 0 0
2892 176 3 0 39.96779 43.67907 17.84707 0 0 0
2893 1 1 0 35.17518 46.01273 20.18073 0 0 0
2894 176 2 0 38.04589 46.06026 20.22826 0 0 0
2895 176 3 0 37.52821 46.73293 20.90093 0 0 0
2896 1 1 0 35.17518 31.48327 5.65127 0 0 0
2897 177 2 0 38.04589 31.435740000000003 5.60374 0 0 0
2898 177 3 0 37.52821 30.76307 4.93107 0 0 0
2899 1 1 0 42.32082 46.01273 5.65127 0 0 0
2900 175 2 0 39.45011 46.06026 5.60374 0 0 0
2901 175 3 0 39.96779 46.73293 4.93107 0 0 0
2902 1 1 0 42.32082 31.48327 20.18073 0 0 0
2903 174 2 0 39.45011 31.435740000000003 20.22826 0 0 0
2904 174 3 0 39.96779 30.76307 20.90093 0 0 0
2905 1 1 0 44.39927 31.48327 22.25918 0 0 0
2906 1 1 0 33.09673 46.01273 22.25918 0 0 0
2907 1 1 0 48.09118 44.39927 5.65127 0 0 0
2908 1 1 0 48.09118 33.09673 20.18073 0 0 0
2909 1 1 0 31.48327 48.09118 18.56727 0 0 0
2910 1 1 0 46.01273 48.09118 7.26473 0 0 0
2911 1 1 0 31.48327 33.09673 22.25918 0 0 0
2912 1 1 0 46.01273 44.39927 22.25918 0 0 0
2913 1 1 0 44.39927 46.01273 22.25918 0 0 0
2914 1 1 0 33.09673 31.48327 22.25918 0 0 0
2915 1 1 0 46.01273 33.09673 22.25918 0 0 0
2916 1 1 0 31.48327 44.39927 22.25918 0 0 0
2917 1 1 0 44.39927 48.09118 5.65127 0 0 0
2918 1 1 0 33.09673 48.09118 20.18073 0 0 0
2919 1 1 0 48.09118 46.01273 7.26473 0 0 0
2920 1 1 0 48.09118 31.48327 18.56727 0 0 0
2921 178 2 0 45.206 32.29 22.91092 0 0 0
2922 178 2 0 45.206 32.29 24.40659 0 0 0
2923 178 2 0 44.35174 31.435740000000003 25.12989 0 0 0
2924 178 3 0 43.67907 30.76307 24.61221 0 0 0
2925 179 2 0 32.29 45.206 22.91092 0 0 0
2926 179 2 0 32.29 45.206 24.40659 0 0 0
2927 179 2 0 33.14426 46.06026 25.12989 0 0 0
2928 179 3 0 33.81693 46.73293 24.61221 0 0 0
2929 180 2 0 32.29 32.29 22.91092 0 0 0
2930 180 2 0 32.29 32.29 24.40659 0 0 0
2931 180 2 0 31.435740000000003 33.14426 25.12989 0 0 0
2932 180 3 0 30.76307 33.81693 24.61221 0 0 0
2933 181 2 0 45.206 45.206 22.91092 0 0 0
2934 181 2 0 45.206 45.206 24.40659 0 0 0
2935 181 2 0 46.06026 44.35174 25.12989 0 0 0
2936 181 3 0 46.73293 43.67907 24.61221 0 0 0
2937 181 2 0 44.35174 46.06026 25.12989 0 0 0
2938 181 3 0 43.67907 46.73293 24.61221 0 0 0
2939 180 2 0 33.14426 31.435740000000003 25.12989 0 0 0
2940 180 3 0 33.81693 30.76307 24.61221 0 0 0
2941 178 2 0 46.06026 33.14426 25.12989 0 0 0
2942 178 3 0 46.73293 33.81693 24.61221 0 0 0
2943 179 2 0 31.435740000000003 44.35174 25.12989 0 0 0
2944 179 3 0 30.76307 43.67907 24.61221 0 0 0
2945 120 2 0 32.29 48.74292 19.374 0 0 0
2946 120 2 0 32.29 50.23859 19.374 0 0 0
2947 120 2 0 31.435740000000003 50.96189 18.51974 0 0 0
2948 120 3 0 30.76307 50.44421 17.84707 0 0 0
2949 121 2 0 45.206 48.74292 6.458 0 0 0
2950 121 2 0 45.206 50.23859 6.458 0 0 0
2951 121 2 0 46.06026 50.96189 7.31226 0 0 0
2952 121 3 0 46.73293 50.44421 7.984929999999999 0 0 0
2953 121 2 0 44.35174 50.96189 5.60374 0 0 0
2954 121 3 0 43.67907 50.44421 4.93107 0 0 0
2955 120 2 0 33.14426 50.96189 20.22826 0 0 0
2956 120 3 0 33.81693 50.44421 20.90093 0 0 0
2957 73 2 0 48.74292 45.206 6.458 0 0 0
2958 73 2 0 50.23859 45.206 6.458 0 0 0
2959 73 2 0 50.96189 44.35174 5.60374 0 0 0
2960 73 3 0 50.44421 43.67907 4.93107 0 0 0
2961 72 2 0 48.74292 32.29 19.374 0 0 0
2962 72 2 0 50.23859 32.29 19.374 0 0 0
2963 72 2 0 50.96189 33.14426 20.22826 0 0 0
2964 72 3 0 50.44421 33.81693 20.90093 0 0 0
2965 73 2 0 50.96189 46.06026 7.31226 0 0 0
2966 73 3 0 50.44421 46.73293 7.984929999999999 0 0 0
2967 72 2 0 50.96189 31.435740000000003 18.51974 0 0 0
2968 72 3 0 50.44421 30.76307 17.84707 0 0 0
2969 1 1 0 29.40482 33.09673 31.48327 0 0 0
2970 98 2 0 28.75308 32.29 32.29 0 0 0
2971 98 2 0 27.25741 32.29 32.29 0 0 0
2972 98 2 0 26.53411 33.14426 31.435740000000003 0 0 0
2973 98 3 0 27.051789999999997 33.81693 30.76307 0 0 0
2974 1 1 0 29.40482 44.39927 46.01273 0 0 0
2975 99 2 0 28.75308 45.206 45.206 0 0 0
2976 99 2 0 27.25741 45.206 45.206 0 0 0
2977 99 2 0 26.53411 44.35174 46.06026 0 0 0
2978 99 3 0 27.051789999999997 43.67907 46.73293 0 0 0
2979 1 1 0 29.40482 46.01273 44.39927 0 0 0
2980 99 2 0 26.53411 46.06026 44.35174 0 0 0
2981 99 3 0 27.051789999999997 46.73293 43.67907 0 0 0
2982 1 1 0 29.40482 31.48327 33.09673 0 0 0
2983 98 2 0 26.53411 31.435740000000003 33.14426 0 0 0
2984 98 3 0 27.051789999999997 30.76307 33.81693 0 0 0
2985 1 4 0 31.22417 33.35583 31.22417 0 0 0
2986 1 4 0 31.22417 44.14017 46.27183 0 0 0
2987 1 4 0 31.22417 31.22417 33.35583 0 0 0
2988 1 4 0 31.22417 46.27183 44.14017 0 0 0
2989 1 1 0 31.48327 29.40482 33.09673 0 0 0
2990 147 2 0 32.29 28.75308 32.29 0 0 0
2991 147 2 0 32.29 27.25741 32.29 0 0 0
2992 147 2 0 31.435740000000003 26.53411 33.14426 0 0 0
2993 147 3 0 30.76307 27.051789999999997 33.81693 0 0 0
2994 1 1 0 46.01273 29.40482 44.39927 0 0 0
2995 146 2 0 45.206 28.75308 45.206 0 0 0
2996 146 2 0 45.206 27.25741 45.206 0 0 0
2997 146 2 0 46.06026 26.53411 44.35174 0 0 0
2998 146 3 0 46.73293 27.051789999999997 43.67907 0 0 0
2999 1 1 0 33.09673 29.40482 31.48327 0 0 0
3000 147 2 0 33.14426 26.53411 31.435740000000003 0 0 0
3001 147 3 0 33.81693 27.051789999999997 30.76307 0 0 0
3002 1 1 0 44.39927 29.40482 46.01273 0 0 0
3003 146 2 0 44.35174 26.53411 46.06026 0 0 0
3004 146 3 0 43.67907 27.051789999999997 46.73293 0 0 0
3005 1 4 0 33.35583 31.22417 31.22417 0 0 0
3006 1 4 0 44.14017 31.22417 46.27183 0 0 0
3007 1 4 0 46.27183 31.22417 44.14017 0 0 0
3008 1 5 0 32.29 32.29 32.29 0 0 0
3009 1 1 0 33.09673 31.48327 29.40482 0 0 0
3010 180 2 0 32.29 32.29 28.75308 0 0 0
3011 180 2 0 32.29 32.29 27.25741 0 0 0
3012 180 2 0 33.14426 31.435740000000003 26.53411 0 0 0
3013 180 3 0 33.81693 30.76307 27.051789999999997 0 0 0
3014 1 4 0 44.14017 46.27183 31.22417 0 0 0
3015 1 5 0 45.206 45.206 32.29 0 0 0
3016 1 1 0 44.39927 46.01273 29.40482 0 0 0
3017 181 2 0 45.206 45.206 28.75308 0 0 0
3018 181 2 0 45.206 45.206 27.25741 0 0 0
3019 181 2 0 44.35174 46.06026 26.53411 0 0 0
3020 181 3 0 43.67907 46.73293 27.051789999999997 0 0 0
3021 1 5 0 45.206 32.29 45.206 0 0 0
3022 1 4 0 33.35583 46.27183 46.27183 0 0 0
3023 1 5 0 32.29 45.206 45.206 0 0 0
3024 1 4 0 46.27183 44.14017 31.22417 0 0 0
3025 1 4 0 46.27183 33.35583 46.27183 0 0 0
3026 1 4 0 46.27183 46.27183 33.35583 0 0 0
3027 1 4 0 31.22417 33.35583 46.27183 0 0 0
3028 1 5 0 32.29 32.29 45.206 0 0 0
3029 1 4 0 46.27183 44.14017 46.27183 0 0 0
3030 1 5 0 45.206 45.206 45.206 0 0 0
3031 1 4 0 31.22417 44.14017 31.22417 0 0 0
3032 1 5 0 32.29 45.206 32.29 0 0 0
3033 1 1 0 31.48327 44.39927 29.40482 0 0 0
3034 179 2 0 32.29 45.206 28.75308 0 0 0
3035 179 2 0 32.29 45.206 27.25741 0 0 0
3036 179 2 0 31.435740000000003 44.35174 26.53411 0 0 0
3037 179 3 0 30.76307 43.67907 27.051789999999997 0 0 0
3038 1 4 0 46.27183 33.35583 31.22417 0 0 0
3039 1 5 0 45.206 32.29 32.29 0 0 0
3040 1 1 0 46.01273 33.09673 29.40482 0 0 0
3041 178 2 0 45.206 32.29 28.75308 0 0 0
3042 178 2 0 45.206 32.29 27.25741 0 0 0
3043 178 2 0 46.06026 33.14426 26.53411 0 0 0
3044 178 3 0 46.73293 33.81693 27.051789999999997 0 0 0
3045 1 4 0 33.35583 31.22417 46.27183 0 0 0
3046 1 1 0 33.09673 29.40482 46.01273 0 0 0
3047 160 2 0 32.29 28.75308 45.206 0 0 0
3048 160 2 0 32.29 27.25741 45.206 0 0 0
3049 160 2 0 33.14426 26.53411 46.06026 0 0 0
3050 160 3 0 33.81693 27.051789999999997 46.73293 0 0 0
3051 1 4 0 44.14017 31.22417 31.22417 0 0 0
3052 1 1 0 44.39927 29.40482 31.48327 0 0 0
3053 161 2 0 45.206 28.75308 32.29 0 0 0
3054 161 2 0 45.206 27.25741 32.29 0 0 0
3055 161 2 0 44.35174 26.53411 31.435740000000003 0 0 0
3056 161 3 0 43.67907 27.051789999999997 30.76307 0 0 0
3057 1 4 0 44.14017 46.27183 46.27183 0 0 0
3058 1 1 0 44.39927 48.09118 46.01273 0 0 0
3059 143 2 0 45.206 48.74292 45.206 0 0 0
3060 143 2 0 45.206 50.23859 45.206 0 0 0
3061 143 2 0 44.35174 50.96189 46.06026 0 0 0
3062 143 3 0 43.67907 50.44421 46.73293 0 0 0
3063 1 4 0 33.35583 46.27183 31.22417 0 0 0
3064 1 1 0 33.09673 48.09118 31.48327 0 0 0
3065 142 2 0 32.29 48.74292 32.29 0 0 0
3066 142 2 0 32.29 50.23859 32.29 0 0 0
3067 142 2 0 33.14426 50.96189 31.435740000000003 0 0 0
3068 142 3 0 33.81693 50.44421 30.76307 0 0 0
3069 1 4 0 31.22417 31.22417 44.14017 0 0 0
3070 1 1 0 29.40482 31.48327 44.39927 0 0 0
3071 113 2 0 28.75308 32.29 45.206 0 0 0
3072 113 2 0 27.25741 32.29 45.206 0 0 0
3073 113 2 0 26.53411 31.435740000000003 44.35174 0 0 0
3074 113 3 0 27.051789999999997 30.76307 43.67907 0 0 0
3075 1 4 0 31.22417 46.27183 33.35583 0 0 0
3076 1 1 0 29.40482 46.01273 33.09673 0 0 0
3077 112 2 0 28.75308 45.206 32.29 0 0 0
3078 112 2 0 27.25741 45.206 32.29 0 0 0
3079 112 2 0 26.53411 46.06026 33.14426 0 0 0
3080 112 3 0 27.051789999999997 46.73293 33.81693 0 0 0
3081 1 4 0 46.27183 31.22417 33.35583 0 0 0
3082 1 1 0 48.09118 31.48327 33.09673 0 0 0
3083 94 2 0 48.74292 32.29 32.29 0 0 0
3084 94 2 0 50.23859 32.29 32.29 0 0 0
3085 94 2 0 50.96189 31.435740000000003 33.14426 0 0 0
3086 94 3 0 50.44421 30.76307 33.81693 0 0 0
3087 1 4 0 46.27183 46.27183 44.14017 0 0 0
3088 1 1 0 48.09118 46.01273 44.39927 0 0 0
3089 95 2 0 48.74292 45.206 45.206 0 0 0
3090 95 2 0 50.23859 45.206 45.206 0 0 0
3091 95 2 0 50.96189 46.06026 44.35174 0 0 0
3092 95 3 0 50.44421 46.73293 43.67907 0 0 0
3093 1 1 0 33.09673 46.01273 29.40482 0 0 0
3094 179 2 0 33.14426 46.06026 26.53411 0 0 0
3095 179 3 0 33.81693 46.73293 27.051789999999997 0 0 0
3096 1 1 0 44.39927 31.48327 29.40482 0 0 0
3097 178 2 0 44.35174 31.435740000000003 26.53411 0 0 0
3098 178 3 0 43.67907 30.76307 27.051789999999997 0 0 0
3099 1 1 0 48.09118 44.39927 46.01273 0 0 0
3100 95 2 0 50.96189 44.35174 46.06026 0 0 0
3101 95 3 0 50.44421 43.67907 46.73293 0 0 0
3102 1 1 0 48.09118 33.09673 31.48327 0 0 0
3103 94 2 0 50.96189 33.14426 31.435740000000003 0 0 0
3104 94 3 0 50.44421 33.81693 30.76307 0 0 0
3105 1 1 0 29.40482 33.09673 46.01273 0 0 0
3106 113 2 0 26.53411 33.14426 46.06026 0 0 0
3107 113 3 0 27.051789999999997 33.81693 46.73293 0 0 0
3108 1 1 0 29.40482 44.39927 31.48327 0 0 0
3109 112 2 0 26.53411 44.35174 31.435740000000003 0 0 0
3110 112 3 0 27.051789999999997 43.67907 30.76307 0 0 0
3111 1 1 0 46.01273 48.09118 44.39927 0 0 0
3112 143 2 0 46.06026 50.96189 44.35174 0 0 0
3113 143 3 0 46.73293 50.44421 43.67907 0 0 0
3114 1 1 0 31.48327 48.09118 33.09673 0 0 0
3115 142 2 0 31.435740000000003 50.96189 33.14426 0 0 0
3116 142 3 0 30.76307 50.44421 33.81693 0 0 0
3117 1 1 0 46.01273 29.40482 33.09673 0 0 0
3118 161 2 0 46.06026 26.53411 33.14426 0 0 0
3119 161 3 0 46.73293 27.051789999999997 33.81693 0 0 0
3120 1 1 0 31.48327 29.40482 44.39927 0 0 0
3121 160 2 0 31.435740000000003 26.53411 44.35174 0 0 0
3122 160 3 0 30.76307 27.051789999999997 43.67907 0 0 0
3123 1 1 0 46.01273 44.39927 29.40482 0 0 0
3124 181 2 0 46.06026 44.35174 26.53411 0 0 0
3125 181 3 0 46.73293 43.67907 27.051789999999997 0 0 0
3126 1 1 0 31.48327 33.09673 29.40482 0 0 0
3127 180 2 0 31.435740000000003 33.14426 26.53411 0 0 0
3128 180 3 0 30.76307 33.81693 27.051789999999997 0 0 0
3129 1 4 0 33.35583 44.14017 44.14017 0 0 0
3130 1 1 0 33.09673 44.39927 42.32082 0 0 0
3131 182 2 0 32.29 45.206 41.66908 0 0 0
3132 182 2 0 32.29 45.206 40.17341 0 0 0
3133 182 2 0 33.14426 44.35174 39.45011 0 0 0
3134 182 3 0 33.81693 43.67907 39.96779 0 0 0
3135 1 4 0 44.14017 33.35583 44.14017 0 0 0
3136 1 1 0 44.39927 33.09673 42.32082 0 0 0
3137 183 2 0 45.206 32.29 41.66908 0 0 0
3138 183 2 0 45.206 32.29 40.17341 0 0 0
3139 183 2 0 44.35174 33.14426 39.45011 0 0 0
3140 183 3 0 43.67907 33.81693 39.96779 0 0 0
3141 1 4 0 44.14017 44.14017 33.35583 0 0 0
3142 1 1 0 44.39927 44.39927 35.17518 0 0 0
3143 184 2 0 45.206 45.206 35.82692 0 0 0
3144 184 2 0 45.206 45.206 37.32258999999999 0 0 0
3145 184 2 0 44.35174 44.35174 38.04589 0 0 0
3146 184 3 0 43.67907 43.67907 37.52821 0 0 0
3147 1 4 0 33.35583 33.35583 33.35583 0 0 0
3148 1 1 0 33.09673 33.09673 35.17518 0 0 0
3149 185 2 0 32.29 32.29 35.82692 0 0 0
3150 185 2 0 32.29 32.29 37.32258999999999 0 0 0
3151 185 2 0 33.14426 33.14426 38.04589 0 0 0
3152 185 3 0 33.81693 33.81693 37.52821 0 0 0
3153 1 1 0 31.48327 42.32082 46.01273 0 0 0
3154 186 2 0 32.29 41.66908 45.206 0 0 0
3155 186 2 0 32.29 40.17341 45.206 0 0 0
3156 186 2 0 31.435740000000003 39.45011 46.06026 0 0 0
3157 186 3 0 30.76307 39.96779 46.73293 0 0 0
3158 1 1 0 46.01273 42.32082 31.48327 0 0 0
3159 187 2 0 45.206 41.66908 32.29 0 0 0
3160 187 2 0 45.206 40.17341 32.29 0 0 0
3161 187 2 0 46.06026 39.45011 31.435740000000003 0 0 0
3162 187 3 0 46.73293 39.96779 30.76307 0 0 0
3163 1 1 0 31.48327 35.17518 31.48327 0 0 0
3164 188 2 0 32.29 35.82692 32.29 0 0 0
3165 188 2 0 32.29 37.32258999999999 32.29 0 0 0
3166 188 2 0 31.435740000000003 38.04589 31.435740000000003 0 0 0
3167 188 3 0 30.76307 37.52821 30.76307 0 0 0
3168 1 1 0 46.01273 35.17518 46.01273 0 0 0
3169 189 2 0 45.206 35.82692 45.206 0 0 0
3170 189 2 0 45.206 37.32258999999999 45.206 0 0 0
3171 189 2 0 46.06026 38.04589 46.06026 0 0 0
3172 189 3 0 46.73293 37.52821 46.73293 0 0 0
3173 1 1 0 31.48327 46.01273 35.17518 0 0 0
3174 182 2 0 32.29 45.206 35.82692 0 0 0
3175 182 2 0 32.29 45.206 37.32258999999999 0 0 0
3176 182 2 0 31.435740000000003 46.06026 38.04589 0 0 0
3177 182 3 0 30.76307 46.73293 37.52821 0 0 0
3178 1 1 0 46.01273 31.48327 35.17518 0 0 0
3179 183 2 0 45.206 32.29 35.82692 0 0 0
3180 183 2 0 45.206 32.29 37.32258999999999 0 0 0
3181 183 2 0 46.06026 31.435740000000003 38.04589 0 0 0
3182 183 3 0 46.73293 30.76307 37.52821 0 0 0
3183 1 1 0 31.48327 31.48327 42.32082 0 0 0
3184 185 2 0 32.29 32.29 41.66908 0 0 0
3185 185 2 0 32.29 32.29 40.17341 0 0 0
3186 185 2 0 31.435740000000003 31.435740000000003 39.45011 0 0 0
3187 185 3 0 30.76307 30.76307 39.96779 0 0 0
3188 1 1 0 46.01273 46.01273 42.32082 0 0 0
3189 184 2 0 45.206 45.206 41.66908 0 0 0
3190 184 2 0 45.206 45.206 40.17341 0 0 0
3191 184 2 0 46.06026 46.06026 39.45011 0 0 0
3192 184 3 0 46.73293 46.73293 39.96779 0 0 0
3193 1 4 0 33.35583 44.14017 33.35583 0 0 0
3194 1 1 0 33.09673 42.32082 33.09673 0 0 0
3195 188 2 0 32.29 41.66908 32.29 0 0 0
3196 188 2 0 32.29 40.17341 32.29 0 0 0
3197 188 2 0 33.14426 39.45011 33.14426 0 0 0
3198 188 3 0 33.81693 39.96779 33.81693 0 0 0
3199 1 4 0 44.14017 44.14017 44.14017 0 0 0
3200 1 1 0 44.39927 42.32082 44.39927 0 0 0
3201 189 2 0 45.206 41.66908 45.206 0 0 0
3202 189 2 0 45.206 40.17341 45.206 0 0 0
3203 189 2 0 44.35174 39.45011 44.35174 0 0 0
3204 189 3 0 43.67907 39.96779 43.67907 0 0 0
3205 1 4 0 44.14017 33.35583 33.35583 0 0 0
3206 1 1 0 44.39927 35.17518 33.09673 0 0 0
3207 187 2 0 45.206 35.82692 32.29 0 0 0
3208 187 2 0 45.206 37.32258999999999 32.29 0 0 0
3209 187 2 0 44.35174 38.04589 33.14426 0 0 0
3210 187 3 0 43.67907 37.52821 33.81693 0 0 0
3211 1 4 0 33.35583 33.35583 44.14017 0 0 0
3212 1 1 0 33.09673 35.17518 44.39927 0 0 0
3213 186 2 0 32.29 35.82692 45.206 0 0 0
3214 186 2 0 32.29 37.32258999999999 45.206 0 0 0
3215 186 2 0 33.14426 38.04589 44.35174 0 0 0
3216 186 3 0 33.81693 37.52821 43.67907 0 0 0
3217 1 1 0 44.39927 33.09673 35.17518 0 0 0
3218 183 2 0 44.35174 33.14426 38.04589 0 0 0
3219 183 3 0 43.67907 33.81693 37.52821 0 0 0
3220 1 1 0 33.09673 44.39927 35.17518 0 0 0
3221 182 2 0 33.14426 44.35174 38.04589 0 0 0
3222 182 3 0 33.81693 43.67907 37.52821 0 0 0
3223 1 1 0 33.09673 33.09673 42.32082 0 0 0
3224 185 2 0 33.14426 33.14426 39.45011 0 0 0
3225 185 3 0 33.81693 33.81693 39.96779 0 0 0
3226 1 1 0 44.39927 44.39927 42.32082 0 0 0
3227 184 2 0 44.35174 44.35174 39.45011 0 0 0
3228 184 3 0 43.67907 43.67907 39.96779 0 0 0
3229 1 1 0 46.01273 35.17518 31.48327 0 0 0
3230 187 2 0 46.06026 38.04589 31.435740000000003 0 0 0
3231 187 3 0 46.73293 37.52821 30.76307 0 0 0
3232 1 1 0 31.48327 35.17518 46.01273 0 0 0
3233 186 2 0 31.435740000000003 38.04589 46.06026 0 0 0
3234 186 3 0 30.76307 37.52821 46.73293 0 0 0
3235 1 1 0 46.01273 42.32082 46.01273 0 0 0
3236 189 2 0 46.06026 39.45011 46.06026 0 0 0
3237 189 3 0 46.73293 39.96779 46.73293 0 0 0
3238 1 1 0 31.48327 42.32082 31.48327 0 0 0
3239 188 2 0 31.435740000000003 39.45011 31.435740000000003 0 0 0
3240 188 3 0 30.76307 39.96779 30.76307 0 0 0
3241 1 1 0 46.01273 31.48327 42.32082 0 0 0
3242 183 2 0 46.06026 31.435740000000003 39.45011 0 0 0
3243 183 3 0 46.73293 30.76307 39.96779 0 0 0
3244 1 1 0 31.48327 46.01273 42.32082 0 0 0
3245 182 2 0 31.435740000000003 46.06026 39.45011 0 0 0
3246 182 3 0 30.76307 46.73293 39.96779 0 0 0
3247 1 1 0 46.01273 46.01273 35.17518 0 0 0
3248 184 2 0 46.06026 46.06026 38.04589 0 0 0
3249 184 3 0 46.73293 46.73293 37.52821 0 0 0
3250 1 1 0 31.48327 31.48327 35.17518 0 0 0
3251 185 2 0 31.435740000000003 31.435740000000003 38.04589 0 0 0
3252 185 3 0 30.76307 30.76307 37.52821 0 0 0
3253 1 1 0 44.39927 35.17518 44.39927 0 0 0
3254 189 2 0 44.35174 38.04589 44.35174 0 0 0
3255 189 3 0 43.67907 37.52821 43.67907 0 0 0
3256 1 1 0 33.09673 35.17518 33.09673 0 0 0
3257 188 2 0 33.14426 38.04589 33.14426 0 0 0
3258 188 3 0 33.81693 37.52821 33.81693 0 0 0
3259 1 1 0 33.09673 42.32082 44.39927 0 0 0
3260 186 2 0 33.14426 39.45011 44.35174 0 0 0
3261 186 3 0 33.81693 39.96779 43.67907 0 0 0
3262 1 1 0 44.39927 42.32082 33.09673 0 0 0
3263 187 2 0 44.35174 39.45011 33.14426 0 0 0
3264 187 3 0 43.67907 39.96779 33.81693 0 0 0
3265 1 1 0 42.32082 33.09673 44.39927 0 0 0
3266 190 2 0 41.66908 32.29 45.206 0 0 0
3267 190 2 0 40.17341 32.29 45.206 0 0 0
3268 190 2 0 39.45011 33.14426 44.35174 0 0 0
3269 190 3 0 39.96779 33.81693 43.67907 0 0 0
3270 1 1 0 42.32082 44.39927 33.09673 0 0 0
3271 191 2 0 41.66908 45.206 32.29 0 0 0
3272 191 2 0 40.17341 45.206 32.29 0 0 0
3273 191 2 0 39.45011 44.35174 33.14426 0 0 0
3274 191 3 0 39.96779 43.67907 33.81693 0 0 0
3275 1 1 0 35.17518 44.39927 44.39927 0 0 0
3276 192 2 0 35.82692 45.206 45.206 0 0 0
3277 192 2 0 37.32258999999999 45.206 45.206 0 0 0
3278 192 2 0 38.04589 44.35174 44.35174 0 0 0
3279 192 3 0 37.52821 43.67907 43.67907 0 0 0
3280 1 1 0 35.17518 33.09673 33.09673 0 0 0
3281 193 2 0 35.82692 32.29 32.29 0 0 0
3282 193 2 0 37.32258999999999 32.29 32.29 0 0 0
3283 193 2 0 38.04589 33.14426 33.14426 0 0 0
3284 193 3 0 37.52821 33.81693 33.81693 0 0 0
3285 1 1 0 42.32082 31.48327 31.48327 0 0 0
3286 193 2 0 41.66908 32.29 32.29 0 0 0
3287 193 2 0 40.17341 32.29 32.29 0 0 0
3288 193 2 0 39.45011 31.435740000000003 31.435740000000003 0 0 0
3289 193 3 0 39.96779 30.76307 30.76307 0 0 0
3290 1 1 0 42.32082 46.01273 46.01273 0 0 0
3291 192 2 0 41.66908 45.206 45.206 0 0 0
3292 192 2 0 40.17341 45.206 45.206 0 0 0
3293 192 2 0 39.45011 46.06026 46.06026 0 0 0
3294 192 3 0 39.96779 46.73293 46.73293 0 0 0
3295 1 1 0 35.17518 31.48327 46.01273 0 0 0
3296 190 2 0 35.82692 32.29 45.206 0 0 0
3297 190 2 0 37.32258999999999 32.29 45.206 0 0 0
3298 190 2 0 38.04589 31.435740000000003 46.06026 0 0 0
3299 190 3 0 37.52821 30.76307 46.73293 0 0 0
3300 1 1 0 35.17518 46.01273 31.48327 0 0 0
3301 191 2 0 35.82692 45.206 32.29 0 0 0
3302 191 2 0 37.32258999999999 45.206 32.29 0 0 0
3303 191 2 0 38.04589 46.06026 31.435740000000003 0 0 0
3304 191 3 0 37.52821 46.73293 30.76307 0 0 0
3305 1 1 0 35.17518 44.39927 33.09673 0 0 0
3306 191 2 0 38.04589 44.35174 33.14426 0 0 0
3307 191 3 0 37.52821 43.67907 33.81693 0 0 0
3308 1 1 0 35.17518 33.09673 44.39927 0 0 0
3309 190 2 0 38.04589 33.14426 44.35174 0 0 0
3310 190 3 0 37.52821 33.81693 43.67907 0 0 0
3311 1 1 0 42.32082 33.09673 33.09673 0 0 0
3312 193 2 0 39.45011 33.14426 33.14426 0 0 0
3313 193 3 0 39.96779 33.81693 33.81693 0 0 0
3314 1 1 0 42.32082 44.39927 44.39927 0 0 0
3315 192 2 0 39.45011 44.35174 44.35174 0 0 0
3316 192 3 0 39.96779 43.67907 43.67907 0 0 0
3317 1 1 0 35.17518 46.01273 46.01273 0 0 0
3318 192 2 0 38.04589 46.06026 46.06026 0 0 0
3319 192 3 0 37.52821 46.73293 46.73293 0 0 0
3320 1 1 0 35.17518 31.48327 31.48327 0 0 0
3321 193 2 0 38.04589 31.435740000000003 31.435740000000003 0 0 0
3322 193 3 0 37.52821 30.76307 30.76307 0 0 0
3323 1 1 0 42.32082 46.01273 31.48327 0 0 0
3324 191 2 0 39.45011 46.06026 31.435740000000003 0 0 0
3325 191 3 0 39.96779 46.73293 30.76307 0 0 0
3326 1 1 0 42.32082 31.48327 46.01273 0 0 0
3327 190 2 0 39.45011 31.435740000000003 46.06026 0 0 0
3328 190 3 0 39.96779 30.76307 46.73293 0 0 0
3329 1 1 0 44.39927 31.48327 48.09118 0 0 0
3330 1 1 0 33.09673 46.01273 48.09118 0 0 0
3331 1 1 0 48.09118 44.39927 31.48327 0 0 0
3332 1 1 0 48.09118 33.09673 46.01273 0 0 0
3333 1 1 0 31.48327 48.09118 44.39927 0 0 0
3334 1 1 0 46.01273 48.09118 33.09673 0 0 0
3335 1 1 0 31.48327 33.09673 48.09118 0 0 0
3336 1 1 0 46.01273 44.39927 48.09118 0 0 0
3337 1 1 0 44.39927 46.01273 48.09118 0 0 0
3338 1 1 0 33.09673 31.48327 48.09118 0 0 0
3339 1 1 0 46.01273 33.09673 48.09118 0 0 0
3340 1 1 0 31.48327 44.39927 48.09118 0 0 0
3341 1 1 0 44.39927 48.09118 31.48327 0 0 0
3342 1 1 0 33.09673 48.09118 46.01273 0 0 0
3343 1 1 0 48.09118 46.01273 33.09673 0 0 0
3344 1 1 0 48.09118 31.48327 44.39927 0 0 0
3345 165 2 0 45.206 32.29 48.74292 0 0 0
3346 165 2 0 45.206 32.29 50.23859 0 0 0
3347 165 2 0 44.35174 31.435740000000003 50.96189 0 0 0
3348 165 3 0 43.67907 30.76307 50.44421 0 0 0
3349 164 2 0 32.29 45.206 48.74292 0 0 0
3350 164 2 0 32.29 45.206 50.23859 0 0 0
3351 164 2 0 33.14426 46.06026 50.96189 0 0 0
3352 164 3 0 33.81693 46.73293 50.44421 0 0 0
3353 162 2 0 32.29 32.29 48.74292 0 0 0
3354 162 2 0 32.29 32.29 50.23859 0 0 0
3355 162 2 0 31.435740000000003 33.14426 50.96189 0 0 0
3356 162 3 0 30.76307 33.81693 50.44421 0 0 0
3357 163 2 0 45.206 45.206 48.74292 0 0 0
3358 163 2 0 45.206 45.206 50.23859 0 0 0
3359 163 2 0 46.06026 44.35174 50.96189 0 0 0
3360 163 3 0 46.73293 43.67907 50.44421 0 0 0
3361 163 2 0 44.35174 46.06026 50.96189 0 0 0
3362 163 3 0 43.67907 46.73293 50.44421 0 0 0
3363 162 2 0 33.14426 31.435740000000003 50.96189 0 0 0
3364 162 3 0 33.81693 30.76307 50.44421 0 0 0
3365 165 2 0 46.06026 33.14426 50.96189 0 0 0
3366 165 3 0 46.73293 33.81693 50.44421 0 0 0
3367 164 2 0 31.435740000000003 44.35174 50.96189 0 0 0
3368 164 3 0 30.76307 43.67907 50.44421 0 0 0
3369 144 2 0 32.29 48.74292 45.206 0 0 0
3370 144 2 0 32.29 50.23859 45.206 0 0 0
3371 144 2 0 31.435740000000003 50.96189 44.35174 0 0 0
3372 144 3 0 30.76307 50.44421 43.67907 0 0 0
3373 145 2 0 45.206 48.74292 32.29 0 0 0
3374 145 2 0 45.206 50.23859 32.29 0 0 0
3375 145 2 0 46.06026 50.96189 33.14426 0 0 0
3376 145 3 0 46.73293 50.44421 33.81693 0 0 0
3377 145 2 0 44.35174 50.96189 31.435740000000003 0 0 0
3378 145 3 0 43.67907 50.44421 30.76307 0 0 0
3379 144 2 0 33.14426 50.96189 46.06026 0 0 0
3380 144 3 0 33.81693 50.44421 46.73293 0 0 0
3381 97 2 0 48.74292 45.206 32.29 0 0 0
3382 97 2 0 50.23859 45.206 32.29 0 0 0
3383 97 2 0 50.96189 44.35174 31.435740000000003 0 0 0
3384 97 3 0 50.44421 43.67907 30.76307 0 0 0
3385 96 2 0 48.74292 32.29 45.206 0 0 0
3386 96 2 0 50.23859 32.29 45.206 0 0 0
3387 96 2 0 50.96189 33.14426 46.06026 0 0 0
3388 96 3 0 50.44421 33.81693 46.73293 0 0 0
3389 97 2 0 50.96189 46.06026 33.14426 0 0 0
3390 97 3 0 50.44421 46.73293 33.81693 0 0 0
3391 96 2 0 50.96189 31.435740000000003 44.35174 0 0 0
3392 96 3 0 50.44421 30.76307 43.67907 0 0 0

Bonds

1 1 1 2
2 2 1 17
3 3 2 3
4 1 2 14
5 4 3 4
6 4 3 15
7 5 4 5
8 4 4 1831
9 1 6 7
10 2 6 18
11 3 7 8
12 1 7 11
13 4 8 9
14 4 8 12
15 5 9 10
16 4 9 1828
17 2 11 20
18 5 12 13
19 4 12 1819
20 2 14 19
21 5 15 16
22 4 15 1813
23 2 17 40
24 2 17 158
25 2 17 195
26 2 18 55
27 2 18 185
28 2 18 372
29 2 19 21
30 2 19 40
31 2 19 282
32 2 20 55
33 2 20 276
34 2 20 365
35 1 21 22
36 3 22 23
37 1 22 31
38 4 23 24
39 4 23 32
40 5 24 25
41 4 24 995
42 1 26 27
43 2 26 39
44 3 27 28
45 1 27 34
46 4 28 29
47 4 28 35
48 5 29 30
49 4 29 992
50 2 31 37
51 5 32 33
52 4 32 947
53 2 34 38
54 5 35 36
55 4 35 941
56 2 37 40
57 2 37 41
58 2 37 352
59 2 38 53
60 2 38 358
61 2 38 361
62 2 39 53
63 2 39 273
64 2 39 376
65 2 40 179
66 1 41 42
67 3 42 43
68 1 42 158
69 4 43 44
70 4 43 159
71 5 44 45
72 4 44 819
73 2 46 47
74 2 46 48
75 2 46 355
76 2 46 373
77 2 47 56
78 2 47 58
79 2 47 173
80 1 48 49
81 3 49 50
82 1 49 155
83 4 50 51
84 4 50 156
85 5 51 52
86 4 51 817
87 2 53 57
88 2 53 167
89 2 54 55
90 2 54 349
91 2 54 362
92 2 54 374
93 2 55 161
94 2 56 155
95 2 56 190
96 2 56 363
97 2 57 200
98 2 57 364
99 2 57 371
100 2 58 279
101 2 58 366
102 2 58 375
103 2 59 60
104 2 59 137
105 2 59 264
106 2 59 367
107 2 60 77
108 2 60 101
109 2 60 243
110 2 61 62
111 2 61 131
112 2 61 267
113 2 61 368
114 2 62 89
115 2 62 119
116 2 62 231
117 2 63 64
118 2 63 65
119 2 63 140
120 2 63 270
121 2 64 95
122 2 64 107
123 2 64 225
124 1 65 66
125 3 66 67
126 1 66 125
127 4 67 68
128 4 67 126
129 5 68 69
130 4 68 823
131 2 70 71
132 2 70 72
133 2 70 134
134 2 70 261
135 2 71 83
136 2 71 113
137 2 71 237
138 1 72 73
139 3 73 74
140 1 73 128
141 4 74 75
142 4 74 129
143 5 75 76
144 4 75 821
145 2 77 78
146 2 77 327
147 2 77 370
148 1 78 79
149 3 79 80
150 1 79 152
151 4 80 81
152 4 80 153
153 5 81 82
154 4 81 1259
155 2 83 84
156 2 83 128
157 2 83 317
158 1 84 85
159 3 85 86
160 1 85 149
161 4 86 87
162 4 86 150
163 5 87 88
164 4 87 1257
165 2 89 90
166 2 89 322
167 2 89 369
168 1 90 91
169 3 91 92
170 1 91 143
171 4 92 93
172 4 92 144
173 5 93 94
174 2 95 96
175 2 95 125
176 2 95 332
177 1 96 97
178 3 97 98
179 1 97 146
180 4 98 99
181 4 98 147
182 5 99 100
183 2 101 102
184 2 101 152
185 2 101 215
186 1 102 103
187 3 103 104
188 1 103 137
189 4 104 105
190 4 104 138
191 5 105 106
192 4 105 2119
193 2 107 108
194 2 107 146
195 2 107 205
196 1 108 109
197 3 109 110
198 1 109 140
199 4 110 111
200 4 110 141
201 5 111 112
202 4 111 2117
203 2 113 114
204 2 113 149
205 2 113 210
206 1 114 115
207 3 115 116
208 1 115 134
209 4 116 117
210 4 116 135
211 5 117 118
212 2 119 120
213 2 119 143
214 2 119 220
215 1 120 121
216 3 121 122
217 1 121 131
218 4 122 123
219 4 122 132
220 5 123 124
221 5 126 127
222 4 126 807
223 5 129 130
224 4 129 803
225 5 132 133
226 5 135 136
227 5 138 139
228 4 138 2115
229 5 141 142
230 4 141 2111
231 5 144 145
232 5 147 148
233 5 150 151
234 4 150 1255
235 5 153 154
236 4 153 1251
237 5 156 157
238 4 156 815
239 5 159 160
240 4 159 811
241 2 161 162
242 2 161 291
243 2 161 307
244 1 162 163
245 3 163 164
246 1 163 276
247 4 164 165
248 4 164 277
249 5 165 166
250 4 165 253
251 2 167 168
252 2 167 285
253 2 167 297
254 1 168 169
255 3 169 170
256 1 169 273
257 4 170 171
258 4 170 274
259 5 171 172
260 4 171 250
261 2 173 174
262 2 173 294
263 2 173 302
264 1 174 175
265 3 175 176
266 1 175 279
267 4 176 177
268 4 176 280
269 5 177 178
270 4 177 259
271 2 179 180
272 2 179 288
273 2 179 312
274 1 180 181
275 3 181 182
276 1 181 282
277 4 182 183
278 4 182 283
279 5 183 184
280 4 183 256
281 1 185 186
282 3 186 187
283 1 186 291
284 4 187 188
285 4 187 292
286 5 188 189
287 4 188 265
288 1 190 191
289 3 191 192
290 1 191 294
291 4 192 193
292 4 192 295
293 5 193 194
294 4 193 262
295 1 195 196
296 3 196 197
297 1 196 288
298 4 197 198
299 4 197 289
300 5 198 199
301 4 198 271
302 1 200 201
303 3 201 202
304 1 201 285
305 4 202 203
306 4 202 286
307 5 203 204
308 4 203 268
309 1 205 206
310 3 206 207
311 1 206 252
312 4 207 208
313 4 207 253
314 5 208 209
315 4 208 277
316 1 210 211
317 3 211 212
318 1 211 249
319 4 212 213
320 4 212 250
321 5 213 214
322 4 213 274
323 1 215 216
324 3 216 217
325 1 216 255
326 4 217 218
327 4 217 256
328 5 218 219
329 4 218 283
330 1 220 221
331 3 221 222
332 1 221 258
333 4 222 223
334 4 222 259
335 5 223 224
336 4 223 280
337 2 225 226
338 2 225 252
339 2 225 337
340 1 226 227
341 3 227 228
342 1 227 270
343 4 228 229
344 4 228 271
345 5 229 230
346 4 229 289
347 2 231 232
348 2 231 258
349 2 231 346
350 1 232 233
351 3 233 234
352 1 233 267
353 4 234 235
354 4 234 268
355 5 235 236
356 4 235 286
357 2 237 238
358 2 237 249
359 2 237 343
360 1 238 239
361 3 239 240
362 1 239 261
363 4 240 241
364 4 240 262
365 5 241 242
366 4 241 295
367 2 243 244
368 2 243 255
369 2 243 340
370 1 244 245
371 3 245 246
372 1 245 264
373 4 246 247
374 4 246 265
375 5 247 248
376 4 247 292
377 5 250 251
378 5 253 254
379 5 256 257
380 5 259 260
381 5 262 263
382 5 265 266
383 5 268 269
384 5 271 272
385 5 274 275
386 5 277 278
387 5 280 281
388 5 283 284
389 5 286 287
390 5 289 290
391 5 292 293
392 5 295 296
393 1 297 298
394 3 298 299
395 1 298 358
396 4 299 300
397 4 299 359
398 5 300 301
399 4 300 341
400 1 302 303
401 3 303 304
402 1 303 355
403 4 304 305
404 4 304 356
405 5 305 306
406 4 305 338
407 1 307 308
408 3 308 309
409 1 308 349
410 4 309 310
411 4 309 350
412 5 310 311
413 4 310 347
414 1 312 313
415 3 313 314
416 1 313 352
417 4 314 315
418 4 314 353
419 5 315 316
420 4 315 344
421 1 317 318
422 3 318 319
423 1 318 343
424 4 319 320
425 4 319 344
426 5 320 321
427 4 320 353
428 1 322 323
429 3 323 324
430 1 323 346
431 4 324 325
432 4 324 347
433 5 325 326
434 4 325 350
435 1 327 328
436 3 328 329
437 1 328 340
438 4 329 330
439 4 329 341
440 5 330 331
441 4 330 359
442 1 332 333
443 3 333 334
444 1 333 337
445 4 334 335
446 4 334 338
447 5 335 336
448 4 335 356
449 5 338 339
450 5 341 342
451 5 344 345
452 5 347 348
453 5 350 351
454 5 353 354
455 5 356 357
456 5 359 360
457 1 361 377
458 1 362 381
459 1 363 413
460 1 364 417
461 1 365 401
462 1 366 405
463 1 367 385
464 1 368 389
465 1 369 389
466 1 370 385
467 1 371 377
468 1 372 381
469 1 373 405
470 1 374 401
471 1 375 413
472 1 376 417
473 3 377 378
474 4 378 379
475 4 378 397
476 5 379 380
477 3 381 382
478 4 382 383
479 4 382 399
480 5 383 384
481 3 385 386
482 4 386 387
483 4 386 395
484 5 387 388
485 3 389 390
486 4 390 391
487 4 390 393
488 5 391 392
489 5 393 394
490 5 395 396
491 5 397 398
492 5 399 400
493 3 401 402
494 4 402 403
495 4 402 411
496 5 403 404
497 3 405 406
498 4 406 407
499 4 406 409
500 5 407 408
501 5 409 410
502 5 411 412
503 3 413 414
504 4 414 415
505 4 414 421
506 5 415 416
507 3 417 418
508 4 418 419
509 4 418 423
510 5 419 420
511 5 421 422
512 5 423 424
513 1 425 426
514 2 425 441
515 3 426 427
516 1 426 438
517 4 427 428
518 4 427 439
519 5 428 429
520 4 428 2255
521 1 430 431
522 2 430 442
523 3 431 432
524 1 431 435
525 4 432 433
526 4 432 436
527 5 433 434
528 4 433 2252
529 2 435 444
530 5 436 437
531 4 436 2243
532 2 438 443
533 5 439 440
534 4 439 2237
535 2 441 464
536 2 441 582
537 2 441 619
538 2 442 479
539 2 442 609
540 2 442 796
541 2 443 445
542 2 443 464
543 2 443 706
544 2 444 479
545 2 444 700
546 2 444 789
547 1 445 446
548 3 446 447
549 1 446 455
550 4 447 448
551 4 447 456
552 5 448 449
553 4 448 1419
554 1 450 451
555 2 450 463
556 3 451 452
557 1 451 458
558 4 452 453
559 4 452 459
560 5 453 454
561 4 453 1416
562 2 455 461
563 5 456 457
564 4 456 1371
565 2 458 462
566 5 459 460
567 4 459 1365
568 2 461 464
569 2 461 465
570 2 461 776
571 2 462 477
572 2 462 782
573 2 462 785
574 2 463 477
575 2 463 697
576 2 463 800
577 2 464 603
578 1 465 466
579 3 466 467
580 1 466 582
581 4 467 468
582 4 467 583
583 4 468 395
584 5 468 469
585 2 470 471
586 2 470 472
587 2 470 779
588 2 470 797
589 2 471 480
590 2 471 482
591 2 471 597
592 1 472 473
593 3 473 474
594 1 473 579
595 4 474 475
596 4 474 580
597 4 475 393
598 5 475 476
599 2 477 481
600 2 477 591
601 2 478 479
602 2 478 773
603 2 478 786
604 2 478 798
605 2 479 585
606 2 480 579
607 2 480 614
608 2 480 787
609 2 481 624
610 2 481 788
611 2 481 795
612 2 482 703
613 2 482 790
614 2 482 799
615 2 483 484
616 2 483 561
617 2 483 688
618 2 483 791
619 2 484 501
620 2 484 525
621 2 484 667
622 2 485 486
623 2 485 555
624 2 485 691
625 2 485 792
626 2 486 513
627 2 486 543
628 2 486 655
629 2 487 488
630 2 487 489
631 2 487 564
632 2 487 694
633 2 488 519
634 2 488 531
635 2 488 649
636 1 489 490
637 3 490 491
638 1 490 549
639 4 491 492
640 4 491 550
641 4 492 399
642 5 492 493
643 2 494 495
644 2 494 496
645 2 494 558
646 2 494 685
647 2 495 507
648 2 495 537
649 2 495 661
650 1 496 497
651 3 497 498
652 1 497 552
653 4 498 499
654 4 498 553
655 4 499 397
656 5 499 500
657 2 501 502
658 2 501 751
659 2 501 794
660 1 502 503
661 3 503 504
662 1 503 576
663 4 504 505
664 4 504 577
665 5 505 506
666 4 505 1683
667 2 507 508
668 2 507 552
669 2 507 741
670 1 508 509
671 3 509 510
672 1 509 573
673 4 510 511
674 4 510 574
675 5 511 512
676 4 511 1681
677 2 513 514
678 2 513 746
679 2 513 793
680 1 514 515
681 3 515 516
682 1 515 567
683 4 516 517
684 4 516 568
685 5 517 518
686 2 519 520
687 2 519 549
688 2 519 756
689 1 520 521
690 3 521 522
691 1 521 570
692 4 522 523
693 4 522 571
694 5 523 524
695 2 525 526
696 2 525 576
697 2 525 639
698 1 526 527
699 3 527 528
700 1 527 561
701 4 528 529
702 4 528 562
703 5 529 530
704 4 529 2543
705 2 531 532
706 2 531 570
707 2 531 629
708 1 532 533
709 3 533 534
710 1 533 564
711 4 534 535
712 4 534 565
713 5 535 536
714 4 535 2541
715 2 537 538
716 2 537 573
717 2 537 634
718 1 538 539
719 3 539 540
720 1 539 558
721 4 540 541
722 4 540 559
723 5 541 542
724 2 543 544
725 2 543 567
726 2 543 644
727 1 544 545
728 3 545 546
729 1 545 555
730 4 546 547
731 4 546 556
732 5 547 548
733 4 550 383
734 5 550 551
735 4 553 379
736 5 553 554
737 5 556 557
738 5 559 560
739 5 562 563
740 4 562 2539
741 5 565 566
742 4 565 2535
743 5 568 569
744 5 571 572
745 5 574 575
746 4 574 1679
747 5 577 578
748 4 577 1675
749 4 580 391
750 5 580 581
751 4 583 387
752 5 583 584
753 2 585 586
754 2 585 715
755 2 585 731
756 1 586 587
757 3 587 588
758 1 587 700
759 4 588 589
760 4 588 701
761 5 589 590
762 4 589 677
763 2 591 592
764 2 591 709
765 2 591 721
766 1 592 593
767 3 593 594
768 1 593 697
769 4 594 595
770 4 594 698
771 5 595 596
772 4 595 674
773 2 597 598
774 2 597 718
775 2 597 726
776 1 598 599
777 3 599 600
778 1 599 703
779 4 600 601
780 4 600 704
781 5 601 602
782 4 601 683
783 2 603 604
784 2 603 712
785 2 603 736
786 1 604 605
787 3 605 606
788 1 605 706
789 4 606 607
790 4 606 707
791 5 607 608
792 4 607 680
793 1 609 610
794 3 610 611
795 1 610 715
796 4 611 612
797 4 611 716
798 5 612 613
799 4 612 689
800 1 614 615
801 3 615 616
802 1 615 718
803 4 616 617
804 4 616 719
805 5 617 618
806 4 617 686
807 1 619 620
808 3 620 621
809 1 620 712
810 4 621 622
811 4 621 713
812 5 622 623
813 4 622 695
814 1 624 625
815 3 625 626
816 1 625 709
817 4 626 627
818 4 626 710
819 5 627 628
820 4 627 692
821 1 629 630
822 3 630 631
823 1 630 676
824 4 631 632
825 4 631 677
826 5 632 633
827 4 632 701
828 1 634 635
829 3 635 636
830 1 635 673
831 4 636 637
832 4 636 674
833 5 637 638
834 4 637 698
835 1 639 640
836 3 640 641
837 1 640 679
838 4 641 642
839 4 641 680
840 5 642 643
841 4 642 707
842 1 644 645
843 3 645 646
844 1 645 682
845 4 646 647
846 4 646 683
847 5 647 648
848 4 647 704
849 2 649 650
850 2 649 676
851 2 649 761
852 1 650 651
853 3 651 652
854 1 651 694
855 4 652 653
856 4 652 695
857 5 653 654
858 4 653 713
859 2 655 656
860 2 655 682
861 2 655 770
862 1 656 657
863 3 657 658
864 1 657 691
865 4 658 659
866 4 658 692
867 5 659 660
868 4 659 710
869 2 661 662
870 2 661 673
871 2 661 767
872 1 662 663
873 3 663 664
874 1 663 685
875 4 664 665
876 4 664 686
877 5 665 666
878 4 665 719
879 2 667 668
880 2 667 679
881 2 667 764
882 1 668 669
883 3 669 670
884 1 669 688
885 4 670 671
886 4 670 689
887 5 671 672
888 4 671 716
889 5 674 675
890 5 677 678
891 5 680 681
892 5 683 684
893 5 686 687
894 5 689 690
895 5 692 693
896 5 695 696
897 5 698 699
898 5 701 702
899 5 704 705
900 5 707 708
901 5 710 711
902 5 713 714
903 5 716 717
904 5 719 720
905 1 721 722
906 3 722 723
907 1 722 782
908 4 723 724
909 4 723 783
910 5 724 725
911 4 724 765
912 1 726 727
913 3 727 728
914 1 727 779
915 4 728 729
916 4 728 780
917 5 729 730
918 4 729 762
919 1 731 732
920 3 732 733
921 1 732 773
922 4 733 734
923 4 733 774
924 5 734 735
925 4 734 771
926 1 736 737
927 3 737 738
928 1 737 776
929 4 738 739
930 4 738 777
931 5 739 740
932 4 739 768
933 1 741 742
934 3 742 743
935 1 742 767
936 4 743 744
937 4 743 768
938 5 744 745
939 4 744 777
940 1 746 747
941 3 747 748
942 1 747 770
943 4 748 749
944 4 748 771
945 5 749 750
946 4 749 774
947 1 751 752
948 3 752 753
949 1 752 764
950 4 753 754
951 4 753 765
952 5 754 755
953 4 754 783
954 1 756 757
955 3 757 758
956 1 757 761
957 4 758 759
958 4 758 762
959 5 759 760
960 4 759 780
961 5 762 763
962 5 765 766
963 5 768 769
964 5 771 772
965 5 774 775
966 5 777 778
967 5 780 781
968 5 783 784
969 1 785 801
970 1 786 805
971 1 787 837
972 1 788 841
973 1 789 825
974 1 790 829
975 1 791 809
976 1 792 813
977 1 793 813
978 1 794 809
979 1 795 801
980 1 796 805
981 1 797 829
982 1 798 825
983 1 799 837
984 1 800 841
985 3 801 802
986 4 802 803
987 4 802 821
988 5 803 804
989 3 805 806
990 4 806 807
991 4 806 823
992 5 807 808
993 3 809 810
994 4 810 811
995 4 810 819
996 5 811 812
997 3 813 814
998 4 814 815
999 4 814 817
1000 5 815 816
1001 5 817 818
1002 5 819 820
1003 5 821 822
1004 5 823 824
1005 3 825 826
1006 4 826 827
1007 4 826 835
1008 5 827 828
1009 3 829 830
1010 4 830 831
1011 4 830 833
1012 5 831 832
1013 5 833 834
1014 5 835 836
1015 3 837 838
1016 4 838 839
1017 4 838 845
1018 5 839 840
1019 3 841 842
1020 4 842 843
1021 4 842 847
1022 5 843 844
1023 5 845 846
1024 5 847 848
1025 1 849 850
1026 2 849 865
1027 3 850 851
1028 1 850 862
1029 4 851 852
1030 4 851 863
1031 5 852 853
1032 4 852 2679
1033 1 854 855
1034 2 854 866
1035 3 855 856
1036 1 855 859
1037 4 856 857
1038 4 856 860
1039 5 857 858
1040 4 857 2676
1041 2 859 868
1042 5 860 861
1043 4 860 2667
1044 2 862 867
1045 5 863 864
1046 4 863 2661
1047 2 865 888
1048 2 865 1006
1049 2 865 1043
1050 2 866 903
1051 2 866 1033
1052 2 866 1220
1053 2 867 869
1054 2 867 888
1055 2 867 1130
1056 2 868 903
1057 2 868 1124
1058 2 868 1213
1059 1 869 870
1060 3 870 871
1061 1 870 879
1062 4 871 872
1063 4 871 880
1064 4 872 147
1065 5 872 873
1066 1 874 875
1067 2 874 887
1068 3 875 876
1069 1 875 882
1070 4 876 877
1071 4 876 883
1072 4 877 144
1073 5 877 878
1074 2 879 885
1075 4 880 99
1076 5 880 881
1077 2 882 886
1078 4 883 93
1079 5 883 884
1080 2 885 888
1081 2 885 889
1082 2 885 1200
1083 2 886 901
1084 2 886 1206
1085 2 886 1209
1086 2 887 901
1087 2 887 1121
1088 2 887 1224
1089 2 888 1027
1090 1 889 890
1091 3 890 891
1092 1 890 1006
1093 4 891 892
1094 4 891 1007
1095 5 892 893
1096 4 892 1667
1097 2 894 895
1098 2 894 896
1099 2 894 1203
1100 2 894 1221
1101 2 895 904
1102 2 895 906
1103 2 895 1021
1104 1 896 897
1105 3 897 898
1106 1 897 1003
1107 4 898 899
1108 4 898 1004
1109 5 899 900
1110 4 899 1665
1111 2 901 905
1112 2 901 1015
1113 2 902 903
1114 2 902 1197
1115 2 902 1210
1116 2 902 1222
1117 2 903 1009
1118 2 904 1003
1119 2 904 1038
1120 2 904 1211
1121 2 905 1048
1122 2 905 1212
1123 2 905 1219
1124 2 906 1127
1125 2 906 1214
1126 2 906 1223
1127 2 907 908
1128 2 907 985
1129 2 907 1112
1130 2 907 1215
1131 2 908 925
1132 2 908 949
1133 2 908 1091
1134 2 909 910
1135 2 909 979
1136 2 909 1115
1137 2 909 1216
1138 2 910 937
1139 2 910 967
1140 2 910 1079
1141 2 911 912
1142 2 911 913
1143 2 911 988
1144 2 911 1118
1145 2 912 943
1146 2 912 955
1147 2 912 1073
1148 1 913 914
1149 3 914 915
1150 1 914 973
1151 4 915 916
1152 4 915 974
1153 5 916 917
1154 4 916 1671
1155 2 918 919
1156 2 918 920
1157 2 918 982
1158 2 918 1109
1159 2 919 931
1160 2 919 961
1161 2 919 1085
1162 1 920 921
1163 3 921 922
1164 1 921 976
1165 4 922 923
1166 4 922 977
1167 5 923 924
1168 4 923 1669
1169 2 925 926
1170 2 925 1175
1171 2 925 1218
1172 1 926 927
1173 3 927 928
1174 1 927 1000
1175 4 928 929
1176 4 928 1001
1177 4 929 411
1178 5 929 930
1179 2 931 932
1180 2 931 976
1181 2 931 1165
1182 1 932 933
1183 3 933 934
1184 1 933 997
1185 4 934 935
1186 4 934 998
1187 4 935 409
1188 5 935 936
1189 2 937 938
1190 2 937 1170
1191 2 937 1217
1192 1 938 939
1193 3 939 940
1194 1 939 991
1195 4 940 941
1196 4 940 992
1197 5 941 942
1198 2 943 944
1199 2 943 973
1200 2 943 1180
1201 1 944 945
1202 3 945 946
1203 1 945 994
1204 4 946 947
1205 4 946 995
1206 5 947 948
1207 2 949 950
1208 2 949 1000
1209 2 949 1063
1210 1 950 951
1211 3 951 952
1212 1 951 985
1213 4 952 953
1214 4 952 986
1215 5 953 954
1216 4 953 2967
1217 2 955 956
1218 2 955 994
1219 2 955 1053
1220 1 956 957
1221 3 957 958
1222 1 957 988
1223 4 958 959
1224 4 958 989
1225 5 959 960
1226 4 959 2965
1227 2 961 962
1228 2 961 997
1229 2 961 1058
1230 1 962 963
1231 3 963 964
1232 1 963 982
1233 4 964 965
1234 4 964 983
1235 5 965 966
1236 2 967 968
1237 2 967 991
1238 2 967 1068
1239 1 968 969
1240 3 969 970
1241 1 969 979
1242 4 970 971
1243 4 970 980
1244 5 971 972
1245 5 974 975
1246 4 974 1655
1247 5 977 978
1248 4 977 1651
1249 5 980 981
1250 5 983 984
1251 5 986 987
1252 4 986 2963
1253 5 989 990
1254 4 989 2959
1255 5 992 993
1256 5 995 996
1257 4 998 407
1258 5 998 999
1259 4 1001 403
1260 5 1001 1002
1261 5 1004 1005
1262 4 1004 1663
1263 5 1007 1008
1264 4 1007 1659
1265 2 1009 1010
1266 2 1009 1139
1267 2 1009 1155
1268 1 1010 1011
1269 3 1011 1012
1270 1 1011 1124
1271 4 1012 1013
1272 4 1012 1125
1273 5 1013 1014
1274 4 1013 1101
1275 2 1015 1016
1276 2 1015 1133
1277 2 1015 1145
1278 1 1016 1017
1279 3 1017 1018
1280 1 1017 1121
1281 4 1018 1019
1282 4 1018 1122
1283 5 1019 1020
1284 4 1019 1098
1285 2 1021 1022
1286 2 1021 1142
1287 2 1021 1150
1288 1 1022 1023
1289 3 1023 1024
1290 1 1023 1127
1291 4 1024 1025
1292 4 1024 1128
1293 5 1025 1026
1294 4 1025 1107
1295 2 1027 1028
1296 2 1027 1136
1297 2 1027 1160
1298 1 1028 1029
1299 3 1029 1030
1300 1 1029 1130
1301 4 1030 1031
1302 4 1030 1131
1303 5 1031 1032
1304 4 1031 1104
1305 1 1033 1034
1306 3 1034 1035
1307 1 1034 1139
1308 4 1035 1036
1309 4 1035 1140
1310 5 1036 1037
1311 4 1036 1113
1312 1 1038 1039
1313 3 1039 1040
1314 1 1039 1142
1315 4 1040 1041
1316 4 1040 1143
1317 5 1041 1042
1318 4 1041 1110
1319 1 1043 1044
1320 3 1044 1045
1321 1 1044 1136
1322 4 1045 1046
1323 4 1045 1137
1324 5 1046 1047
1325 4 1046 1119
1326 1 1048 1049
1327 3 1049 1050
1328 1 1049 1133
1329 4 1050 1051
1330 4 1050 1134
1331 5 1051 1052
1332 4 1051 1116
1333 1 1053 1054
1334 3 1054 1055
1335 1 1054 1100
1336 4 1055 1056
1337 4 1055 1101
1338 5 1056 1057
1339 4 1056 1125
1340 1 1058 1059
1341 3 1059 1060
1342 1 1059 1097
1343 4 1060 1061
1344 4 1060 1098
1345 5 1061 1062
1346 4 1061 1122
1347 1 1063 1064
1348 3 1064 1065
1349 1 1064 1103
1350 4 1065 1066
1351 4 1065 1104
1352 5 1066 1067
1353 4 1066 1131
1354 1 1068 1069
1355 3 1069 1070
1356 1 1069 1106
1357 4 1070 1071
1358 4 1070 1107
1359 5 1071 1072
1360 4 1071 1128
1361 2 1073 1074
1362 2 1073 1100
1363 2 1073 1185
1364 1 1074 1075
1365 3 1075 1076
1366 1 1075 1118
1367 4 1076 1077
1368 4 1076 1119
1369 5 1077 1078
1370 4 1077 1137
1371 2 1079 1080
1372 2 1079 1106
1373 2 1079 1194
1374 1 1080 1081
1375 3 1081 1082
1376 1 1081 1115
1377 4 1082 1083
1378 4 1082 1116
1379 5 1083 1084
1380 4 1083 1134
1381 2 1085 1086
1382 2 1085 1097
1383 2 1085 1191
1384 1 1086 1087
1385 3 1087 1088
1386 1 1087 1109
1387 4 1088 1089
1388 4 1088 1110
1389 5 1089 1090
1390 4 1089 1143
1391 2 1091 1092
1392 2 1091 1103
1393 2 1091 1188
1394 1 1092 1093
1395 3 1093 1094
1396 1 1093 1112
1397 4 1094 1095
1398 4 1094 1113
1399 5 1095 1096
1400 4 1095 1140
1401 5 1098 1099
1402 5 1101 1102
1403 5 1104 1105
1404 5 1107 1108
1405 5 1110 1111
1406 5 1113 1114
1407 5 1116 1117
1408 5 1119 1120
1409 5 1122 1123
1410 5 1125 1126
1411 5 1128 1129
1412 5 1131 1132
1413 5 1134 1135
1414 5 1137 1138
1415 5 1140 1141
1416 5 1143 1144
1417 1 1145 1146
1418 3 1146 1147
1419 1 1146 1206
1420 4 1147 1148
1421 4 1147 1207
1422 5 1148 1149
1423 4 1148 1189
1424 1 1150 1151
1425 3 1151 1152
1426 1 1151 1203
1427 4 1152 1153
1428 4 1152 1204
1429 5 1153 1154
1430 4 1153 1186
1431 1 1155 1156
1432 3 1156 1157
1433 1 1156 1197
1434 4 1157 1158
1435 4 1157 1198
1436 5 1158 1159
1437 4 1158 1195
1438 1 1160 1161
1439 3 1161 1162
1440 1 1161 1200
1441 4 1162 1163
1442 4 1162 1201
1443 5 1163 1164
1444 4 1163 1192
1445 1 1165 1166
1446 3 1166 1167
1447 1 1166 1191
1448 4 1167 1168
1449 4 1167 1192
1450 5 1168 1169
1451 4 1168 1201
1452 1 1170 1171
1453 3 1171 1172
1454 1 1171 1194
1455 4 1172 1173
1456 4 1172 1195
1457 5 1173 1174
1458 4 1173 1198
1459 1 1175 1176
1460 3 1176 1177
1461 1 1176 1188
1462 4 1177 1178
1463 4 1177 1189
1464 5 1178 1179
1465 4 1178 1207
1466 1 1180 1181
1467 3 1181 1182
1468 1 1181 1185
1469 4 1182 1183
1470 4 1182 1186
1471 5 1183 1184
1472 4 1183 1204
1473 5 1186 1187
1474 5 1189 1190
1475 5 1192 1193
1476 5 1195 1196
1477 5 1198 1199
1478 5 1201 1202
1479 5 1204 1205
1480 5 1207 1208
1481 1 1209 1225
1482 1 1210 1229
1483 1 1211 1261
1484 1 1212 1265
1485 1 1213 1249
1486 1 1214 1253
1487 1 1215 1233
1488 1 1216 1237
1489 1 1217 1237
1490 1 1218 1233
1491 1 1219 1225
1492 1 1220 1229
1493 1 1221 1253
1494 1 1222 1249
1495 1 1223 1261
1496 1 1224 1265
1497 3 1225 1226
1498 4 1226 1227
1499 4 1226 1245
1500 5 1227 1228
1501 3 1229 1230
1502 4 1230 1231
1503 4 1230 1247
1504 5 1231 1232
1505 3 1233 1234
1506 4 1234 1235
1507 4 1234 1243
1508 5 1235 1236
1509 3 1237 1238
1510 4 1238 1239
1511 4 1238 1241
1512 5 1239 1240
1513 5 1241 1242
1514 5 1243 1244
1515 5 1245 1246
1516 5 1247 1248
1517 3 1249 1250
1518 4 1250 1251
1519 4 1250 1259
1520 5 1251 1252
1521 3 1253 1254
1522 4 1254 1255
1523 4 1254 1257
1524 5 1255 1256
1525 5 1257 1258
1526 5 1259 1260
1527 3 1261 1262
1528 4 1262 1263
1529 4 1262 1269
1530 5 1263 1264
1531 3 1265 1266
1532 4 1266 1267
1533 4 1266 1271
1534 5 1267 1268
1535 5 1269 1270
1536 5 1271 1272
1537 1 1273 1274
1538 2 1273 1289
1539 3 1274 1275
1540 1 1274 1286
1541 4 1275 1276
1542 4 1275 1287
1543 5 1276 1277
1544 4 1276 3103
1545 1 1278 1279
1546 2 1278 1290
1547 3 1279 1280
1548 1 1279 1283
1549 4 1280 1281
1550 4 1280 1284
1551 5 1281 1282
1552 4 1281 3100
1553 2 1283 1292
1554 5 1284 1285
1555 4 1284 3091
1556 2 1286 1291
1557 5 1287 1288
1558 4 1287 3085
1559 2 1289 1312
1560 2 1289 1430
1561 2 1289 1467
1562 2 1290 1327
1563 2 1290 1457
1564 2 1290 1644
1565 2 1291 1293
1566 2 1291 1312
1567 2 1291 1554
1568 2 1292 1327
1569 2 1292 1548
1570 2 1292 1637
1571 1 1293 1294
1572 3 1294 1295
1573 1 1294 1303
1574 4 1295 1296
1575 4 1295 1304
1576 4 1296 571
1577 5 1296 1297
1578 1 1298 1299
1579 2 1298 1311
1580 3 1299 1300
1581 1 1299 1306
1582 4 1300 1301
1583 4 1300 1307
1584 4 1301 568
1585 5 1301 1302
1586 2 1303 1309
1587 4 1304 523
1588 5 1304 1305
1589 2 1306 1310
1590 4 1307 517
1591 5 1307 1308
1592 2 1309 1312
1593 2 1309 1313
1594 2 1309 1624
1595 2 1310 1325
1596 2 1310 1630
1597 2 1310 1633
1598 2 1311 1325
1599 2 1311 1545
1600 2 1311 1648
1601 2 1312 1451
1602 1 1313 1314
1603 3 1314 1315
1604 1 1314 1430
1605 4 1315 1316
1606 4 1315 1431
1607 4 1316 1243
1608 5 1316 1317
1609 2 1318 1319
1610 2 1318 1320
1611 2 1318 1627
1612 2 1318 1645
1613 2 1319 1328
1614 2 1319 1330
1615 2 1319 1445
1616 1 1320 1321
1617 3 1321 1322
1618 1 1321 1427
1619 4 1322 1323
1620 4 1322 1428
1621 4 1323 1241
1622 5 1323 1324
1623 2 1325 1329
1624 2 1325 1439
1625 2 1326 1327
1626 2 1326 1621
1627 2 1326 1634
1628 2 1326 1646
1629 2 1327 1433
1630 2 1328 1427
1631 2 1328 1462
1632 2 1328 1635
1633 2 1329 1472
1634 2 1329 1636
1635 2 1329 1643
1636 2 1330 1551
1637 2 1330 1638
1638 2 1330 1647
1639 2 1331 1332
1640 2 1331 1409
1641 2 1331 1536
1642 2 1331 1639
1643 2 1332 1349
1644 2 1332 1373
1645 2 1332 1515
1646 2 1333 1334
1647 2 1333 1403
1648 2 1333 1539
1649 2 1333 1640
1650 2 1334 1361
1651 2 1334 1391
1652 2 1334 1503
1653 2 1335 1336
1654 2 1335 1337
1655 2 1335 1412
1656 2 1335 1542
1657 2 1336 1367
1658 2 1336 1379
1659 2 1336 1497
1660 1 1337 1338
1661 3 1338 1339
1662 1 1338 1397
1663 4 1339 1340
1664 4 1339 1398
1665 4 1340 1247
1666 5 1340 1341
1667 2 1342 1343
1668 2 1342 1344
1669 2 1342 1406
1670 2 1342 1533
1671 2 1343 1355
1672 2 1343 1385
1673 2 1343 1509
1674 1 1344 1345
1675 3 1345 1346
1676 1 1345 1400
1677 4 1346 1347
1678 4 1346 1401
1679 4 1347 1245
1680 5 1347 1348
1681 2 1349 1350
1682 2 1349 1599
1683 2 1349 1642
1684 1 1350 1351
1685 3 1351 1352
1686 1 1351 1424
1687 4 1352 1353
1688 4 1352 1425
1689 4 1353 835
1690 5 1353 1354
1691 2 1355 1356
1692 2 1355 1400
1693 2 1355 1589
1694 1 1356 1357
1695 3 1357 1358
1696 1 1357 1421
1697 4 1358 1359
1698 4 1358 1422
1699 4 1359 833
1700 5 1359 1360
1701 2 1361 1362
1702 2 1361 1594
1703 2 1361 1641
1704 1 1362 1363
1705 3 1363 1364
1706 1 1363 1415
1707 4 1364 1365
1708 4 1364 1416
1709 5 1365 1366
1710 2 1367 1368
1711 2 1367 1397
1712 2 1367 1604
1713 1 1368 1369
1714 3 1369 1370
1715 1 1369 1418
1716 4 1370 1371
1717 4 1370 1419
1718 5 1371 1372
1719 2 1373 1374
1720 2 1373 1424
1721 2 1373 1487
1722 1 1374 1375
1723 3 1375 1376
1724 1 1375 1409
1725 4 1376 1377
1726 4 1376 1410
1727 5 1377 1378
1728 4 1377 3391
1729 2 1379 1380
1730 2 1379 1418
1731 2 1379 1477
1732 1 1380 1381
1733 3 1381 1382
1734 1 1381 1412
1735 4 1382 1383
1736 4 1382 1413
1737 5 1383 1384
1738 4 1383 3389
1739 2 1385 1386
1740 2 1385 1421
1741 2 1385 1482
1742 1 1386 1387
1743 3 1387 1388
1744 1 1387 1406
1745 4 1388 1389
1746 4 1388 1407
1747 5 1389 1390
1748 2 1391 1392
1749 2 1391 1415
1750 2 1391 1492
1751 1 1392 1393
1752 3 1393 1394
1753 1 1393 1403
1754 4 1394 1395
1755 4 1394 1404
1756 5 1395 1396
1757 4 1398 1231
1758 5 1398 1399
1759 4 1401 1227
1760 5 1401 1402
1761 5 1404 1405
1762 5 1407 1408
1763 5 1410 1411
1764 4 1410 3387
1765 5 1413 1414
1766 4 1413 3383
1767 5 1416 1417
1768 5 1419 1420
1769 4 1422 831
1770 5 1422 1423
1771 4 1425 827
1772 5 1425 1426
1773 4 1428 1239
1774 5 1428 1429
1775 4 1431 1235
1776 5 1431 1432
1777 2 1433 1434
1778 2 1433 1563
1779 2 1433 1579
1780 1 1434 1435
1781 3 1435 1436
1782 1 1435 1548
1783 4 1436 1437
1784 4 1436 1549
1785 5 1437 1438
1786 4 1437 1525
1787 2 1439 1440
1788 2 1439 1557
1789 2 1439 1569
1790 1 1440 1441
1791 3 1441 1442
1792 1 1441 1545
1793 4 1442 1443
1794 4 1442 1546
1795 5 1443 1444
1796 4 1443 1522
1797 2 1445 1446
1798 2 1445 1566
1799 2 1445 1574
1800 1 1446 1447
1801 3 1447 1448
1802 1 1447 1551
1803 4 1448 1449
1804 4 1448 1552
1805 5 1449 1450
1806 4 1449 1531
1807 2 1451 1452
1808 2 1451 1560
1809 2 1451 1584
1810 1 1452 1453
1811 3 1453 1454
1812 1 1453 1554
1813 4 1454 1455
1814 4 1454 1555
1815 5 1455 1456
1816 4 1455 1528
1817 1 1457 1458
1818 3 1458 1459
1819 1 1458 1563
1820 4 1459 1460
1821 4 1459 1564
1822 5 1460 1461
1823 4 1460 1537
1824 1 1462 1463
1825 3 1463 1464
1826 1 1463 1566
1827 4 1464 1465
1828 4 1464 1567
1829 5 1465 1466
1830 4 1465 1534
1831 1 1467 1468
1832 3 1468 1469
1833 1 1468 1560
1834 4 1469 1470
1835 4 1469 1561
1836 5 1470 1471
1837 4 1470 1543
1838 1 1472 1473
1839 3 1473 1474
1840 1 1473 1557
1841 4 1474 1475
1842 4 1474 1558
1843 5 1475 1476
1844 4 1475 1540
1845 1 1477 1478
1846 3 1478 1479
1847 1 1478 1524
1848 4 1479 1480
1849 4 1479 1525
1850 5 1480 1481
1851 4 1480 1549
1852 1 1482 1483
1853 3 1483 1484
1854 1 1483 1521
1855 4 1484 1485
1856 4 1484 1522
1857 5 1485 1486
1858 4 1485 1546
1859 1 1487 1488
1860 3 1488 1489
1861 1 1488 1527
1862 4 1489 1490
1863 4 1489 1528
1864 5 1490 1491
1865 4 1490 1555
1866 1 1492 1493
1867 3 1493 1494
1868 1 1493 1530
1869 4 1494 1495
1870 4 1494 1531
1871 5 1495 1496
1872 4 1495 1552
1873 2 1497 1498
1874 2 1497 1524
1875 2 1497 1609
1876 1 1498 1499
1877 3 1499 1500
1878 1 1499 1542
1879 4 1500 1501
1880 4 1500 1543
1881 5 1501 1502
1882 4 1501 1561
1883 2 1503 1504
1884 2 1503 1530
1885 2 1503 1618
1886 1 1504 1505
1887 3 1505 1506
1888 1 1505 1539
1889 4 1506 1507
1890 4 1506 1540
1891 5 1507 1508
1892 4 1507 1558
1893 2 1509 1510
1894 2 1509 1521
1895 2 1509 1615
1896 1 1510 1511
1897 3 1511 1512
1898 1 1511 1533
1899 4 1512 1513
1900 4 1512 1534
1901 5 1513 1514
1902 4 1513 1567
1903 2 1515 1516
1904 2 1515 1527
1905 2 1515 1612
1906 1 1516 1517
1907 3 1517 1518
1908 1 1517 1536
1909 4 1518 1519
1910 4 1518 1537
1911 5 1519 1520
1912 4 1519 1564
1913 5 1522 1523
1914 5 1525 1526
1915 5 1528 1529
1916 5 1531 1532
1917 5 1534 1535
1918 5 1537 1538
1919 5 1540 1541
1920 5 1543 1544
1921 5 1546 1547
1922 5 1549 1550
1923 5 1552 1553
1924 5 1555 1556
1925 5 1558 1559
1926 5 1561 1562
1927 5 1564 1565
1928 5 1567 1568
1929 1 1569 1570
1930 3 1570 1571
1931 1 1570 1630
1932 4 1571 1572
1933 4 1571 1631
1934 5 1572 1573
1935 4 1572 1613
1936 1 1574 1575
1937 3 1575 1576
1938 1 1575 1627
1939 4 1576 1577
1940 4 1576 1628
1941 5 1577 1578
1942 4 1577 1610
1943 1 1579 1580
1944 3 1580 1581
1945 1 1580 1621
1946 4 1581 1582
1947 4 1581 1622
1948 5 1582 1583
1949 4 1582 1619
1950 1 1584 1585
1951 3 1585 1586
1952 1 1585 1624
1953 4 1586 1587
1954 4 1586 1625
1955 5 1587 1588
1956 4 1587 1616
1957 1 1589 1590
1958 3 1590 1591
1959 1 1590 1615
1960 4 1591 1592
1961 4 1591 1616
1962 5 1592 1593
1963 4 1592 1625
1964 1 1594 1595
1965 3 1595 1596
1966 1 1595 1618
1967 4 1596 1597
1968 4 1596 1619
1969 5 1597 1598
1970 4 1597 1622
1971 1 1599 1600
1972 3 1600 1601
1973 1 1600 1612
1974 4 1601 1602
1975 4 1601 1613
1976 5 1602 1603
1977 4 1602 1631
1978 1 1604 1605
1979 3 1605 1606
1980 1 1605 1609
1981 4 1606 1607
1982 4 1606 1610
1983 5 1607 1608
1984 4 1607 1628
1985 5 1610 1611
1986 5 1613 1614
1987 5 1616 1617
1988 5 1619 1620
1989 5 1622 1623
1990 5 1625 1626
1991 5 1628 1629
1992 5 1631 1632
1993 1 1633 1649
1994 1 1634 1653
1995 1 1635 1685
1996 1 1636 1689
1997 1 1637 1673
1998 1 1638 1677
1999 1 1639 1657
2000 1 1640 1661
2001 1 1641 1661
2002 1 1642 1657
2003 1 1643 1649
2004 1 1644 1653
2005 1 1645 1677
2006 1 1646 1673
2007 1 1647 1685
2008 1 1648 1689
2009 3 1649 1650
2010 4 1650 1651
2011 4 1650 1669
2012 5 1651 1652
2013 3 1653 1654
2014 4 1654 1655
2015 4 1654 1671
2016 5 1655 1656
2017 3 1657 1658
2018 4 1658 1659
2019 4 1658 1667
2020 5 1659 1660
2021 3 1661 1662
2022 4 1662 1663
2023 4 1662 1665
2024 5 1663 1664
2025 5 1665 1666
2026 5 1667 1668
2027 5 1669 1670
2028 5 1671 1672
2029 3 1673 1674
2030 4 1674 1675
2031 4 1674 1683
2032 5 1675 1676
2033 3 1677 1678
2034 4 1678 1679
2035 4 1678 1681
2036 5 1679 1680
2037 5 1681 1682
2038 5 1683 1684
2039 3 1685 1686
2040 4 1686 1687
2041 4 1686 1693
2042 5 1687 1688
2043 3 1689 1690
2044 4 1690 1691
2045 4 1690 1695
2046 5 1691 1692
2047 5 1693 1694
2048 5 1695 1696
2049 1 1697 1698
2050 2 1697 1713
2051 3 1698 1699
2052 1 1698 1710
2053 4 1699 1700
2054 4 1699 1711
2055 4 1700 135
2056 5 1700 1701
2057 1 1702 1703
2058 2 1702 1714
2059 3 1703 1704
2060 1 1703 1707
2061 4 1704 1705
2062 4 1704 1708
2063 4 1705 132
2064 5 1705 1706
2065 2 1707 1716
2066 4 1708 123
2067 5 1708 1709
2068 2 1710 1715
2069 4 1711 117
2070 5 1711 1712
2071 2 1713 1736
2072 2 1713 1854
2073 2 1713 1891
2074 2 1714 1751
2075 2 1714 1881
2076 2 1714 2068
2077 2 1715 1717
2078 2 1715 1736
2079 2 1715 1978
2080 2 1716 1751
2081 2 1716 1972
2082 2 1716 2061
2083 1 1717 1718
2084 3 1718 1719
2085 1 1718 1727
2086 4 1719 1720
2087 4 1719 1728
2088 5 1720 1721
2089 4 1720 2691
2090 1 1722 1723
2091 2 1722 1735
2092 3 1723 1724
2093 1 1723 1730
2094 4 1724 1725
2095 4 1724 1731
2096 5 1725 1726
2097 4 1725 2688
2098 2 1727 1733
2099 5 1728 1729
2100 4 1728 2643
2101 2 1730 1734
2102 5 1731 1732
2103 4 1731 2637
2104 2 1733 1736
2105 2 1733 1737
2106 2 1733 2048
2107 2 1734 1749
2108 2 1734 2054
2109 2 1734 2057
2110 2 1735 1749
2111 2 1735 1969
2112 2 1735 2072
2113 2 1736 1875
2114 1 1737 1738
2115 3 1738 1739
2116 1 1738 1854
2117 4 1739 1740
2118 4 1739 1855
2119 5 1740 1741
2120 4 1740 2515
2121 2 1742 1743
2122 2 1742 1744
2123 2 1742 2051
2124 2 1742 2069
2125 2 1743 1752
2126 2 1743 1754
2127 2 1743 1869
2128 1 1744 1745
2129 3 1745 1746
2130 1 1745 1851
2131 4 1746 1747
2132 4 1746 1852
2133 5 1747 1748
2134 4 1747 2513
2135 2 1749 1753
2136 2 1749 1863
2137 2 1750 1751
2138 2 1750 2045
2139 2 1750 2058
2140 2 1750 2070
2141 2 1751 1857
2142 2 1752 1851
2143 2 1752 1886
2144 2 1752 2059
2145 2 1753 1896
2146 2 1753 2060
2147 2 1753 2067
2148 2 1754 1975
2149 2 1754 2062
2150 2 1754 2071
2151 2 1755 1756
2152 2 1755 1833
2153 2 1755 1960
2154 2 1755 2063
2155 2 1756 1773
2156 2 1756 1797
2157 2 1756 1939
2158 2 1757 1758
2159 2 1757 1827
2160 2 1757 1963
2161 2 1757 2064
2162 2 1758 1785
2163 2 1758 1815
2164 2 1758 1927
2165 2 1759 1760
2166 2 1759 1761
2167 2 1759 1836
2168 2 1759 1966
2169 2 1760 1791
2170 2 1760 1803
2171 2 1760 1921
2172 1 1761 1762
2173 3 1762 1763
2174 1 1762 1821
2175 4 1763 1764
2176 4 1763 1822
2177 5 1764 1765
2178 4 1764 2519
2179 2 1766 1767
2180 2 1766 1768
2181 2 1766 1830
2182 2 1766 1957
2183 2 1767 1779
2184 2 1767 1809
2185 2 1767 1933
2186 1 1768 1769
2187 3 1769 1770
2188 1 1769 1824
2189 4 1770 1771
2190 4 1770 1825
2191 5 1771 1772
2192 4 1771 2517
2193 2 1773 1774
2194 2 1773 2023
2195 2 1773 2066
2196 1 1774 1775
2197 3 1775 1776
2198 1 1775 1848
2199 4 1776 1777
2200 4 1776 1849
2201 5 1777 1778
2202 4 1777 2955
2203 2 1779 1780
2204 2 1779 1824
2205 2 1779 2013
2206 1 1780 1781
2207 3 1781 1782
2208 1 1781 1845
2209 4 1782 1783
2210 4 1782 1846
2211 5 1783 1784
2212 4 1783 2953
2213 2 1785 1786
2214 2 1785 2018
2215 2 1785 2065
2216 1 1786 1787
2217 3 1787 1788
2218 1 1787 1839
2219 4 1788 1789
2220 4 1788 1840
2221 5 1789 1790
2222 2 1791 1792
2223 2 1791 1821
2224 2 1791 2028
2225 1 1792 1793
2226 3 1793 1794
2227 1 1793 1842
2228 4 1794 1795
2229 4 1794 1843
2230 5 1795 1796
2231 2 1797 1798
2232 2 1797 1848
2233 2 1797 1911
2234 1 1798 1799
2235 3 1799 1800
2236 1 1799 1833
2237 4 1800 1801
2238 4 1800 1834
2239 4 1801 423
2240 5 1801 1802
2241 2 1803 1804
2242 2 1803 1842
2243 2 1803 1901
2244 1 1804 1805
2245 3 1805 1806
2246 1 1805 1836
2247 4 1806 1807
2248 4 1806 1837
2249 4 1807 421
2250 5 1807 1808
2251 2 1809 1810
2252 2 1809 1845
2253 2 1809 1906
2254 1 1810 1811
2255 3 1811 1812
2256 1 1811 1830
2257 4 1812 1813
2258 4 1812 1831
2259 5 1813 1814
2260 2 1815 1816
2261 2 1815 1839
2262 2 1815 1916
2263 1 1816 1817
2264 3 1817 1818
2265 1 1817 1827
2266 4 1818 1819
2267 4 1818 1828
2268 5 1819 1820
2269 5 1822 1823
2270 4 1822 2503
2271 5 1825 1826
2272 4 1825 2499
2273 5 1828 1829
2274 5 1831 1832
2275 4 1834 419
2276 5 1834 1835
2277 4 1837 415
2278 5 1837 1838
2279 5 1840 1841
2280 5 1843 1844
2281 5 1846 1847
2282 4 1846 2951
2283 5 1849 1850
2284 4 1849 2947
2285 5 1852 1853
2286 4 1852 2511
2287 5 1855 1856
2288 4 1855 2507
2289 2 1857 1858
2290 2 1857 1987
2291 2 1857 2003
2292 1 1858 1859
2293 3 1859 1860
2294 1 1859 1972
2295 4 1860 1861
2296 4 1860 1973
2297 5 1861 1862
2298 4 1861 1949
2299 2 1863 1864
2300 2 1863 1981
2301 2 1863 1993
2302 1 1864 1865
2303 3 1865 1866
2304 1 1865 1969
2305 4 1866 1867
2306 4 1866 1970
2307 5 1867 1868
2308 4 1867 1946
2309 2 1869 1870
2310 2 1869 1990
2311 2 1869 1998
2312 1 1870 1871
2313 3 1871 1872
2314 1 1871 1975
2315 4 1872 1873
2316 4 1872 1976
2317 5 1873 1874
2318 4 1873 1955
2319 2 1875 1876
2320 2 1875 1984
2321 2 1875 2008
2322 1 1876 1877
2323 3 1877 1878
2324 1 1877 1978
2325 4 1878 1879
2326 4 1878 1979
2327 5 1879 1880
2328 4 1879 1952
2329 1 1881 1882
2330 3 1882 1883
2331 1 1882 1987
2332 4 1883 1884
2333 4 1883 1988
2334 5 1884 1885
2335 4 1884 1961
2336 1 1886 1887
2337 3 1887 1888
2338 1 1887 1990
2339 4 1888 1889
2340 4 1888 1991
2341 5 1889 1890
2342 4 1889 1958
2343 1 1891 1892
2344 3 1892 1893
2345 1 1892 1984
2346 4 1893 1894
2347 4 1893 1985
2348 5 1894 1895
2349 4 1894 1967
2350 1 1896 1897
2351 3 1897 1898
2352 1 1897 1981
2353 4 1898 1899
2354 4 1898 1982
2355 5 1899 1900
2356 4 1899 1964
2357 1 1901 1902
2358 3 1902 1903
2359 1 1902 1948
2360 4 1903 1904
2361 4 1903 1949
2362 5 1904 1905
2363 4 1904 1973
2364 1 1906 1907
2365 3 1907 1908
2366 1 1907 1945
2367 4 1908 1909
2368 4 1908 1946
2369 5 1909 1910
2370 4 1909 1970
2371 1 1911 1912
2372 3 1912 1913
2373 1 1912 1951
2374 4 1913 1914
2375 4 1913 1952
2376 5 1914 1915
2377 4 1914 1979
2378 1 1916 1917
2379 3 1917 1918
2380 1 1917 1954
2381 4 1918 1919
2382 4 1918 1955
2383 5 1919 1920
2384 4 1919 1976
2385 2 1921 1922
2386 2 1921 1948
2387 2 1921 2033
2388 1 1922 1923
2389 3 1923 1924
2390 1 1923 1966
2391 4 1924 1925
2392 4 1924 1967
2393 5 1925 1926
2394 4 1925 1985
2395 2 1927 1928
2396 2 1927 1954
2397 2 1927 2042
2398 1 1928 1929
2399 3 1929 1930
2400 1 1929 1963
2401 4 1930 1931
2402 4 1930 1964
2403 5 1931 1932
2404 4 1931 1982
2405 2 1933 1934
2406 2 1933 1945
2407 2 1933 2039
2408 1 1934 1935
2409 3 1935 1936
2410 1 1935 1957
2411 4 1936 1937
2412 4 1936 1958
2413 5 1937 1938
2414 4 1937 1991
2415 2 1939 1940
2416 2 1939 1951
2417 2 1939 2036
2418 1 1940 1941
2419 3 1941 1942
2420 1 1941 1960
2421 4 1942 1943
2422 4 1942 1961
2423 5 1943 1944
2424 4 1943 1988
2425 5 1946 1947
2426 5 1949 1950
2427 5 1952 1953
2428 5 1955 1956
2429 5 1958 1959
2430 5 1961 1962
2431 5 1964 1965
2432 5 1967 1968
2433 5 1970 1971
2434 5 1973 1974
2435 5 1976 1977
2436 5 1979 1980
2437 5 1982 1983
2438 5 1985 1986
2439 5 1988 1989
2440 5 1991 1992
2441 1 1993 1994
2442 3 1994 1995
2443 1 1994 2054
2444 4 1995 1996
2445 4 1995 2055
2446 5 1996 1997
2447 4 1996 2037
2448 1 1998 1999
2449 3 1999 2000
2450 1 1999 2051
2451 4 2000 2001
2452 4 2000 2052
2453 5 2001 2002
2454 4 2001 2034
2455 1 2003 2004
2456 3 2004 2005
2457 1 2004 2045
2458 4 2005 2006
2459 4 2005 2046
2460 5 2006 2007
2461 4 2006 2043
2462 1 2008 2009
2463 3 2009 2010
2464 1 2009 2048
2465 4 2010 2011
2466 4 2010 2049
2467 5 2011 2012
2468 4 2011 2040
2469 1 2013 2014
2470 3 2014 2015
2471 1 2014 2039
2472 4 2015 2016
2473 4 2015 2040
2474 5 2016 2017
2475 4 2016 2049
2476 1 2018 2019
2477 3 2019 2020
2478 1 2019 2042
2479 4 2020 2021
2480 4 2020 2043
2481 5 2021 2022
2482 4 2021 2046
2483 1 2023 2024
2484 3 2024 2025
2485 1 2024 2036
2486 4 2025 2026
2487 4 2025 2037
2488 5 2026 2027
2489 4 2026 2055
2490 1 2028 2029
2491 3 2029 2030
2492 1 2029 2033
2493 4 2030 2031
2494 4 2030 2034
2495 5 2031 2032
2496 4 2031 2052
2497 5 2034 2035
2498 5 2037 2038
2499 5 2040 2041
2500 5 2043 2044
2501 5 2046 2047
2502 5 2049 2050
2503 5 2052 2053
2504 5 2055 2056
2505 1 2057 2073
2506 1 2058 2077
2507 1 2059 2109
2508 1 2060 2113
2509 1 2061 2097
2510 1 2062 2101
2511 1 2063 2081
2512 1 2064 2085
2513 1 2065 2085
2514 1 2066 2081
2515 1 2067 2073
2516 1 2068 2077
2517 1 2069 2101
2518 1 2070 2097
2519 1 2071 2109
2520 1 2072 2113
2521 3 2073 2074
2522 4 2074 2075
2523 4 2074 2093
2524 5 2075 2076
2525 3 2077 2078
2526 4 2078 2079
2527 4 2078 2095
2528 5 2079 2080
2529 3 2081 2082
2530 4 2082 2083
2531 4 2082 2091
2532 5 2083 2084
2533 3 2085 2086
2534 4 2086 2087
2535 4 2086 2089
2536 5 2087 2088
2537 5 2089 2090
2538 5 2091 2092
2539 5 2093 2094
2540 5 2095 2096
2541 3 2097 2098
2542 4 2098 2099
2543 4 2098 2107
2544 5 2099 2100
2545 3 2101 2102
2546 4 2102 2103
2547 4 2102 2105
2548 5 2103 2104
2549 5 2105 2106
2550 5 2107 2108
2551 3 2109 2110
2552 4 2110 2111
2553 4 2110 2117
2554 5 2111 2112
2555 3 2113 2114
2556 4 2114 2115
2557 4 2114 2119
2558 5 2115 2116
2559 5 2117 2118
2560 5 2119 2120
2561 1 2121 2122
2562 2 2121 2137
2563 3 2122 2123
2564 1 2122 2134
2565 4 2123 2124
2566 4 2123 2135
2567 4 2124 559
2568 5 2124 2125
2569 1 2126 2127
2570 2 2126 2138
2571 3 2127 2128
2572 1 2127 2131
2573 4 2128 2129
2574 4 2128 2132
2575 4 2129 556
2576 5 2129 2130
2577 2 2131 2140
2578 4 2132 547
2579 5 2132 2133
2580 2 2134 2139
2581 4 2135 541
2582 5 2135 2136
2583 2 2137 2160
2584 2 2137 2278
2585 2 2137 2315
2586 2 2138 2175
2587 2 2138 2305
2588 2 2138 2492
2589 2 2139 2141
2590 2 2139 2160
2591 2 2139 2402
2592 2 2140 2175
2593 2 2140 2396
2594 2 2140 2485
2595 1 2141 2142
2596 3 2142 2143
2597 1 2142 2151
2598 4 2143 2144
2599 4 2143 2152
2600 5 2144 2145
2601 4 2144 3115
2602 1 2146 2147
2603 2 2146 2159
2604 3 2147 2148
2605 1 2147 2154
2606 4 2148 2149
2607 4 2148 2155
2608 5 2149 2150
2609 4 2149 3112
2610 2 2151 2157
2611 5 2152 2153
2612 4 2152 3067
2613 2 2154 2158
2614 5 2155 2156
2615 4 2155 3061
2616 2 2157 2160
2617 2 2157 2161
2618 2 2157 2472
2619 2 2158 2173
2620 2 2158 2478
2621 2 2158 2481
2622 2 2159 2173
2623 2 2159 2393
2624 2 2159 2496
2625 2 2160 2299
2626 1 2161 2162
2627 3 2162 2163
2628 1 2162 2278
2629 4 2163 2164
2630 4 2163 2279
2631 4 2164 2091
2632 5 2164 2165
2633 2 2166 2167
2634 2 2166 2168
2635 2 2166 2475
2636 2 2166 2493
2637 2 2167 2176
2638 2 2167 2178
2639 2 2167 2293
2640 1 2168 2169
2641 3 2169 2170
2642 1 2169 2275
2643 4 2170 2171
2644 4 2170 2276
2645 4 2171 2089
2646 5 2171 2172
2647 2 2173 2177
2648 2 2173 2287
2649 2 2174 2175
2650 2 2174 2469
2651 2 2174 2482
2652 2 2174 2494
2653 2 2175 2281
2654 2 2176 2275
2655 2 2176 2310
2656 2 2176 2483
2657 2 2177 2320
2658 2 2177 2484
2659 2 2177 2491
2660 2 2178 2399
2661 2 2178 2486
2662 2 2178 2495
2663 2 2179 2180
2664 2 2179 2257
2665 2 2179 2384
2666 2 2179 2487
2667 2 2180 2197
2668 2 2180 2221
2669 2 2180 2363
2670 2 2181 2182
2671 2 2181 2251
2672 2 2181 2387
2673 2 2181 2488
2674 2 2182 2209
2675 2 2182 2239
2676 2 2182 2351
2677 2 2183 2184
2678 2 2183 2185
2679 2 2183 2260
2680 2 2183 2390
2681 2 2184 2215
2682 2 2184 2227
2683 2 2184 2345
2684 1 2185 2186
2685 3 2186 2187
2686 1 2186 2245
2687 4 2187 2188
2688 4 2187 2246
2689 4 2188 2095
2690 5 2188 2189
2691 2 2190 2191
2692 2 2190 2192
2693 2 2190 2254
2694 2 2190 2381
2695 2 2191 2203
2696 2 2191 2233
2697 2 2191 2357
2698 1 2192 2193
2699 3 2193 2194
2700 1 2193 2248
2701 4 2194 2195
2702 4 2194 2249
2703 4 2195 2093
2704 5 2195 2196
2705 2 2197 2198
2706 2 2197 2447
2707 2 2197 2490
2708 1 2198 2199
2709 3 2199 2200
2710 1 2199 2272
2711 4 2200 2201
2712 4 2200 2273
2713 5 2201 2202
2714 4 2201 3379
2715 2 2203 2204
2716 2 2203 2248
2717 2 2203 2437
2718 1 2204 2205
2719 3 2205 2206
2720 1 2205 2269
2721 4 2206 2207
2722 4 2206 2270
2723 5 2207 2208
2724 4 2207 3377
2725 2 2209 2210
2726 2 2209 2442
2727 2 2209 2489
2728 1 2210 2211
2729 3 2211 2212
2730 1 2211 2263
2731 4 2212 2213
2732 4 2212 2264
2733 5 2213 2214
2734 2 2215 2216
2735 2 2215 2245
2736 2 2215 2452
2737 1 2216 2217
2738 3 2217 2218
2739 1 2217 2266
2740 4 2218 2219
2741 4 2218 2267
2742 5 2219 2220
2743 2 2221 2222
2744 2 2221 2272
2745 2 2221 2335
2746 1 2222 2223
2747 3 2223 2224
2748 1 2223 2257
2749 4 2224 2225
2750 4 2224 2258
2751 4 2225 847
2752 5 2225 2226
2753 2 2227 2228
2754 2 2227 2266
2755 2 2227 2325
2756 1 2228 2229
2757 3 2229 2230
2758 1 2229 2260
2759 4 2230 2231
2760 4 2230 2261
2761 4 2231 845
2762 5 2231 2232
2763 2 2233 2234
2764 2 2233 2269
2765 2 2233 2330
2766 1 2234 2235
2767 3 2235 2236
2768 1 2235 2254
2769 4 2236 2237
2770 4 2236 2255
2771 5 2237 2238
2772 2 2239 2240
2773 2 2239 2263
2774 2 2239 2340
2775 1 2240 2241
2776 3 2241 2242
2777 1 2241 2251
2778 4 2242 2243
2779 4 2242 2252
2780 5 2243 2244
2781 4 2246 2079
2782 5 2246 2247
2783 4 2249 2075
2784 5 2249 2250
2785 5 2252 2253
2786 5 2255 2256
2787 4 2258 843
2788 5 2258 2259
2789 4 2261 839
2790 5 2261 2262
2791 5 2264 2265
2792 5 2267 2268
2793 5 2270 2271
2794 4 2270 3375
2795 5 2273 2274
2796 4 2273 3371
2797 4 2276 2087
2798 5 2276 2277
2799 4 2279 2083
2800 5 2279 2280
2801 2 2281 2282
2802 2 2281 2411
2803 2 2281 2427
2804 1 2282 2283
2805 3 2283 2284
2806 1 2283 2396
2807 4 2284 2285
2808 4 2284 2397
2809 5 2285 2286
2810 4 2285 2373
2811 2 2287 2288
2812 2 2287 2405
2813 2 2287 2417
2814 1 2288 2289
2815 3 2289 2290
2816 1 2289 2393
2817 4 2290 2291
2818 4 2290 2394
2819 5 2291 2292
2820 4 2291 2370
2821 2 2293 2294
2822 2 2293 2414
2823 2 2293 2422
2824 1 2294 2295
2825 3 2295 2296
2826 1 2295 2399
2827 4 2296 2297
2828 4 2296 2400
2829 5 2297 2298
2830 4 2297 2379
2831 2 2299 2300
2832 2 2299 2408
2833 2 2299 2432
2834 1 2300 2301
2835 3 2301 2302
2836 1 2301 2402
2837 4 2302 2303
2838 4 2302 2403
2839 5 2303 2304
2840 4 2303 2376
2841 1 2305 2306
2842 3 2306 2307
2843 1 2306 2411
2844 4 2307 2308
2845 4 2307 2412
2846 5 2308 2309
2847 4 2308 2385
2848 1 2310 2311
2849 3 2311 2312
2850 1 2311 2414
2851 4 2312 2313
2852 4 2312 2415
2853 5 2313 2314
2854 4 2313 2382
2855 1 2315 2316
2856 3 2316 2317
2857 1 2316 2408
2858 4 2317 2318
2859 4 2317 2409
2860 5 2318 2319
2861 4 2318 2391
2862 1 2320 2321
2863 3 2321 2322
2864 1 2321 2405
2865 4 2322 2323
2866 4 2322 2406
2867 5 2323 2324
2868 4 2323 2388
2869 1 2325 2326
2870 3 2326 2327
2871 1 2326 2372
2872 4 2327 2328
2873 4 2327 2373
2874 5 2328 2329
2875 4 2328 2397
2876 1 2330 2331
2877 3 2331 2332
2878 1 2331 2369
2879 4 2332 2333
2880 4 2332 2370
2881 5 2333 2334
2882 4 2333 2394
2883 1 2335 2336
2884 3 2336 2337
2885 1 2336 2375
2886 4 2337 2338
2887 4 2337 2376
2888 5 2338 2339
2889 4 2338 2403
2890 1 2340 2341
2891 3 2341 2342
2892 1 2341 2378
2893 4 2342 2343
2894 4 2342 2379
2895 5 2343 2344
2896 4 2343 2400
2897 2 2345 2346
2898 2 2345 2372
2899 2 2345 2457
2900 1 2346 2347
2901 3 2347 2348
2902 1 2347 2390
2903 4 2348 2349
2904 4 2348 2391
2905 5 2349 2350
2906 4 2349 2409
2907 2 2351 2352
2908 2 2351 2378
2909 2 2351 2466
2910 1 2352 2353
2911 3 2353 2354
2912 1 2353 2387
2913 4 2354 2355
2914 4 2354 2388
2915 5 2355 2356
2916 4 2355 2406
2917 2 2357 2358
2918 2 2357 2369
2919 2 2357 2463
2920 1 2358 2359
2921 3 2359 2360
2922 1 2359 2381
2923 4 2360 2361
2924 4 2360 2382
2925 5 2361 2362
2926 4 2361 2415
2927 2 2363 2364
2928 2 2363 2375
2929 2 2363 2460
2930 1 2364 2365
2931 3 2365 2366
2932 1 2365 2384
2933 4 2366 2367
2934 4 2366 2385
2935 5 2367 2368
2936 4 2367 2412
2937 5 2370 2371
2938 5 2373 2374
2939 5 2376 2377
2940 5 2379 2380
2941 5 2382 2383
2942 5 2385 2386
2943 5 2388 2389
2944 5 2391 2392
2945 5 2394 2395
2946 5 2397 2398
2947 5 2400 2401
2948 5 2403 2404
2949 5 2406 2407
2950 5 2409 2410
2951 5 2412 2413
2952 5 2415 2416
2953 1 2417 2418
2954 3 2418 2419
2955 1 2418 2478
2956 4 2419 2420
2957 4 2419 2479
2958 5 2420 2421
2959 4 2420 2461
2960 1 2422 2423
2961 3 2423 2424
2962 1 2423 2475
2963 4 2424 2425
2964 4 2424 2476
2965 5 2425 2426
2966 4 2425 2458
2967 1 2427 2428
2968 3 2428 2429
2969 1 2428 2469
2970 4 2429 2430
2971 4 2429 2470
2972 5 2430 2431
2973 4 2430 2467
2974 1 2432 2433
2975 3 2433 2434
2976 1 2433 2472
2977 4 2434 2435
2978 4 2434 2473
2979 5 2435 2436
2980 4 2435 2464
2981 1 2437 2438
2982 3 2438 2439
2983 1 2438 2463
2984 4 2439 2440
2985 4 2439 2464
2986 5 2440 2441
2987 4 2440 2473
2988 1 2442 2443
2989 3 2443 2444
2990 1 2443 2466
2991 4 2444 2445
2992 4 2444 2467
2993 5 2445 2446
2994 4 2445 2470
2995 1 2447 2448
2996 3 2448 2449
2997 1 2448 2460
2998 4 2449 2450
2999 4 2449 2461
3000 5 2450 2451
3001 4 2450 2479
3002 1 2452 2453
3003 3 2453 2454
3004 1 2453 2457
3005 4 2454 2455
3006 4 2454 2458
3007 5 2455 2456
3008 4 2455 2476
3009 5 2458 2459
3010 5 2461 2462
3011 5 2464 2465
3012 5 2467 2468
3013 5 2470 2471
3014 5 2473 2474
3015 5 2476 2477
3016 5 2479 2480
3017 1 2481 2497
3018 1 2482 2501
3019 1 2483 2533
3020 1 2484 2537
3021 1 2485 2521
3022 1 2486 2525
3023 1 2487 2505
3024 1 2488 2509
3025 1 2489 2509
3026 1 2490 2505
3027 1 2491 2497
3028 1 2492 2501
3029 1 2493 2525
3030 1 2494 2521
3031 1 2495 2533
3032 1 2496 2537
3033 3 2497 2498
3034 4 2498 2499
3035 4 2498 2517
3036 5 2499 2500
3037 3 2501 2502
3038 4 2502 2503
3039 4 2502 2519
3040 5 2503 2504
3041 3 2505 2506
3042 4 2506 2507
3043 4 2506 2515
3044 5 2507 2508
3045 3 2509 2510
3046 4 2510 2511
3047 4 2510 2513
3048 5 2511 2512
3049 5 2513 2514
3050 5 2515 2516
3051 5 2517 2518
3052 5 2519 2520
3053 3 2521 2522
3054 4 2522 2523
3055 4 2522 2531
3056 5 2523 2524
3057 3 2525 2526
3058 4 2526 2527
3059 4 2526 2529
3060 5 2527 2528
3061 5 2529 2530
3062 5 2531 2532
3063 3 2533 2534
3064 4 2534 2535
3065 4 2534 2541
3066 5 2535 2536
3067 3 2537 2538
3068 4 2538 2539
3069 4 2538 2543
3070 5 2539 2540
3071 5 2541 2542
3072 5 2543 2544
3073 1 2545 2546
3074 2 2545 2561
3075 3 2546 2547
3076 1 2546 2558
3077 4 2547 2548
3078 4 2547 2559
3079 4 2548 983
3080 5 2548 2549
3081 1 2550 2551
3082 2 2550 2562
3083 3 2551 2552
3084 1 2551 2555
3085 4 2552 2553
3086 4 2552 2556
3087 4 2553 980
3088 5 2553 2554
3089 2 2555 2564
3090 4 2556 971
3091 5 2556 2557
3092 2 2558 2563
3093 4 2559 965
3094 5 2559 2560
3095 2 2561 2584
3096 2 2561 2702
3097 2 2561 2739
3098 2 2562 2599
3099 2 2562 2729
3100 2 2562 2916
3101 2 2563 2565
3102 2 2563 2584
3103 2 2563 2826
3104 2 2564 2599
3105 2 2564 2820
3106 2 2564 2909
3107 1 2565 2566
3108 3 2566 2567
3109 1 2566 2575
3110 4 2567 2568
3111 4 2567 2576
3112 4 2568 1843
3113 5 2568 2569
3114 1 2570 2571
3115 2 2570 2583
3116 3 2571 2572
3117 1 2571 2578
3118 4 2572 2573
3119 4 2572 2579
3120 4 2573 1840
3121 5 2573 2574
3122 2 2575 2581
3123 4 2576 1795
3124 5 2576 2577
3125 2 2578 2582
3126 4 2579 1789
3127 5 2579 2580
3128 2 2581 2584
3129 2 2581 2585
3130 2 2581 2896
3131 2 2582 2597
3132 2 2582 2902
3133 2 2582 2905
3134 2 2583 2597
3135 2 2583 2817
3136 2 2583 2920
3137 2 2584 2723
3138 1 2585 2586
3139 3 2586 2587
3140 1 2586 2702
3141 4 2587 2588
3142 4 2587 2703
3143 5 2588 2589
3144 4 2588 3363
3145 2 2590 2591
3146 2 2590 2592
3147 2 2590 2899
3148 2 2590 2917
3149 2 2591 2600
3150 2 2591 2602
3151 2 2591 2717
3152 1 2592 2593
3153 3 2593 2594
3154 1 2593 2699
3155 4 2594 2595
3156 4 2594 2700
3157 5 2595 2596
3158 4 2595 3361
3159 2 2597 2601
3160 2 2597 2711
3161 2 2598 2599
3162 2 2598 2893
3163 2 2598 2906
3164 2 2598 2918
3165 2 2599 2705
3166 2 2600 2699
3167 2 2600 2734
3168 2 2600 2907
3169 2 2601 2744
3170 2 2601 2908
3171 2 2601 2915
3172 2 2602 2823
3173 2 2602 2910
3174 2 2602 2919
3175 2 2603 2604
3176 2 2603 2681
3177 2 2603 2808
3178 2 2603 2911
3179 2 2604 2621
3180 2 2604 2645
3181 2 2604 2787
3182 2 2605 2606
3183 2 2605 2675
3184 2 2605 2811
3185 2 2605 2912
3186 2 2606 2633
3187 2 2606 2663
3188 2 2606 2775
3189 2 2607 2608
3190 2 2607 2609
3191 2 2607 2684
3192 2 2607 2814
3193 2 2608 2639
3194 2 2608 2651
3195 2 2608 2769
3196 1 2609 2610
3197 3 2610 2611
3198 1 2610 2669
3199 4 2611 2612
3200 4 2611 2670
3201 5 2612 2613
3202 4 2612 3367
3203 2 2614 2615
3204 2 2614 2616
3205 2 2614 2678
3206 2 2614 2805
3207 2 2615 2627
3208 2 2615 2657
3209 2 2615 2781
3210 1 2616 2617
3211 3 2617 2618
3212 1 2617 2672
3213 4 2618 2619
3214 4 2618 2673
3215 5 2619 2620
3216 4 2619 3365
3217 2 2621 2622
3218 2 2621 2871
3219 2 2621 2914
3220 1 2622 2623
3221 3 2623 2624
3222 1 2623 2696
3223 4 2624 2625
3224 4 2624 2697
3225 4 2625 2107
3226 5 2625 2626
3227 2 2627 2628
3228 2 2627 2672
3229 2 2627 2861
3230 1 2628 2629
3231 3 2629 2630
3232 1 2629 2693
3233 4 2630 2631
3234 4 2630 2694
3235 4 2631 2105
3236 5 2631 2632
3237 2 2633 2634
3238 2 2633 2866
3239 2 2633 2913
3240 1 2634 2635
3241 3 2635 2636
3242 1 2635 2687
3243 4 2636 2637
3244 4 2636 2688
3245 5 2637 2638
3246 2 2639 2640
3247 2 2639 2669
3248 2 2639 2876
3249 1 2640 2641
3250 3 2641 2642
3251 1 2641 2690
3252 4 2642 2643
3253 4 2642 2691
3254 5 2643 2644
3255 2 2645 2646
3256 2 2645 2696
3257 2 2645 2759
3258 1 2646 2647
3259 3 2647 2648
3260 1 2647 2681
3261 4 2648 2649
3262 4 2648 2682
3263 4 2649 1271
3264 5 2649 2650
3265 2 2651 2652
3266 2 2651 2690
3267 2 2651 2749
3268 1 2652 2653
3269 3 2653 2654
3270 1 2653 2684
3271 4 2654 2655
3272 4 2654 2685
3273 4 2655 1269
3274 5 2655 2656
3275 2 2657 2658
3276 2 2657 2693
3277 2 2657 2754
3278 1 2658 2659
3279 3 2659 2660
3280 1 2659 2678
3281 4 2660 2661
3282 4 2660 2679
3283 5 2661 2662
3284 2 2663 2664
3285 2 2663 2687
3286 2 2663 2764
3287 1 2664 2665
3288 3 2665 2666
3289 1 2665 2675
3290 4 2666 2667
3291 4 2666 2676
3292 5 2667 2668
3293 5 2670 2671
3294 4 2670 3351
3295 5 2673 2674
3296 4 2673 3347
3297 5 2676 2677
3298 5 2679 2680
3299 4 2682 1267
3300 5 2682 2683
3301 4 2685 1263
3302 5 2685 2686
3303 5 2688 2689
3304 5 2691 2692
3305 4 2694 2103
3306 5 2694 2695
3307 4 2697 2099
3308 5 2697 2698
3309 5 2700 2701
3310 4 2700 3359
3311 5 2703 2704
3312 4 2703 3355
3313 2 2705 2706
3314 2 2705 2835
3315 2 2705 2851
3316 1 2706 2707
3317 3 2707 2708
3318 1 2707 2820
3319 4 2708 2709
3320 4 2708 2821
3321 5 2709 2710
3322 4 2709 2797
3323 2 2711 2712
3324 2 2711 2829
3325 2 2711 2841
3326 1 2712 2713
3327 3 2713 2714
3328 1 2713 2817
3329 4 2714 2715
3330 4 2714 2818
3331 5 2715 2716
3332 4 2715 2794
3333 2 2717 2718
3334 2 2717 2838
3335 2 2717 2846
3336 1 2718 2719
3337 3 2719 2720
3338 1 2719 2823
3339 4 2720 2721
3340 4 2720 2824
3341 5 2721 2722
3342 4 2721 2803
3343 2 2723 2724
3344 2 2723 2832
3345 2 2723 2856
3346 1 2724 2725
3347 3 2725 2726
3348 1 2725 2826
3349 4 2726 2727
3350 4 2726 2827
3351 5 2727 2728
3352 4 2727 2800
3353 1 2729 2730
3354 3 2730 2731
3355 1 2730 2835
3356 4 2731 2732
3357 4 2731 2836
3358 5 2732 2733
3359 4 2732 2809
3360 1 2734 2735
3361 3 2735 2736
3362 1 2735 2838
3363 4 2736 2737
3364 4 2736 2839
3365 5 2737 2738
3366 4 2737 2806
3367 1 2739 2740
3368 3 2740 2741
3369 1 2740 2832
3370 4 2741 2742
3371 4 2741 2833
3372 5 2742 2743
3373 4 2742 2815
3374 1 2744 2745
3375 3 2745 2746
3376 1 2745 2829
3377 4 2746 2747
3378 4 2746 2830
3379 5 2747 2748
3380 4 2747 2812
3381 1 2749 2750
3382 3 2750 2751
3383 1 2750 2796
3384 4 2751 2752
3385 4 2751 2797
3386 5 2752 2753
3387 4 2752 2821
3388 1 2754 2755
3389 3 2755 2756
3390 1 2755 2793
3391 4 2756 2757
3392 4 2756 2794
3393 5 2757 2758
3394 4 2757 2818
3395 1 2759 2760
3396 3 2760 2761
3397 1 2760 2799
3398 4 2761 2762
3399 4 2761 2800
3400 5 2762 2763
3401 4 2762 2827
3402 1 2764 2765
3403 3 2765 2766
3404 1 2765 2802
3405 4 2766 2767
3406 4 2766 2803
3407 5 2767 2768
3408 4 2767 2824
3409 2 2769 2770
3410 2 2769 2796
3411 2 2769 2881
3412 1 2770 2771
3413 3 2771 2772
3414 1 2771 2814
3415 4 2772 2773
3416 4 2772 2815
3417 5 2773 2774
3418 4 2773 2833
3419 2 2775 2776
3420 2 2775 2802
3421 2 2775 2890
3422 1 2776 2777
3423 3 2777 2778
3424 1 2777 2811
3425 4 2778 2779
3426 4 2778 2812
3427 5 2779 2780
3428 4 2779 2830
3429 2 2781 2782
3430 2 2781 2793
3431 2 2781 2887
3432 1 2782 2783
3433 3 2783 2784
3434 1 2783 2805
3435 4 2784 2785
3436 4 2784 2806
3437 5 2785 2786
3438 4 2785 2839
3439 2 2787 2788
3440 2 2787 2799
3441 2 2787 2884
3442 1 2788 2789
3443 3 2789 2790
3444 1 2789 2808
3445 4 2790 2791
3446 4 2790 2809
3447 5 2791 2792
3448 4 2791 2836
3449 5 2794 2795
3450 5 2797 2798
3451 5 2800 2801
3452 5 2803 2804
3453 5 2806 2807
3454 5 2809 2810
3455 5 2812 2813
3456 5 2815 2816
3457 5 2818 2819
3458 5 2821 2822
3459 5 2824 2825
3460 5 2827 2828
3461 5 2830 2831
3462 5 2833 2834
3463 5 2836 2837
3464 5 2839 2840
3465 1 2841 2842
3466 3 2842 2843
3467 1 2842 2902
3468 4 2843 2844
3469 4 2843 2903
3470 5 2844 2845
3471 4 2844 2885
3472 1 2846 2847
3473 3 2847 2848
3474 1 2847 2899
3475 4 2848 2849
3476 4 2848 2900
3477 5 2849 2850
3478 4 2849 2882
3479 1 2851 2852
3480 3 2852 2853
3481 1 2852 2893
3482 4 2853 2854
3483 4 2853 2894
3484 5 2854 2855
3485 4 2854 2891
3486 1 2856 2857
3487 3 2857 2858
3488 1 2857 2896
3489 4 2858 2859
3490 4 2858 2897
3491 5 2859 2860
3492 4 2859 2888
3493 1 2861 2862
3494 3 2862 2863
3495 1 2862 2887
3496 4 2863 2864
3497 4 2863 2888
3498 5 2864 2865
3499 4 2864 2897
3500 1 2866 2867
3501 3 2867 2868
3502 1 2867 2890
3503 4 2868 2869
3504 4 2868 2891
3505 5 2869 2870
3506 4 2869 2894
3507 1 2871 2872
3508 3 2872 2873
3509 1 2872 2884
3510 4 2873 2874
3511 4 2873 2885
3512 5 2874 2875
3513 4 2874 2903
3514 1 2876 2877
3515 3 2877 2878
3516 1 2877 2881
3517 4 2878 2879
3518 4 2878 2882
3519 5 2879 2880
3520 4 2879 2900
3521 5 2882 2883
3522 5 2885 2886
3523 5 2888 2889
3524 5 2891 2892
3525 5 2894 2895
3526 5 2897 2898
3527 5 2900 2901
3528 5 2903 2904
3529 1 2905 2921
3530 1 2906 2925
3531 1 2907 2957
3532 1 2908 2961
3533 1 2909 2945
3534 1 2910 2949
3535 1 2911 2929
3536 1 2912 2933
3537 1 2913 2933
3538 1 2914 2929
3539 1 2915 2921
3540 1 2916 2925
3541 1 2917 2949
3542 1 2918 2945
3543 1 2919 2957
3544 1 2920 2961
3545 3 2921 2922
3546 4 2922 2923
3547 4 2922 2941
3548 5 2923 2924
3549 3 2925 2926
3550 4 2926 2927
3551 4 2926 2943
3552 5 2927 2928
3553 3 2929 2930
3554 4 2930 2931
3555 4 2930 2939
3556 5 2931 2932
3557 3 2933 2934
3558 4 2934 2935
3559 4 2934 2937
3560 5 2935 2936
3561 5 2937 2938
3562 5 2939 2940
3563 5 2941 2942
3564 5 2943 2944
3565 3 2945 2946
3566 4 2946 2947
3567 4 2946 2955
3568 5 2947 2948
3569 3 2949 2950
3570 4 2950 2951
3571 4 2950 2953
3572 5 2951 2952
3573 5 2953 2954
3574 5 2955 2956
3575 3 2957 2958
3576 4 2958 2959
3577 4 2958 2965
3578 5 2959 2960
3579 3 2961 2962
3580 4 2962 2963
3581 4 2962 2967
3582 5 2963 2964
3583 5 2965 2966
3584 5 2967 2968
3585 1 2969 2970
3586 2 2969 2985
3587 3 2970 2971
3588 1 2970 2982
3589 4 2971 2972
3590 4 2971 2983
3591 4 2972 1407
3592 5 2972 2973
3593 1 2974 2975
3594 2 2974 2986
3595 3 2975 2976
3596 1 2975 2979
3597 4 2976 2977
3598 4 2976 2980
3599 4 2977 1404
3600 5 2977 2978
3601 2 2979 2988
3602 4 2980 1395
3603 5 2980 2981
3604 2 2982 2987
3605 4 2983 1389
3606 5 2983 2984
3607 2 2985 3008
3608 2 2985 3126
3609 2 2985 3163
3610 2 2986 3023
3611 2 2986 3153
3612 2 2986 3340
3613 2 2987 2989
3614 2 2987 3008
3615 2 2987 3250
3616 2 2988 3023
3617 2 2988 3244
3618 2 2988 3333
3619 1 2989 2990
3620 3 2990 2991
3621 1 2990 2999
3622 4 2991 2992
3623 4 2991 3000
3624 4 2992 2267
3625 5 2992 2993
3626 1 2994 2995
3627 2 2994 3007
3628 3 2995 2996
3629 1 2995 3002
3630 4 2996 2997
3631 4 2996 3003
3632 4 2997 2264
3633 5 2997 2998
3634 2 2999 3005
3635 4 3000 2219
3636 5 3000 3001
3637 2 3002 3006
3638 4 3003 2213
3639 5 3003 3004
3640 2 3005 3008
3641 2 3005 3009
3642 2 3005 3320
3643 2 3006 3021
3644 2 3006 3326
3645 2 3006 3329
3646 2 3007 3021
3647 2 3007 3241
3648 2 3007 3344
3649 2 3008 3147
3650 1 3009 3010
3651 3 3010 3011
3652 1 3010 3126
3653 4 3011 3012
3654 4 3011 3127
3655 4 3012 2939
3656 5 3012 3013
3657 2 3014 3015
3658 2 3014 3016
3659 2 3014 3323
3660 2 3014 3341
3661 2 3015 3024
3662 2 3015 3026
3663 2 3015 3141
3664 1 3016 3017
3665 3 3017 3018
3666 1 3017 3123
3667 4 3018 3019
3668 4 3018 3124
3669 4 3019 2937
3670 5 3019 3020
3671 2 3021 3025
3672 2 3021 3135
3673 2 3022 3023
3674 2 3022 3317
3675 2 3022 3330
3676 2 3022 3342
3677 2 3023 3129
3678 2 3024 3123
3679 2 3024 3158
3680 2 3024 3331
3681 2 3025 3168
3682 2 3025 3332
3683 2 3025 3339
3684 2 3026 3247
3685 2 3026 3334
3686 2 3026 3343
3687 2 3027 3028
3688 2 3027 3105
3689 2 3027 3232
3690 2 3027 3335
3691 2 3028 3045
3692 2 3028 3069
3693 2 3028 3211
3694 2 3029 3030
3695 2 3029 3099
3696 2 3029 3235
3697 2 3029 3336
3698 2 3030 3057
3699 2 3030 3087
3700 2 3030 3199
3701 2 3031 3032
3702 2 3031 3033
3703 2 3031 3108
3704 2 3031 3238
3705 2 3032 3063
3706 2 3032 3075
3707 2 3032 3193
3708 1 3033 3034
3709 3 3034 3035
3710 1 3034 3093
3711 4 3035 3036
3712 4 3035 3094
3713 4 3036 2943
3714 5 3036 3037
3715 2 3038 3039
3716 2 3038 3040
3717 2 3038 3102
3718 2 3038 3229
3719 2 3039 3051
3720 2 3039 3081
3721 2 3039 3205
3722 1 3040 3041
3723 3 3041 3042
3724 1 3041 3096
3725 4 3042 3043
3726 4 3042 3097
3727 4 3043 2941
3728 5 3043 3044
3729 2 3045 3046
3730 2 3045 3295
3731 2 3045 3338
3732 1 3046 3047
3733 3 3047 3048
3734 1 3047 3120
3735 4 3048 3049
3736 4 3048 3121
3737 4 3049 2531
3738 5 3049 3050
3739 2 3051 3052
3740 2 3051 3096
3741 2 3051 3285
3742 1 3052 3053
3743 3 3053 3054
3744 1 3053 3117
3745 4 3054 3055
3746 4 3054 3118
3747 4 3055 2529
3748 5 3055 3056
3749 2 3057 3058
3750 2 3057 3290
3751 2 3057 3337
3752 1 3058 3059
3753 3 3059 3060
3754 1 3059 3111
3755 4 3060 3061
3756 4 3060 3112
3757 5 3061 3062
3758 2 3063 3064
3759 2 3063 3093
3760 2 3063 3300
3761 1 3064 3065
3762 3 3065 3066
3763 1 3065 3114
3764 4 3066 3067
3765 4 3066 3115
3766 5 3067 3068
3767 2 3069 3070
3768 2 3069 3120
3769 2 3069 3183
3770 1 3070 3071
3771 3 3071 3072
3772 1 3071 3105
3773 4 3072 3073
3774 4 3072 3106
3775 4 3073 1695
3776 5 3073 3074
3777 2 3075 3076
3778 2 3075 3114
3779 2 3075 3173
3780 1 3076 3077
3781 3 3077 3078
3782 1 3077 3108
3783 4 3078 3079
3784 4 3078 3109
3785 4 3079 1693
3786 5 3079 3080
3787 2 3081 3082
3788 2 3081 3117
3789 2 3081 3178
3790 1 3082 3083
3791 3 3083 3084
3792 1 3083 3102
3793 4 3084 3085
3794 4 3084 3103
3795 5 3085 3086
3796 2 3087 3088
3797 2 3087 3111
3798 2 3087 3188
3799 1 3088 3089
3800 3 3089 3090
3801 1 3089 3099
3802 4 3090 3091
3803 4 3090 3100
3804 5 3091 3092
3805 4 3094 2927
3806 5 3094 3095
3807 4 3097 2923
3808 5 3097 3098
3809 5 3100 3101
3810 5 3103 3104
3811 4 3106 1691
3812 5 3106 3107
3813 4 3109 1687
3814 5 3109 3110
3815 5 3112 3113
3816 5 3115 3116
3817 4 3118 2527
3818 5 3118 3119
3819 4 3121 2523
3820 5 3121 3122
3821 4 3124 2935
3822 5 3124 3125
3823 4 3127 2931
3824 5 3127 3128
3825 2 3129 3130
3826 2 3129 3259
3827 2 3129 3275
3828 1 3130 3131
3829 3 3131 3132
3830 1 3131 3244
3831 4 3132 3133
3832 4 3132 3245
3833 5 3133 3134
3834 4 3133 3221
3835 2 3135 3136
3836 2 3135 3253
3837 2 3135 3265
3838 1 3136 3137
3839 3 3137 3138
3840 1 3137 3241
3841 4 3138 3139
3842 4 3138 3242
3843 5 3139 3140
3844 4 3139 3218
3845 2 3141 3142
3846 2 3141 3262
3847 2 3141 3270
3848 1 3142 3143
3849 3 3143 3144
3850 1 3143 3247
3851 4 3144 3145
3852 4 3144 3248
3853 5 3145 3146
3854 4 3145 3227
3855 2 3147 3148
3856 2 3147 3256
3857 2 3147 3280
3858 1 3148 3149
3859 3 3149 3150
3860 1 3149 3250
3861 4 3150 3151
3862 4 3150 3251
3863 5 3151 3152
3864 4 3151 3224
3865 1 3153 3154
3866 3 3154 3155
3867 1 3154 3259
3868 4 3155 3156
3869 4 3155 3260
3870 5 3156 3157
3871 4 3156 3233
3872 1 3158 3159
3873 3 3159 3160
3874 1 3159 3262
3875 4 3160 3161
3876 4 3160 3263
3877 5 3161 3162
3878 4 3161 3230
3879 1 3163 3164
3880 3 3164 3165
3881 1 3164 3256
3882 4 3165 3166
3883 4 3165 3257
3884 5 3166 3167
3885 4 3166 3239
3886 1 3168 3169
3887 3 3169 3170
3888 1 3169 3253
3889 4 3170 3171
3890 4 3170 3254
3891 5 3171 3172
3892 4 3171 3236
3893 1 3173 3174
3894 3 3174 3175
3895 1 3174 3220
3896 4 3175 3176
3897 4 3175 3221
3898 5 3176 3177
3899 4 3176 3245
3900 1 3178 3179
3901 3 3179 3180
3902 1 3179 3217
3903 4 3180 3181
3904 4 3180 3218
3905 5 3181 3182
3906 4 3181 3242
3907 1 3183 3184
3908 3 3184 3185
3909 1 3184 3223
3910 4 3185 3186
3911 4 3185 3224
3912 5 3186 3187
3913 4 3186 3251
3914 1 3188 3189
3915 3 3189 3190
3916 1 3189 3226
3917 4 3190 3191
3918 4 3190 3227
3919 5 3191 3192
3920 4 3191 3248
3921 2 3193 3194
3922 2 3193 3220
3923 2 3193 3305
3924 1 3194 3195
3925 3 3195 3196
3926 1 3195 3238
3927 4 3196 3197
3928 4 3196 3239
3929 5 3197 3198
3930 4 3197 3257
3931 2 3199 3200
3932 2 3199 3226
3933 2 3199 3314
3934 1 3200 3201
3935 3 3201 3202
3936 1 3201 3235
3937 4 3202 3203
3938 4 3202 3236
3939 5 3203 3204
3940 4 3203 3254
3941 2 3205 3206
3942 2 3205 3217
3943 2 3205 3311
3944 1 3206 3207
3945 3 3207 3208
3946 1 3207 3229
3947 4 3208 3209
3948 4 3208 3230
3949 5 3209 3210
3950 4 3209 3263
3951 2 3211 3212
3952 2 3211 3223
3953 2 3211 3308
3954 1 3212 3213
3955 3 3213 3214
3956 1 3213 3232
3957 4 3214 3215
3958 4 3214 3233
3959 5 3215 3216
3960 4 3215 3260
3961 5 3218 3219
3962 5 3221 3222
3963 5 3224 3225
3964 5 3227 3228
3965 5 3230 3231
3966 5 3233 3234
3967 5 3236 3237
3968 5 3239 3240
3969 5 3242 3243
3970 5 3245 3246
3971 5 3248 3249
3972 5 3251 3252
3973 5 3254 3255
3974 5 3257 3258
3975 5 3260 3261
3976 5 3263 3264
3977 1 3265 3266
3978 3 3266 3267
3979 1 3266 3326
3980 4 3267 3268
3981 4 3267 3327
3982 5 3268 3269
3983 4 3268 3309
3984 1 3270 3271
3985 3 3271 3272
3986 1 3271 3323
3987 4 3272 3273
3988 4 3272 3324
3989 5 3273 3274
3990 4 3273 3306
3991 1 3275 3276
3992 3 3276 3277
3993 1 3276 3317
3994 4 3277 3278
3995 4 3277 3318
3996 5 3278 3279
3997 4 3278 3315
3998 1 3280 3281
3999 3 3281 3282
4000 1 3281 3320
4001 4 3282 3283
4002 4 3282 3321
4003 5 3283 3284
4004 4 3283 3312
4005 1 3285 3286
4006 3 3286 3287
4007 1 3286 3311
4008 4 3287 3288
4009 4 3287 3312
4010 5 3288 3289
4011 4 3288 3321
4012 1 3290 3291
4013 3 3291 3292
4014 1 3291 3314
4015 4 3292 3293
4016 4 3292 3315
4017 5 3293 3294
4018 4 3293 3318
4019 1 3295 3296
4020 3 3296 3297
4021 1 3296 3308
4022 4 3297 3298
4023 4 3297 3309
4024 5 3298 3299
4025 4 3298 3327
4026 1 3300 3301
4027 3 3301 3302
4028 1 3301 3305
4029 4 3302 3303
4030 4 3302 3306
4031 5 3303 3304
4032 4 3303 3324
4033 5 3306 3307
4034 5 3309 3310
4035 5 3312 3313
4036 5 3315 3316
4037 5 3318 3319
4038 5 3321 3322
4039 5 3324 3325
4040 5 3327 3328
4041 1 3329 3345
4042 1 3330 3349
4043 1 3331 3381
4044 1 3332 3385
4045 1 3333 3369
4046 1 3334 3373
4047 1 3335 3353
4048 1 3336 3357
4049 1 3337 3357
4050 1 3338 3353
4051 1 3339 3345
4052 1 3340 3349
4053 1 3341 3373
4054 1 3342 3369
4055 1 3343 3381
4056 1 3344 3385
4057 3 3345 3346
4058 4 3346 3347
4059 4 3346 3365
4060 5 3347 3348
4061 3 3349 3350
4062 4 3350 3351
4063 4 3350 3367
4064 5 3351 3352
4065 3 3353 3354
4066 4 3354 3355
4067 4 3354 3363
4068 5 3355 3356
4069 3 3357 3358
4070 4 3358 3359
4071 4 3358 3361
4072 5 3359 3360
4073 5 3361 3362
4074 5 3363 3364
4075 5 3365 3366
4076 5 3367 3368
4077 3 3369 3370
4078 4 3370 3371
4079 4 3370 3379
4080 5 3371 3372
4081 3 3373 3374
4082 4 3374 3375
4083 4 3374 3377
4084 5 3375 3376
4085 5 3377 3378
4086 5 3379 3380
4087 3 3381 3382
4088 4 3382 3383
4089 4 3382 3389
4090 5 3383 3384
4091 3 3385 3386
4092 4 3386 3387
4093 4 3386 3391
4094 5 3387 3388
4095 5 3389 3390
4096 5 3391 3392

Angles

1 1 2 1 17
2 2 1 2 3
3 3 1 2 14
4 2 3 2 14
5 4 2 3 4
6 4 2 3 15
7 5 4 3 15
8 6 3 4 5
9 5 3 4 1831
10 6 5 4 1831
11 1 7 6 18
12 2 6 7 8
13 3 6 7 11
14 2 8 7 11
15 4 7 8 9
16 4 7 8 12
17 5 9 8 12
18 6 8 9 10
19 5 8 9 1828
20 6 10 9 1828
21 1 7 11 20
22 6 8 12 13
23 5 8 12 1819
24 6 13 12 1819
25 1 2 14 19
26 6 3 15 16
27 5 3 15 1813
28 6 16 15 1813
29 7 1 17 40
30 7 1 17 158
31 7 1 17 195
32 7 40 17 158
33 7 40 17 195
34 7 158 17 195
35 7 6 18 55
36 7 6 18 185
37 7 6 18 372
38 7 55 18 185
39 7 55 18 372
40 7 185 18 372
41 7 14 19 21
42 7 14 19 40
43 7 14 19 282
44 7 21 19 40
45 7 21 19 282
46 7 40 19 282
47 7 11 20 55
48 7 11 20 276
49 7 11 20 365
50 7 55 20 276
51 7 55 20 365
52 7 276 20 365
53 1 19 21 22
54 2 21 22 23
55 3 21 22 31
56 2 23 22 31
57 4 22 23 24
58 4 22 23 32
59 5 24 23 32
60 6 23 24 25
61 5 23 24 995
62 6 25 24 995
63 1 27 26 39
64 2 26 27 28
65 3 26 27 34
66 2 28 27 34
67 4 27 28 29
68 4 27 28 35
69 5 29 28 35
70 6 28 29 30
71 5 28 29 992
72 6 30 29 992
73 1 22 31 37
74 6 23 32 33
75 5 23 32 947
76 6 33 32 947
77 1 27 34 38
78 6 28 35 36
79 5 28 35 941
80 6 36 35 941
81 7 31 37 40
82 7 31 37 41
83 7 31 37 352
84 7 40 37 41
85 7 40 37 352
86 7 41 37 352
87 7 34 38 53
88 7 34 38 358
89 7 34 38 361
90 7 53 38 358
91 7 53 38 361
92 7 358 38 361
93 7 26 39 53
94 7 26 39 273
95 7 26 39 376
96 7 53 39 273
97 7 53 39 376
98 7 273 39 376
99 8 17 40 19
100 8 17 40 37
101 8 17 40 179
102 8 19 40 37
103 8 19 40 179
104 8 37 40 179
105 1 37 41 42
106 2 41 42 43
107 3 41 42 158
108 2 43 42 158
109 4 42 43 44
110 4 42 43 159
111 5 44 43 159
112 6 43 44 45
113 5 43 44 819
114 6 45 44 819
115 7 47 46 48
116 7 47 46 355
117 7 47 46 373
118 7 48 46 355
119 7 48 46 373
120 7 355 46 373
121 8 46 47 56
122 8 46 47 58
123 8 46 47 173
124 8 56 47 58
125 8 56 47 173
126 8 58 47 173
127 1 46 48 49
128 2 48 49 50
129 3 48 49 155
130 2 50 49 155
131 4 49 50 51
132 4 49 50 156
133 5 51 50 156
134 6 50 51 52
135 5 50 51 817
136 6 52 51 817
137 8 38 53 39
138 8 38 53 57
139 8 38 53 167
140 8 39 53 57
141 8 39 53 167
142 8 57 53 167
143 7 55 54 349
144 7 55 54 362
145 7 55 54 374
146 7 349 54 362
147 7 349 54 374
148 7 362 54 374
149 8 18 55 20
150 8 18 55 54
151 8 18 55 161
152 8 20 55 54
153 8 20 55 161
154 8 54 55 161
155 7 47 56 155
156 7 47 56 190
157 7 47 56 363
158 7 155 56 190
159 7 155 56 363
160 7 190 56 363
161 7 53 57 200
162 7 53 57 364
163 7 53 57 371
164 7 200 57 364
165 7 200 57 371
166 7 364 57 371
167 7 47 58 279
168 7 47 58 366
169 7 47 58 375
170 7 279 58 366
171 7 279 58 375
172 7 366 58 375
173 7 60 59 137
174 7 60 59 264
175 7 60 59 367
176 7 137 59 264
177 7 137 59 367
178 7 264 59 367
179 8 59 60 77
180 8 59 60 101
181 8 59 60 243
182 8 77 60 101
183 8 77 60 243
184 8 101 60 243
185 7 62 61 131
186 7 62 61 267
187 7 62 61 368
188 7 131 61 267
189 7 131 61 368
190 7 267 61 368
191 8 61 62 89
192 8 61 62 119
193 8 61 62 231
194 8 89 62 119
195 8 89 62 231
196 8 119 62 231
197 7 64 63 65
198 7 64 63 140
199 7 64 63 270
200 7 65 63 140
201 7 65 63 270
202 7 140 63 270
203 8 63 64 95
204 8 63 64 107
205 8 63 64 225
206 8 95 64 107
207 8 95 64 225
208 8 107 64 225
209 1 63 65 66
210 2 65 66 67
211 3 65 66 125
212 2 67 66 125
213 4 66 67 68
214 4 66 67 126
215 5 68 67 126
216 6 67 68 69
217 5 67 68 823
218 6 69 68 823
219 7 71 70 72
220 7 71 70 134
221 7 71 70 261
222 7 72 70 134
223 7 72 70 261
224 7 134 70 261
225 8 70 71 83
226 8 70 71 113
227 8 70 71 237
228 8 83 71 113
229 8 83 71 237
230 8 113 71 237
231 1 70 72 73
232 2 72 73 74
233 3 72 73 128
234 2 74 73 128
235 4 73 74 75
236 4 73 74 129
237 5 75 74 129
238 6 74 75 76
239 5 74 75 821
240 6 76 75 821
241 7 60 77 78
242 7 60 77 327
243 7 60 77 370
244 7 78 77 327
245 7 78 77 370
246 7 327 77 370
247 1 77 78 79
248 2 78 79 80
249 3 78 79 152
250 2 80 79 152
251 4 79 80 81
252 4 79 80 153
253 5 81 80 153
254 6 80 81 82
255 5 80 81 1259
256 6 82 81 1259
257 7 71 83 84
258 7 71 83 128
259 7 71 83 317
260 7 84 83 128
261 7 84 83 317
262 7 128 83 317
263 1 83 84 85
264 2 84 85 86
265 3 84 85 149
266 2 86 85 149
267 4 85 86 87
268 4 85 86 150
269 5 87 86 150
270 6 86 87 88
271 5 86 87 1257
272 6 88 87 1257
273 7 62 89 90
274 7 62 89 322
275 7 62 89 369
276 7 90 89 322
277 7 90 89 369
278 7 322 89 369
279 1 89 90 91
280 2 90 91 92
281 3 90 91 143
282 2 92 91 143
283 4 91 92 93
284 4 91 92 144
285 5 93 92 144
286 5 883 93 92
287 6 883 93 94
288 6 92 93 94
289 7 64 95 96
290 7 64 95 125
291 7 64 95 332
292 7 96 95 125
293 7 96 95 332
294 7 125 95 332
295 1 95 96 97
296 2 96 97 98
297 3 96 97 146
298 2 98 97 146
299 4 97 98 99
300 4 97 98 147
301 5 99 98 147
302 5 880 99 98
303 6 880 99 100
304 6 98 99 100
305 7 60 101 102
306 7 60 101 152
307 7 60 101 215
308 7 102 101 152
309 7 102 101 215
310 7 152 101 215
311 1 101 102 103
312 2 102 103 104
313 3 102 103 137
314 2 104 103 137
315 4 103 104 105
316 4 103 104 138
317 5 105 104 138
318 6 104 105 106
319 5 104 105 2119
320 6 106 105 2119
321 7 64 107 108
322 7 64 107 146
323 7 64 107 205
324 7 108 107 146
325 7 108 107 205
326 7 146 107 205
327 1 107 108 109
328 2 108 109 110
329 3 108 109 140
330 2 110 109 140
331 4 109 110 111
332 4 109 110 141
333 5 111 110 141
334 6 110 111 112
335 5 110 111 2117
336 6 112 111 2117
337 7 71 113 114
338 7 71 113 149
339 7 71 113 210
340 7 114 113 149
341 7 114 113 210
342 7 149 113 210
343 1 113 114 115
344 2 114 115 116
345 3 114 115 134
346 2 116 115 134
347 4 115 116 117
348 4 115 116 135
349 5 117 116 135
350 5 1711 117 116
351 6 1711 117 118
352 6 116 117 118
353 7 62 119 120
354 7 62 119 143
355 7 62 119 220
356 7 120 119 143
357 7 120 119 220
358 7 143 119 220
359 1 119 120 121
360 2 120 121 122
361 3 120 121 131
362 2 122 121 131
363 4 121 122 123
364 4 121 122 132
365 5 123 122 132
366 5 1708 123 122
367 6 1708 123 124
368 6 122 123 124
369 1 66 125 95
370 6 67 126 127
371 5 67 126 807
372 6 127 126 807
373 1 73 128 83
374 6 74 129 130
375 5 74 129 803
376 6 130 129 803
377 1 61 131 121
378 5 1705 132 122
379 6 1705 132 133
380 6 122 132 133
381 1 70 134 115
382 5 1700 135 116
383 6 1700 135 136
384 6 116 135 136
385 1 59 137 103
386 6 104 138 139
387 5 104 138 2115
388 6 139 138 2115
389 1 63 140 109
390 6 110 141 142
391 5 110 141 2111
392 6 142 141 2111
393 1 91 143 119
394 5 877 144 92
395 6 877 144 145
396 6 92 144 145
397 1 97 146 107
398 5 872 147 98
399 6 872 147 148
400 6 98 147 148
401 1 85 149 113
402 6 86 150 151
403 5 86 150 1255
404 6 151 150 1255
405 1 79 152 101
406 6 80 153 154
407 5 80 153 1251
408 6 154 153 1251
409 1 49 155 56
410 6 50 156 157
411 5 50 156 815
412 6 157 156 815
413 1 17 158 42
414 6 43 159 160
415 5 43 159 811
416 6 160 159 811
417 7 55 161 162
418 7 55 161 291
419 7 55 161 307
420 7 162 161 291
421 7 162 161 307
422 7 291 161 307
423 1 161 162 163
424 2 162 163 164
425 3 162 163 276
426 2 164 163 276
427 4 163 164 165
428 4 163 164 277
429 5 165 164 277
430 6 164 165 166
431 5 164 165 253
432 6 166 165 253
433 7 53 167 168
434 7 53 167 285
435 7 53 167 297
436 7 168 167 285
437 7 168 167 297
438 7 285 167 297
439 1 167 168 169
440 2 168 169 170
441 3 168 169 273
442 2 170 169 273
443 4 169 170 171
444 4 169 170 274
445 5 171 170 274
446 6 170 171 172
447 5 170 171 250
448 6 172 171 250
449 7 47 173 174
450 7 47 173 294
451 7 47 173 302
452 7 174 173 294
453 7 174 173 302
454 7 294 173 302
455 1 173 174 175
456 2 174 175 176
457 3 174 175 279
458 2 176 175 279
459 4 175 176 177
460 4 175 176 280
461 5 177 176 280
462 6 176 177 178
463 5 176 177 259
464 6 178 177 259
465 7 40 179 180
466 7 40 179 288
467 7 40 179 312
468 7 180 179 288
469 7 180 179 312
470 7 288 179 312
471 1 179 180 181
472 2 180 181 182
473 3 180 181 282
474 2 182 181 282
475 4 181 182 183
476 4 181 182 283
477 5 183 182 283
478 6 182 183 184
479 5 182 183 256
480 6 184 183 256
481 1 18 185 186
482 2 185 186 187
483 3 185 186 291
484 2 187 186 291
485 4 186 187 188
486 4 186 187 292
487 5 188 187 292
488 6 187 188 189
489 5 187 188 265
490 6 189 188 265
491 1 56 190 191
492 2 190 191 192
493 3 190 191 294
494 2 192 191 294
495 4 191 192 193
496 4 191 192 295
497 5 193 192 295
498 6 192 193 194
499 5 192 193 262
500 6 194 193 262
501 1 17 195 196
502 2 195 196 197
503 3 195 196 288
504 2 197 196 288
505 4 196 197 198
506 4 196 197 289
507 5 198 197 289
508 6 197 198 199
509 5 197 198 271
510 6 199 198 271
511 1 57 200 201
512 2 200 201 202
513 3 200 201 285
514 2 202 201 285
515 4 201 202 203
516 4 201 202 286
517 5 203 202 286
518 6 202 203 204
519 5 202 203 268
520 6 204 203 268
521 1 107 205 206
522 2 205 206 207
523 3 205 206 252
524 2 207 206 252
525 4 206 207 208
526 4 206 207 253
527 5 208 207 253
528 6 207 208 209
529 5 207 208 277
530 6 209 208 277
531 1 113 210 211
532 2 210 211 212
533 3 210 211 249
534 2 212 211 249
535 4 211 212 213
536 4 211 212 250
537 5 213 212 250
538 6 212 213 214
539 5 212 213 274
540 6 214 213 274
541 1 101 215 216
542 2 215 216 217
543 3 215 216 255
544 2 217 216 255
545 4 216 217 218
546 4 216 217 256
547 5 218 217 256
548 6 217 218 219
549 5 217 218 283
550 6 219 218 283
551 1 119 220 221
552 2 220 221 222
553 3 220 221 258
554 2 222 221 258
555 4 221 222 223
556 4 221 222 259
557 5 223 222 259
558 6 222 223 224
559 5 222 223 280
560 6 224 223 280
561 7 64 225 226
562 7 64 225 252
563 7 64 225 337
564 7 226 225 252
565 7 226 225 337
566 7 252 225 337
567 1 225 226 227
568 2 226 227 228
569 3 226 227 270
570 2 228 227 270
571 4 227 228 229
572 4 227 228 271
573 5 229 228 271
574 6 228 229 230
575 5 228 229 289
576 6 230 229 289
577 7 62 231 232
578 7 62 231 258
579 7 62 231 346
580 7 232 231 258
581 7 232 231 346
582 7 258 231 346
583 1 231 232 233
584 2 232 233 234
585 3 232 233 267
586 2 234 233 267
587 4 233 234 235
588 4 233 234 268
589 5 235 234 268
590 6 234 235 236
591 5 234 235 286
592 6 236 235 286
593 7 71 237 238
594 7 71 237 249
595 7 71 237 343
596 7 238 237 249
597 7 238 237 343
598 7 249 237 343
599 1 237 238 239
600 2 238 239 240
601 3 238 239 261
602 2 240 239 261
603 4 239 240 241
604 4 239 240 262
605 5 241 240 262
606 6 240 241 242
607 5 240 241 295
608 6 242 241 295
609 7 60 243 244
610 7 60 243 255
611 7 60 243 340
612 7 244 243 255
613 7 244 243 340
614 7 255 243 340
615 1 243 244 245
616 2 244 245 246
617 3 244 245 264
618 2 246 245 264
619 4 245 246 247
620 4 245 246 265
621 5 247 246 265
622 6 246 247 248
623 5 246 247 292
624 6 248 247 292
625 1 211 249 237
626 5 171 250 212
627 6 171 250 251
628 6 212 250 251
629 1 206 252 225
630 5 165 253 207
631 6 165 253 254
632 6 207 253 254
633 1 216 255 243
634 5 183 256 217
635 6 183 256 257
636 6 217 256 257
637 1 221 258 231
638 5 177 259 222
639 6 177 259 260
640 6 222 259 260
641 1 70 261 239
642 5 193 262 240
643 6 193 262 263
644 6 240 262 263
645 1 59 264 245
646 5 188 265 246
647 6 188 265 266
648 6 246 265 266
649 1 61 267 233
650 5 203 268 234
651 6 203 268 269
652 6 234 268 269
653 1 63 270 227
654 5 198 271 228
655 6 198 271 272
656 6 228 271 272
657 1 39 273 169
658 5 170 274 213
659 6 170 274 275
660 6 213 274 275
661 1 20 276 163
662 5 164 277 208
663 6 164 277 278
664 6 208 277 278
665 1 58 279 175
666 5 176 280 223
667 6 176 280 281
668 6 223 280 281
669 1 19 282 181
670 5 182 283 218
671 6 182 283 284
672 6 218 283 284
673 1 167 285 201
674 5 202 286 235
675 6 202 286 287
676 6 235 286 287
677 1 179 288 196
678 5 197 289 229
679 6 197 289 290
680 6 229 289 290
681 1 161 291 186
682 5 187 292 247
683 6 187 292 293
684 6 247 292 293
685 1 173 294 191
686 5 192 295 241
687 6 192 295 296
688 6 241 295 296
689 1 167 297 298
690 2 297 298 299
691 3 297 298 358
692 2 299 298 358
693 4 298 299 300
694 4 298 299 359
695 5 300 299 359
696 6 299 300 301
697 5 299 300 341
698 6 301 300 341
699 1 173 302 303
700 2 302 303 304
701 3 302 303 355
702 2 304 303 355
703 4 303 304 305
704 4 303 304 356
705 5 305 304 356
706 6 304 305 306
707 5 304 305 338
708 6 306 305 338
709 1 161 307 308
710 2 307 308 309
711 3 307 308 349
712 2 309 308 349
713 4 308 309 310
714 4 308 309 350
715 5 310 309 350
716 6 309 310 311
717 5 309 310 347
718 6 311 310 347
719 1 179 312 313
720 2 312 313 314
721 3 312 313 352
722 2 314 313 352
723 4 313 314 315
724 4 313 314 353
725 5 315 314 353
726 6 314 315 316
727 5 314 315 344
728 6 316 315 344
729 1 83 317 318
730 2 317 318 319
731 3 317 318 343
732 2 319 318 343
733 4 318 319 320
734 4 318 319 344
735 5 320 319 344
736 6 319 320 321
737 5 319 320 353
738 6 321 320 353
739 1 89 322 323
740 2 322 323 324
741 3 322 323 346
742 2 324 323 346
743 4 323 324 325
744 4 323 324 347
745 5 325 324 347
746 6 324 325 326
747 5 324 325 350
748 6 326 325 350
749 1 77 327 328
750 2 327 328 329
751 3 327 328 340
752 2 329 328 340
753 4 328 329 330
754 4 328 329 341
755 5 330 329 341
756 6 329 330 331
757 5 329 330 359
758 6 331 330 359
759 1 95 332 333
760 2 332 333 334
761 3 332 333 337
762 2 334 333 337
763 4 333 334 335
764 4 333 334 338
765 5 335 334 338
766 6 334 335 336
767 5 334 335 356
768 6 336 335 356
769 1 225 337 333
770 5 305 338 334
771 6 305 338 339
772 6 334 338 339
773 1 243 340 328
774 5 300 341 329
775 6 300 341 342
776 6 329 341 342
777 1 237 343 318
778 5 315 344 319
779 6 315 344 345
780 6 319 344 345
781 1 231 346 323
782 5 310 347 324
783 6 310 347 348
784 6 324 347 348
785 1 54 349 308
786 5 309 350 325
787 6 309 350 351
788 6 325 350 351
789 1 37 352 313
790 5 314 353 320
791 6 314 353 354
792 6 320 353 354
793 1 46 355 303
794 5 304 356 335
795 6 304 356 357
796 6 335 356 357
797 1 38 358 298
798 5 299 359 330
799 6 299 359 360
800 6 330 359 360
801 1 38 361 377
802 1 54 362 381
803 1 56 363 413
804 1 57 364 417
805 1 20 365 401
806 1 58 366 405
807 1 59 367 385
808 1 61 368 389
809 1 89 369 389
810 1 77 370 385
811 1 57 371 377
812 1 18 372 381
813 1 46 373 405
814 1 54 374 401
815 1 58 375 413
816 1 39 376 417
817 3 361 377 371
818 2 361 377 378
819 2 371 377 378
820 4 377 378 379
821 4 377 378 397
822 5 379 378 397
823 5 553 379 378
824 6 553 379 380
825 6 378 379 380
826 3 362 381 372
827 2 362 381 382
828 2 372 381 382
829 4 381 382 383
830 4 381 382 399
831 5 383 382 399
832 5 550 383 382
833 6 550 383 384
834 6 382 383 384
835 3 367 385 370
836 2 367 385 386
837 2 370 385 386
838 4 385 386 387
839 4 385 386 395
840 5 387 386 395
841 5 583 387 386
842 6 583 387 388
843 6 386 387 388
844 3 368 389 369
845 2 368 389 390
846 2 369 389 390
847 4 389 390 391
848 4 389 390 393
849 5 391 390 393
850 5 580 391 390
851 6 580 391 392
852 6 390 391 392
853 5 475 393 390
854 6 475 393 394
855 6 390 393 394
856 5 468 395 386
857 6 468 395 396
858 6 386 395 396
859 5 499 397 378
860 6 499 397 398
861 6 378 397 398
862 5 492 399 382
863 6 492 399 400
864 6 382 399 400
865 3 365 401 374
866 2 365 401 402
867 2 374 401 402
868 4 401 402 403
869 4 401 402 411
870 5 403 402 411
871 5 1001 403 402
872 6 1001 403 404
873 6 402 403 404
874 3 366 405 373
875 2 366 405 406
876 2 373 405 406
877 4 405 406 407
878 4 405 406 409
879 5 407 406 409
880 5 998 407 406
881 6 998 407 408
882 6 406 407 408
883 5 935 409 406
884 6 935 409 410
885 6 406 409 410
886 5 929 411 402
887 6 929 411 412
888 6 402 411 412
889 3 363 413 375
890 2 363 413 414
891 2 375 413 414
892 4 413 414 415
893 4 413 414 421
894 5 415 414 421
895 5 1837 415 414
896 6 1837 415 416
897 6 414 415 416
898 3 364 417 376
899 2 364 417 418
900 2 376 417 418
901 4 417 418 419
902 4 417 418 423
903 5 419 418 423
904 5 1834 419 418
905 6 1834 419 420
906 6 418 419 420
907 5 1807 421 414
908 6 1807 421 422
909 6 414 421 422
910 5 1801 423 418
911 6 1801 423 424
912 6 418 423 424
913 1 426 425 441
914 2 425 426 427
915 3 425 426 438
916 2 427 426 438
917 4 426 427 428
918 4 426 427 439
919 5 428 427 439
920 6 427 428 429
921 5 427 428 2255
922 6 429 428 2255
923 1 431 430 442
924 2 430 431 432
925 3 430 431 435
926 2 432 431 435
927 4 431 432 433
928 4 431 432 436
929 5 433 432 436
930 6 432 433 434
931 5 432 433 2252
932 6 434 433 2252
933 1 431 435 444
934 6 432 436 437
935 5 432 436 2243
936 6 437 436 2243
937 1 426 438 443
938 6 427 439 440
939 5 427 439 2237
940 6 440 439 2237
941 7 425 441 464
942 7 425 441 582
943 7 425 441 619
944 7 464 441 582
945 7 464 441 619
946 7 582 441 619
947 7 430 442 479
948 7 430 442 609
949 7 430 442 796
950 7 479 442 609
951 7 479 442 796
952 7 609 442 796
953 7 438 443 445
954 7 438 443 464
955 7 438 443 706
956 7 445 443 464
957 7 445 443 706
958 7 464 443 706
959 7 435 444 479
960 7 435 444 700
961 7 435 444 789
962 7 479 444 700
963 7 479 444 789
964 7 700 444 789
965 1 443 445 446
966 2 445 446 447
967 3 445 446 455
968 2 447 446 455
969 4 446 447 448
970 4 446 447 456
971 5 448 447 456
972 6 447 448 449
973 5 447 448 1419
974 6 449 448 1419
975 1 451 450 463
976 2 450 451 452
977 3 450 451 458
978 2 452 451 458
979 4 451 452 453
980 4 451 452 459
981 5 453 452 459
982 6 452 453 454
983 5 452 453 1416
984 6 454 453 1416
985 1 446 455 461
986 6 447 456 457
987 5 447 456 1371
988 6 457 456 1371
989 1 451 458 462
990 6 452 459 460
991 5 452 459 1365
992 6 460 459 1365
993 7 455 461 464
994 7 455 461 465
995 7 455 461 776
996 7 464 461 465
997 7 464 461 776
998 7 465 461 776
999 7 458 462 477
1000 7 458 462 782
1001 7 458 462 785
1002 7 477 462 782
1003 7 477 462 785
1004 7 782 462 785
1005 7 450 463 477
1006 7 450 463 697
1007 7 450 463 800
1008 7 477 463 697
1009 7 477 463 800
1010 7 697 463 800
1011 8 441 464 443
1012 8 441 464 461
1013 8 441 464 603
1014 8 443 464 461
1015 8 443 464 603
1016 8 461 464 603
1017 1 461 465 466
1018 2 465 466 467
1019 3 465 466 582
1020 2 467 466 582
1021 4 466 467 468
1022 4 466 467 583
1023 5 468 467 583
1024 6 467 468 469
1025 5 467 468 395
1026 6 469 468 395
1027 7 471 470 472
1028 7 471 470 779
1029 7 471 470 797
1030 7 472 470 779
1031 7 472 470 797
1032 7 779 470 797
1033 8 470 471 480
1034 8 470 471 482
1035 8 470 471 597
1036 8 480 471 482
1037 8 480 471 597
1038 8 482 471 597
1039 1 470 472 473
1040 2 472 473 474
1041 3 472 473 579
1042 2 474 473 579
1043 4 473 474 475
1044 4 473 474 580
1045 5 475 474 580
1046 6 474 475 476
1047 5 474 475 393
1048 6 476 475 393
1049 8 462 477 463
1050 8 462 477 481
1051 8 462 477 591
1052 8 463 477 481
1053 8 463 477 591
1054 8 481 477 591
1055 7 479 478 773
1056 7 479 478 786
1057 7 479 478 798
1058 7 773 478 786
1059 7 773 478 798
1060 7 786 478 798
1061 8 442 479 444
1062 8 442 479 478
1063 8 442 479 585
1064 8 444 479 478
1065 8 444 479 585
1066 8 478 479 585
1067 7 471 480 579
1068 7 471 480 614
1069 7 471 480 787
1070 7 579 480 614
1071 7 579 480 787
1072 7 614 480 787
1073 7 477 481 624
1074 7 477 481 788
1075 7 477 481 795
1076 7 624 481 788
1077 7 624 481 795
1078 7 788 481 795
1079 7 471 482 703
1080 7 471 482 790
1081 7 471 482 799
1082 7 703 482 790
1083 7 703 482 799
1084 7 790 482 799
1085 7 484 483 561
1086 7 484 483 688
1087 7 484 483 791
1088 7 561 483 688
1089 7 561 483 791
1090 7 688 483 791
1091 8 483 484 501
1092 8 483 484 525
1093 8 483 484 667
1094 8 501 484 525
1095 8 501 484 667
1096 8 525 484 667
1097 7 486 485 555
1098 7 486 485 691
1099 7 486 485 792
1100 7 555 485 691
1101 7 555 485 792
1102 7 691 485 792
1103 8 485 486 513
1104 8 485 486 543
1105 8 485 486 655
1106 8 513 486 543
1107 8 513 486 655
1108 8 543 486 655
1109 7 488 487 489
1110 7 488 487 564
1111 7 488 487 694
1112 7 489 487 564
1113 7 489 487 694
1114 7 564 487 694
1115 8 487 488 519
1116 8 487 488 531
1117 8 487 488 649
1118 8 519 488 531
1119 8 519 488 649
1120 8 531 488 649
1121 1 487 489 490
1122 2 489 490 491
1123 3 489 490 549
1124 2 491 490 549
1125 4 490 491 492
1126 4 490 491 550
1127 5 492 491 550
1128 6 491 492 493
1129 5 491 492 399
1130 6 493 492 399
1131 7 495 494 496
1132 7 495 494 558
1133 7 495 494 685
1134 7 496 494 558
1135 7 496 494 685
1136 7 558 494 685
1137 8 494 495 507
1138 8 494 495 537
1139 8 494 495 661
1140 8 507 495 537
1141 8 507 495 661
1142 8 537 495 661
1143 1 494 496 497
1144 2 496 497 498
1145 3 496 497 552
1146 2 498 497 552
1147 4 497 498 499
1148 4 497 498 553
1149 5 499 498 553
1150 6 498 499 500
1151 5 498 499 397
1152 6 500 499 397
1153 7 484 501 502
1154 7 484 501 751
1155 7 484 501 794
1156 7 502 501 751
1157 7 502 501 794
1158 7 751 501 794
1159 1 501 502 503
1160 2 502 503 504
1161 3 502 503 576
1162 2 504 503 576
1163 4 503 504 505
1164 4 503 504 577
1165 5 505 504 577
1166 6 504 505 506
1167 5 504 505 1683
1168 6 506 505 1683
1169 7 495 507 508
1170 7 495 507 552
1171 7 495 507 741
1172 7 508 507 552
1173 7 508 507 741
1174 7 552 507 741
1175 1 507 508 509
1176 2 508 509 510
1177 3 508 509 573
1178 2 510 509 573
1179 4 509 510 511
1180 4 509 510 574
1181 5 511 510 574
1182 6 510 511 512
1183 5 510 511 1681
1184 6 512 511 1681
1185 7 486 513 514
1186 7 486 513 746
1187 7 486 513 793
1188 7 514 513 746
1189 7 514 513 793
1190 7 746 513 793
1191 1 513 514 515
1192 2 514 515 516
1193 3 514 515 567
1194 2 516 515 567
1195 4 515 516 517
1196 4 515 516 568
1197 5 517 516 568
1198 5 1307 517 516
1199 6 1307 517 518
1200 6 516 517 518
1201 7 488 519 520
1202 7 488 519 549
1203 7 488 519 756
1204 7 520 519 549
1205 7 520 519 756
1206 7 549 519 756
1207 1 519 520 521
1208 2 520 521 522
1209 3 520 521 570
1210 2 522 521 570
1211 4 521 522 523
1212 4 521 522 571
1213 5 523 522 571
1214 5 1304 523 522
1215 6 1304 523 524
1216 6 522 523 524
1217 7 484 525 526
1218 7 484 525 576
1219 7 484 525 639
1220 7 526 525 576
1221 7 526 525 639
1222 7 576 525 639
1223 1 525 526 527
1224 2 526 527 528
1225 3 526 527 561
1226 2 528 527 561
1227 4 527 528 529
1228 4 527 528 562
1229 5 529 528 562
1230 6 528 529 530
1231 5 528 529 2543
1232 6 530 529 2543
1233 7 488 531 532
1234 7 488 531 570
1235 7 488 531 629
1236 7 532 531 570
1237 7 532 531 629
1238 7 570 531 629
1239 1 531 532 533
1240 2 532 533 534
1241 3 532 533 564
1242 2 534 533 564
1243 4 533 534 535
1244 4 533 534 565
1245 5 535 534 565
1246 6 534 535 536
1247 5 534 535 2541
1248 6 536 535 2541
1249 7 495 537 538
1250 7 495 537 573
1251 7 495 537 634
1252 7 538 537 573
1253 7 538 537 634
1254 7 573 537 634
1255 1 537 538 539
1256 2 538 539 540
1257 3 538 539 558
1258 2 540 539 558
1259 4 539 540 541
1260 4 539 540 559
1261 5 541 540 559
1262 5 2135 541 540
1263 6 2135 541 542
1264 6 540 541 542
1265 7 486 543 544
1266 7 486 543 567
1267 7 486 543 644
1268 7 544 543 567
1269 7 544 543 644
1270 7 567 543 644
1271 1 543 544 545
1272 2 544 545 546
1273 3 544 545 555
1274 2 546 545 555
1275 4 545 546 547
1276 4 545 546 556
1277 5 547 546 556
1278 5 2132 547 546
1279 6 2132 547 548
1280 6 546 547 548
1281 1 490 549 519
1282 6 491 550 551
1283 5 491 550 383
1284 6 551 550 383
1285 1 497 552 507
1286 6 498 553 554
1287 5 498 553 379
1288 6 554 553 379
1289 1 485 555 545
1290 5 2129 556 546
1291 6 2129 556 557
1292 6 546 556 557
1293 1 494 558 539
1294 5 2124 559 540
1295 6 2124 559 560
1296 6 540 559 560
1297 1 483 561 527
1298 6 528 562 563
1299 5 528 562 2539
1300 6 563 562 2539
1301 1 487 564 533
1302 6 534 565 566
1303 5 534 565 2535
1304 6 566 565 2535
1305 1 515 567 543
1306 5 1301 568 516
1307 6 1301 568 569
1308 6 516 568 569
1309 1 521 570 531
1310 5 1296 571 522
1311 6 1296 571 572
1312 6 522 571 572
1313 1 509 573 537
1314 6 510 574 575
1315 5 510 574 1679
1316 6 575 574 1679
1317 1 503 576 525
1318 6 504 577 578
1319 5 504 577 1675
1320 6 578 577 1675
1321 1 473 579 480
1322 6 474 580 581
1323 5 474 580 391
1324 6 581 580 391
1325 1 441 582 466
1326 6 467 583 584
1327 5 467 583 387
1328 6 584 583 387
1329 7 479 585 586
1330 7 479 585 715
1331 7 479 585 731
1332 7 586 585 715
1333 7 586 585 731
1334 7 715 585 731
1335 1 585 586 587
1336 2 586 587 588
1337 3 586 587 700
1338 2 588 587 700
1339 4 587 588 589
1340 4 587 588 701
1341 5 589 588 701
1342 6 588 589 590
1343 5 588 589 677
1344 6 590 589 677
1345 7 477 591 592
1346 7 477 591 709
1347 7 477 591 721
1348 7 592 591 709
1349 7 592 591 721
1350 7 709 591 721
1351 1 591 592 593
1352 2 592 593 594
1353 3 592 593 697
1354 2 594 593 697
1355 4 593 594 595
1356 4 593 594 698
1357 5 595 594 698
1358 6 594 595 596
1359 5 594 595 674
1360 6 596 595 674
1361 7 471 597 598
1362 7 471 597 718
1363 7 471 597 726
1364 7 598 597 718
1365 7 598 597 726
1366 7 718 597 726
1367 1 597 598 599
1368 2 598 599 600
1369 3 598 599 703
1370 2 600 599 703
1371 4 599 600 601
1372 4 599 600 704
1373 5 601 600 704
1374 6 600 601 602
1375 5 600 601 683
1376 6 602 601 683
1377 7 464 603 604
1378 7 464 603 712
1379 7 464 603 736
1380 7 604 603 712
1381 7 604 603 736
1382 7 712 603 736
1383 1 603 604 605
1384 2 604 605 606
1385 3 604 605 706
1386 2 606 605 706
1387 4 605 606 607
1388 4 605 606 707
1389 5 607 606 707
1390 6 606 607 608
1391 5 606 607 680
1392 6 608 607 680
1393 1 442 609 610
1394 2 609 610 611
1395 3 609 610 715
1396 2 611 610 715
1397 4 610 611 612
1398 4 610 611 716
1399 5 612 611 716
1400 6 611 612 613
1401 5 611 612 689
1402 6 613 612 689
1403 1 480 614 615
1404 2 614 615 616
1405 3 614 615 718
1406 2 616 615 718
1407 4 615 616 617
1408 4 615 616 719
1409 5 617 616 719
1410 6 616 617 618
1411 5 616 617 686
1412 6 618 617 686
1413 1 441 619 620
1414 2 619 620 621
1415 3 619 620 712
1416 2 621 620 712
1417 4 620 621 622
1418 4 620 621 713
1419 5 622 621 713
1420 6 621 622 623
1421 5 621 622 695
1422 6 623 622 695
1423 1 481 624 625
1424 2 624 625 626
1425 3 624 625 709
1426 2 626 625 709
1427 4 625 626 627
1428 4 625 626 710
1429 5 627 626 710
1430 6 626 627 628
1431 5 626 627 692
1432 6 628 627 692
1433 1 531 629 630
1434 2 629 630 631
1435 3 629 630 676
1436 2 631 630 676
1437 4 630 631 632
1438 4 630 631 677
1439 5 632 631 677
1440 6 631 632 633
1441 5 631 632 701
1442 6 633 632 701
1443 1 537 634 635
1444 2 634 635 636
1445 3 634 635 673
1446 2 636 635 673
1447 4 635 636 637
1448 4 635 636 674
1449 5 637 636 674
1450 6 636 637 638
1451 5 636 637 698
1452 6 638 637 698
1453 1 525 639 640
1454 2 639 640 641
1455 3 639 640 679
1456 2 641 640 679
1457 4 640 641 642
1458 4 640 641 680
1459 5 642 641 680
1460 6 641 642 643
1461 5 641 642 707
1462 6 643 642 707
1463 1 543 644 645
1464 2 644 645 646
1465 3 644 645 682
1466 2 646 645 682
1467 4 645 646 647
1468 4 645 646 683
1469 5 647 646 683
1470 6 646 647 648
1471 5 646 647 704
1472 6 648 647 704
1473 7 488 649 650
1474 7 488 649 676
1475 7 488 649 761
1476 7 650 649 676
1477 7 650 649 761
1478 7 676 649 761
1479 1 649 650 651
1480 2 650 651 652
1481 3 650 651 694
1482 2 652 651 694
1483 4 651 652 653
1484 4 651 652 695
1485 5 653 652 695
1486 6 652 653 654
1487 5 652 653 713
1488 6 654 653 713
1489 7 486 655 656
1490 7 486 655 682
1491 7 486 655 770
1492 7 656 655 682
1493 7 656 655 770
1494 7 682 655 770
1495 1 655 656 657
1496 2 656 657 658
1497 3 656 657 691
1498 2 658 657 691
1499 4 657 658 659
1500 4 657 658 692
1501 5 659 658 692
1502 6 658 659 660
1503 5 658 659 710
1504 6 660 659 710
1505 7 495 661 662
1506 7 495 661 673
1507 7 495 661 767
1508 7 662 661 673
1509 7 662 661 767
1510 7 673 661 767
1511 1 661 662 663
1512 2 662 663 664
1513 3 662 663 685
1514 2 664 663 685
1515 4 663 664 665
1516 4 663 664 686
1517 5 665 664 686
1518 6 664 665 666
1519 5 664 665 719
1520 6 666 665 719
1521 7 484 667 668
1522 7 484 667 679
1523 7 484 667 764
1524 7 668 667 679
1525 7 668 667 764
1526 7 679 667 764
1527 1 667 668 669
1528 2 668 669 670
1529 3 668 669 688
1530 2 670 669 688
1531 4 669 670 671
1532 4 669 670 689
1533 5 671 670 689
1534 6 670 671 672
1535 5 670 671 716
1536 6 672 671 716
1537 1 635 673 661
1538 5 595 674 636
1539 6 595 674 675
1540 6 636 674 675
1541 1 630 676 649
1542 5 589 677 631
1543 6 589 677 678
1544 6 631 677 678
1545 1 640 679 667
1546 5 607 680 641
1547 6 607 680 681
1548 6 641 680 681
1549 1 645 682 655
1550 5 601 683 646
1551 6 601 683 684
1552 6 646 683 684
1553 1 494 685 663
1554 5 617 686 664
1555 6 617 686 687
1556 6 664 686 687
1557 1 483 688 669
1558 5 612 689 670
1559 6 612 689 690
1560 6 670 689 690
1561 1 485 691 657
1562 5 627 692 658
1563 6 627 692 693
1564 6 658 692 693
1565 1 487 694 651
1566 5 622 695 652
1567 6 622 695 696
1568 6 652 695 696
1569 1 463 697 593
1570 5 594 698 637
1571 6 594 698 699
1572 6 637 698 699
1573 1 444 700 587
1574 5 588 701 632
1575 6 588 701 702
1576 6 632 701 702
1577 1 482 703 599
1578 5 600 704 647
1579 6 600 704 705
1580 6 647 704 705
1581 1 443 706 605
1582 5 606 707 642
1583 6 606 707 708
1584 6 642 707 708
1585 1 591 709 625
1586 5 626 710 659
1587 6 626 710 711
1588 6 659 710 711
1589 1 603 712 620
1590 5 621 713 653
1591 6 621 713 714
1592 6 653 713 714
1593 1 585 715 610
1594 5 611 716 671
1595 6 611 716 717
1596 6 671 716 717
1597 1 597 718 615
1598 5 616 719 665
1599 6 616 719 720
1600 6 665 719 720
1601 1 591 721 722
1602 2 721 722 723
1603 3 721 722 782
1604 2 723 722 782
1605 4 722 723 724
1606 4 722 723 783
1607 5 724 723 783
1608 6 723 724 725
1609 5 723 724 765
1610 6 725 724 765
1611 1 597 726 727
1612 2 726 727 728
1613 3 726 727 779
1614 2 728 727 779
1615 4 727 728 729
1616 4 727 728 780
1617 5 729 728 780
1618 6 728 729 730
1619 5 728 729 762
1620 6 730 729 762
1621 1 585 731 732
1622 2 731 732 733
1623 3 731 732 773
1624 2 733 732 773
1625 4 732 733 734
1626 4 732 733 774
1627 5 734 733 774
1628 6 733 734 735
1629 5 733 734 771
1630 6 735 734 771
1631 1 603 736 737
1632 2 736 737 738
1633 3 736 737 776
1634 2 738 737 776
1635 4 737 738 739
1636 4 737 738 777
1637 5 739 738 777
1638 6 738 739 740
1639 5 738 739 768
1640 6 740 739 768
1641 1 507 741 742
1642 2 741 742 743
1643 3 741 742 767
1644 2 743 742 767
1645 4 742 743 744
1646 4 742 743 768
1647 5 744 743 768
1648 6 743 744 745
1649 5 743 744 777
1650 6 745 744 777
1651 1 513 746 747
1652 2 746 747 748
1653 3 746 747 770
1654 2 748 747 770
1655 4 747 748 749
1656 4 747 748 771
1657 5 749 748 771
1658 6 748 749 750
1659 5 748 749 774
1660 6 750 749 774
1661 1 501 751 752
1662 2 751 752 753
1663 3 751 752 764
1664 2 753 752 764
1665 4 752 753 754
1666 4 752 753 765
1667 5 754 753 765
1668 6 753 754 755
1669 5 753 754 783
1670 6 755 754 783
1671 1 519 756 757
1672 2 756 757 758
1673 3 756 757 761
1674 2 758 757 761
1675 4 757 758 759
1676 4 757 758 762
1677 5 759 758 762
1678 6 758 759 760
1679 5 758 759 780
1680 6 760 759 780
1681 1 649 761 757
1682 5 729 762 758
1683 6 729 762 763
1684 6 758 762 763
1685 1 667 764 752
1686 5 724 765 753
1687 6 724 765 766
1688 6 753 765 766
1689 1 661 767 742
1690 5 739 768 743
1691 6 739 768 769
1692 6 743 768 769
1693 1 655 770 747
1694 5 734 771 748
1695 6 734 771 772
1696 6 748 771 772
1697 1 478 773 732
1698 5 733 774 749
1699 6 733 774 775
1700 6 749 774 775
1701 1 461 776 737
1702 5 738 777 744
1703 6 738 777 778
1704 6 744 777 778
1705 1 470 779 727
1706 5 728 780 759
1707 6 728 780 781
1708 6 759 780 781
1709 1 462 782 722
1710 5 723 783 754
1711 6 723 783 784
1712 6 754 783 784
1713 1 462 785 801
1714 1 478 786 805
1715 1 480 787 837
1716 1 481 788 841
1717 1 444 789 825
1718 1 482 790 829
1719 1 483 791 809
1720 1 485 792 813
1721 1 513 793 813
1722 1 501 794 809
1723 1 481 795 801
1724 1 442 796 805
1725 1 470 797 829
1726 1 478 798 825
1727 1 482 799 837
1728 1 463 800 841
1729 3 785 801 795
1730 2 785 801 802
1731 2 795 801 802
1732 4 801 802 803
1733 4 801 802 821
1734 5 803 802 821
1735 5 129 803 802
1736 6 129 803 804
1737 6 802 803 804
1738 3 786 805 796
1739 2 786 805 806
1740 2 796 805 806
1741 4 805 806 807
1742 4 805 806 823
1743 5 807 806 823
1744 5 126 807 806
1745 6 126 807 808
1746 6 806 807 808
1747 3 791 809 794
1748 2 791 809 810
1749 2 794 809 810
1750 4 809 810 811
1751 4 809 810 819
1752 5 811 810 819
1753 5 159 811 810
1754 6 159 811 812
1755 6 810 811 812
1756 3 792 813 793
1757 2 792 813 814
1758 2 793 813 814
1759 4 813 814 815
1760 4 813 814 817
1761 5 815 814 817
1762 5 156 815 814
1763 6 156 815 816
1764 6 814 815 816
1765 5 51 817 814
1766 6 51 817 818
1767 6 814 817 818
1768 5 44 819 810
1769 6 44 819 820
1770 6 810 819 820
1771 5 75 821 802
1772 6 75 821 822
1773 6 802 821 822
1774 5 68 823 806
1775 6 68 823 824
1776 6 806 823 824
1777 3 789 825 798
1778 2 789 825 826
1779 2 798 825 826
1780 4 825 826 827
1781 4 825 826 835
1782 5 827 826 835
1783 5 1425 827 826
1784 6 1425 827 828
1785 6 826 827 828
1786 3 790 829 797
1787 2 790 829 830
1788 2 797 829 830
1789 4 829 830 831
1790 4 829 830 833
1791 5 831 830 833
1792 5 1422 831 830
1793 6 1422 831 832
1794 6 830 831 832
1795 5 1359 833 830
1796 6 1359 833 834
1797 6 830 833 834
1798 5 1353 835 826
1799 6 1353 835 836
1800 6 826 835 836
1801 3 787 837 799
1802 2 787 837 838
1803 2 799 837 838
1804 4 837 838 839
1805 4 837 838 845
1806 5 839 838 845
1807 5 2261 839 838
1808 6 2261 839 840
1809 6 838 839 840
1810 3 788 841 800
1811 2 788 841 842
1812 2 800 841 842
1813 4 841 842 843
1814 4 841 842 847
1815 5 843 842 847
1816 5 2258 843 842
1817 6 2258 843 844
1818 6 842 843 844
1819 5 2231 845 838
1820 6 2231 845 846
1821 6 838 845 846
1822 5 2225 847 842
1823 6 2225 847 848
1824 6 842 847 848
1825 1 850 849 865
1826 2 849 850 851
1827 3 849 850 862
1828 2 851 850 862
1829 4 850 851 852
1830 4 850 851 863
1831 5 852 851 863
1832 6 851 852 853
1833 5 851 852 2679
1834 6 853 852 2679
1835 1 855 854 866
1836 2 854 855 856
1837 3 854 855 859
1838 2 856 855 859
1839 4 855 856 857
1840 4 855 856 860
1841 5 857 856 860
1842 6 856 857 858
1843 5 856 857 2676
1844 6 858 857 2676
1845 1 855 859 868
1846 6 856 860 861
1847 5 856 860 2667
1848 6 861 860 2667
1849 1 850 862 867
1850 6 851 863 864
1851 5 851 863 2661
1852 6 864 863 2661
1853 7 849 865 888
1854 7 849 865 1006
1855 7 849 865 1043
1856 7 888 865 1006
1857 7 888 865 1043
1858 7 1006 865 1043
1859 7 854 866 903
1860 7 854 866 1033
1861 7 854 866 1220
1862 7 903 866 1033
1863 7 903 866 1220
1864 7 1033 866 1220
1865 7 862 867 869
1866 7 862 867 888
1867 7 862 867 1130
1868 7 869 867 888
1869 7 869 867 1130
1870 7 888 867 1130
1871 7 859 868 903
1872 7 859 868 1124
1873 7 859 868 1213
1874 7 903 868 1124
1875 7 903 868 1213
1876 7 1124 868 1213
1877 1 867 869 870
1878 2 869 870 871
1879 3 869 870 879
1880 2 871 870 879
1881 4 870 871 872
1882 4 870 871 880
1883 5 872 871 880
1884 6 871 872 873
1885 5 871 872 147
1886 6 873 872 147
1887 1 875 874 887
1888 2 874 875 876
1889 3 874 875 882
1890 2 876 875 882
1891 4 875 876 877
1892 4 875 876 883
1893 5 877 876 883
1894 6 876 877 878
1895 5 876 877 144
1896 6 878 877 144
1897 1 870 879 885
1898 6 871 880 881
1899 5 871 880 99
1900 6 881 880 99
1901 1 875 882 886
1902 6 876 883 884
1903 5 876 883 93
1904 6 884 883 93
1905 7 879 885 888
1906 7 879 885 889
1907 7 879 885 1200
1908 7 888 885 889
1909 7 888 885 1200
1910 7 889 885 1200
1911 7 882 886 901
1912 7 882 886 1206
1913 7 882 886 1209
1914 7 901 886 1206
1915 7 901 886 1209
1916 7 1206 886 1209
1917 7 874 887 901
1918 7 874 887 1121
1919 7 874 887 1224
1920 7 901 887 1121
1921 7 901 887 1224
1922 7 1121 887 1224
1923 8 865 888 867
1924 8 865 888 885
1925 8 865 888 1027
1926 8 867 888 885
1927 8 867 888 1027
1928 8 885 888 1027
1929 1 885 889 890
1930 2 889 890 891
1931 3 889 890 1006
1932 2 891 890 1006
1933 4 890 891 892
1934 4 890 891 1007
1935 5 892 891 1007
1936 6 891 892 893
1937 5 891 892 1667
1938 6 893 892 1667
1939 7 895 894 896
1940 7 895 894 1203
1941 7 895 894 1221
1942 7 896 894 1203
1943 7 896 894 1221
1944 7 1203 894 1221
1945 8 894 895 904
1946 8 894 895 906
1947 8 894 895 1021
1948 8 904 895 906
1949 8 904 895 1021
1950 8 906 895 1021
1951 1 894 896 897
1952 2 896 897 898
1953 3 896 897 1003
1954 2 898 897 1003
1955 4 897 898 899
1956 4 897 898 1004
1957 5 899 898 1004
1958 6 898 899 900
1959 5 898 899 1665
1960 6 900 899 1665
1961 8 886 901 887
1962 8 886 901 905
1963 8 886 901 1015
1964 8 887 901 905
1965 8 887 901 1015
1966 8 905 901 1015
1967 7 903 902 1197
1968 7 903 902 1210
1969 7 903 902 1222
1970 7 1197 902 1210
1971 7 1197 902 1222
1972 7 1210 902 1222
1973 8 866 903 868
1974 8 866 903 902
1975 8 866 903 1009
1976 8 868 903 902
1977 8 868 903 1009
1978 8 902 903 1009
1979 7 895 904 1003
1980 7 895 904 1038
1981 7 895 904 1211
1982 7 1003 904 1038
1983 7 1003 904 1211
1984 7 1038 904 1211
1985 7 901 905 1048
1986 7 901 905 1212
1987 7 901 905 1219
1988 7 1048 905 1212
1989 7 1048 905 1219
1990 7 1212 905 1219
1991 7 895 906 1127
1992 7 895 906 1214
1993 7 895 906 1223
1994 7 1127 906 1214
1995 7 1127 906 1223
1996 7 1214 906 1223
1997 7 908 907 985
1998 7 908 907 1112
1999 7 908 907 1215
2000 7 985 907 1112
2001 7 985 907 1215
2002 7 1112 907 1215
2003 8 907 908 925
2004 8 907 908 949
2005 8 907 908 1091
2006 8 925 908 949
2007 8 925 908 1091
2008 8 949 908 1091
2009 7 910 909 979
2010 7 910 909 1115
2011 7 910 909 1216
2012 7 979 909 1115
2013 7 979 909 1216
2014 7 1115 909 1216
2015 8 909 910 937
2016 8 909 910 967
2017 8 909 910 1079
2018 8 937 910 967
2019 8 937 910 1079
2020 8 967 910 1079
2021 7 912 911 913
2022 7 912 911 988
2023 7 912 911 1118
2024 7 913 911 988
2025 7 913 911 1118
2026 7 988 911 1118
2027 8 911 912 943
2028 8 911 912 955
2029 8 911 912 1073
2030 8 943 912 955
2031 8 943 912 1073
2032 8 955 912 1073
2033 1 911 913 914
2034 2 913 914 915
2035 3 913 914 973
2036 2 915 914 973
2037 4 914 915 916
2038 4 914 915 974
2039 5 916 915 974
2040 6 915 916 917
2041 5 915 916 1671
2042 6 917 916 1671
2043 7 919 918 920
2044 7 919 918 982
2045 7 919 918 1109
2046 7 920 918 982
2047 7 920 918 1109
2048 7 982 918 1109
2049 8 918 919 931
2050 8 918 919 961
2051 8 918 919 1085
2052 8 931 919 961
2053 8 931 919 1085
2054 8 961 919 1085
2055 1 918 920 921
2056 2 920 921 922
2057 3 920 921 976
2058 2 922 921 976
2059 4 921 922 923
2060 4 921 922 977
2061 5 923 922 977
2062 6 922 923 924
2063 5 922 923 1669
2064 6 924 923 1669
2065 7 908 925 926
2066 7 908 925 1175
2067 7 908 925 1218
2068 7 926 925 1175
2069 7 926 925 1218
2070 7 1175 925 1218
2071 1 925 926 927
2072 2 926 927 928
2073 3 926 927 1000
2074 2 928 927 1000
2075 4 927 928 929
2076 4 927 928 1001
2077 5 929 928 1001
2078 6 928 929 930
2079 5 928 929 411
2080 6 930 929 411
2081 7 919 931 932
2082 7 919 931 976
2083 7 919 931 1165
2084 7 932 931 976
2085 7 932 931 1165
2086 7 976 931 1165
2087 1 931 932 933
2088 2 932 933 934
2089 3 932 933 997
2090 2 934 933 997
2091 4 933 934 935
2092 4 933 934 998
2093 5 935 934 998
2094 6 934 935 936
2095 5 934 935 409
2096 6 936 935 409
2097 7 910 937 938
2098 7 910 937 1170
2099 7 910 937 1217
2100 7 938 937 1170
2101 7 938 937 1217
2102 7 1170 937 1217
2103 1 937 938 939
2104 2 938 939 940
2105 3 938 939 991
2106 2 940 939 991
2107 4 939 940 941
2108 4 939 940 992
2109 5 941 940 992
2110 5 35 941 940
2111 6 35 941 942
2112 6 940 941 942
2113 7 912 943 944
2114 7 912 943 973
2115 7 912 943 1180
2116 7 944 943 973
2117 7 944 943 1180
2118 7 973 943 1180
2119 1 943 944 945
2120 2 944 945 946
2121 3 944 945 994
2122 2 946 945 994
2123 4 945 946 947
2124 4 945 946 995
2125 5 947 946 995
2126 5 32 947 946
2127 6 32 947 948
2128 6 946 947 948
2129 7 908 949 950
2130 7 908 949 1000
2131 7 908 949 1063
2132 7 950 949 1000
2133 7 950 949 1063
2134 7 1000 949 1063
2135 1 949 950 951
2136 2 950 951 952
2137 3 950 951 985
2138 2 952 951 985
2139 4 951 952 953
2140 4 951 952 986
2141 5 953 952 986
2142 6 952 953 954
2143 5 952 953 2967
2144 6 954 953 2967
2145 7 912 955 956
2146 7 912 955 994
2147 7 912 955 1053
2148 7 956 955 994
2149 7 956 955 1053
2150 7 994 955 1053
2151 1 955 956 957
2152 2 956 957 958
2153 3 956 957 988
2154 2 958 957 988
2155 4 957 958 959
2156 4 957 958 989
2157 5 959 958 989
2158 6 958 959 960
2159 5 958 959 2965
2160 6 960 959 2965
2161 7 919 961 962
2162 7 919 961 997
2163 7 919 961 1058
2164 7 962 961 997
2165 7 962 961 1058
2166 7 997 961 1058
2167 1 961 962 963
2168 2 962 963 964
2169 3 962 963 982
2170 2 964 963 982
2171 4 963 964 965
2172 4 963 964 983
2173 5 965 964 983
2174 5 2559 965 964
2175 6 2559 965 966
2176 6 964 965 966
2177 7 910 967 968
2178 7 910 967 991
2179 7 910 967 1068
2180 7 968 967 991
2181 7 968 967 1068
2182 7 991 967 1068
2183 1 967 968 969
2184 2 968 969 970
2185 3 968 969 979
2186 2 970 969 979
2187 4 969 970 971
2188 4 969 970 980
2189 5 971 970 980
2190 5 2556 971 970
2191 6 2556 971 972
2192 6 970 971 972
2193 1 914 973 943
2194 6 915 974 975
2195 5 915 974 1655
2196 6 975 974 1655
2197 1 921 976 931
2198 6 922 977 978
2199 5 922 977 1651
2200 6 978 977 1651
2201 1 909 979 969
2202 5 2553 980 970
2203 6 2553 980 981
2204 6 970 980 981
2205 1 918 982 963
2206 5 2548 983 964
2207 6 2548 983 984
2208 6 964 983 984
2209 1 907 985 951
2210 6 952 986 987
2211 5 952 986 2963
2212 6 987 986 2963
2213 1 911 988 957
2214 6 958 989 990
2215 5 958 989 2959
2216 6 990 989 2959
2217 1 939 991 967
2218 5 29 992 940
2219 6 29 992 993
2220 6 940 992 993
2221 1 945 994 955
2222 5 24 995 946
2223 6 24 995 996
2224 6 946 995 996
2225 1 933 997 961
2226 6 934 998 999
2227 5 934 998 407
2228 6 999 998 407
2229 1 927 1000 949
2230 6 928 1001 1002
2231 5 928 1001 403
2232 6 1002 1001 403
2233 1 897 1003 904
2234 6 898 1004 1005
2235 5 898 1004 1663
2236 6 1005 1004 1663
2237 1 865 1006 890
2238 6 891 1007 1008
2239 5 891 1007 1659
2240 6 1008 1007 1659
2241 7 903 1009 1010
2242 7 903 1009 1139
2243 7 903 1009 1155
2244 7 1010 1009 1139
2245 7 1010 1009 1155
2246 7 1139 1009 1155
2247 1 1009 1010 1011
2248 2 1010 1011 1012
2249 3 1010 1011 1124
2250 2 1012 1011 1124
2251 4 1011 1012 1013
2252 4 1011 1012 1125
2253 5 1013 1012 1125
2254 6 1012 1013 1014
2255 5 1012 1013 1101
2256 6 1014 1013 1101
2257 7 901 1015 1016
2258 7 901 1015 1133
2259 7 901 1015 1145
2260 7 1016 1015 1133
2261 7 1016 1015 1145
2262 7 1133 1015 1145
2263 1 1015 1016 1017
2264 2 1016 1017 1018
2265 3 1016 1017 1121
2266 2 1018 1017 1121
2267 4 1017 1018 1019
2268 4 1017 1018 1122
2269 5 1019 1018 1122
2270 6 1018 1019 1020
2271 5 1018 1019 1098
2272 6 1020 1019 1098
2273 7 895 1021 1022
2274 7 895 1021 1142
2275 7 895 1021 1150
2276 7 1022 1021 1142
2277 7 1022 1021 1150
2278 7 1142 1021 1150
2279 1 1021 1022 1023
2280 2 1022 1023 1024
2281 3 1022 1023 1127
2282 2 1024 1023 1127
2283 4 1023 1024 1025
2284 4 1023 1024 1128
2285 5 1025 1024 1128
2286 6 1024 1025 1026
2287 5 1024 1025 1107
2288 6 1026 1025 1107
2289 7 888 1027 1028
2290 7 888 1027 1136
2291 7 888 1027 1160
2292 7 1028 1027 1136
2293 7 1028 1027 1160
2294 7 1136 1027 1160
2295 1 1027 1028 1029
2296 2 1028 1029 1030
2297 3 1028 1029 1130
2298 2 1030 1029 1130
2299 4 1029 1030 1031
2300 4 1029 1030 1131
2301 5 1031 1030 1131
2302 6 1030 1031 1032
2303 5 1030 1031 1104
2304 6 1032 1031 1104
2305 1 866 1033 1034
2306 2 1033 1034 1035
2307 3 1033 1034 1139
2308 2 1035 1034 1139
2309 4 1034 1035 1036
2310 4 1034 1035 1140
2311 5 1036 1035 1140
2312 6 1035 1036 1037
2313 5 1035 1036 1113
2314 6 1037 1036 1113
2315 1 904 1038 1039
2316 2 1038 1039 1040
2317 3 1038 1039 1142
2318 2 1040 1039 1142
2319 4 1039 1040 1041
2320 4 1039 1040 1143
2321 5 1041 1040 1143
2322 6 1040 1041 1042
2323 5 1040 1041 1110
2324 6 1042 1041 1110
2325 1 865 1043 1044
2326 2 1043 1044 1045
2327 3 1043 1044 1136
2328 2 1045 1044 1136
2329 4 1044 1045 1046
2330 4 1044 1045 1137
2331 5 1046 1045 1137
2332 6 1045 1046 1047
2333 5 1045 1046 1119
2334 6 1047 1046 1119
2335 1 905 1048 1049
2336 2 1048 1049 1050
2337 3 1048 1049 1133
2338 2 1050 1049 1133
2339 4 1049 1050 1051
2340 4 1049 1050 1134
2341 5 1051 1050 1134
2342 6 1050 1051 1052
2343 5 1050 1051 1116
2344 6 1052 1051 1116
2345 1 955 1053 1054
2346 2 1053 1054 1055
2347 3 1053 1054 1100
2348 2 1055 1054 1100
2349 4 1054 1055 1056
2350 4 1054 1055 1101
2351 5 1056 1055 1101
2352 6 1055 1056 1057
2353 5 1055 1056 1125
2354 6 1057 1056 1125
2355 1 961 1058 1059
2356 2 1058 1059 1060
2357 3 1058 1059 1097
2358 2 1060 1059 1097
2359 4 1059 1060 1061
2360 4 1059 1060 1098
2361 5 1061 1060 1098
2362 6 1060 1061 1062
2363 5 1060 1061 1122
2364 6 1062 1061 1122
2365 1 949 1063 1064
2366 2 1063 1064 1065
2367 3 1063 1064 1103
2368 2 1065 1064 1103
2369 4 1064 1065 1066
2370 4 1064 1065 1104
2371 5 1066 1065 1104
2372 6 1065 1066 1067
2373 5 1065 1066 1131
2374 6 1067 1066 1131
2375 1 967 1068 1069
2376 2 1068 1069 1070
2377 3 1068 1069 1106
2378 2 1070 1069 1106
2379 4 1069 1070 1071
2380 4 1069 1070 1107
2381 5 1071 1070 1107
2382 6 1070 1071 1072
2383 5 1070 1071 1128
2384 6 1072 1071 1128
2385 7 912 1073 1074
2386 7 912 1073 1100
2387 7 912 1073 1185
2388 7 1074 1073 1100
2389 7 1074 1073 1185
2390 7 1100 1073 1185
2391 1 1073 1074 1075
2392 2 1074 1075 1076
2393 3 1074 1075 1118
2394 2 1076 1075 1118
2395 4 1075 1076 1077
2396 4 1075 1076 1119
2397 5 1077 1076 1119
2398 6 1076 1077 1078
2399 5 1076 1077 1137
2400 6 1078 1077 1137
2401 7 910 1079 1080
2402 7 910 1079 1106
2403 7 910 1079 1194
2404 7 1080 1079 1106
2405 7 1080 1079 1194
2406 7 1106 1079 1194
2407 1 1079 1080 1081
2408 2 1080 1081 1082
2409 3 1080 1081 1115
2410 2 1082 1081 1115
2411 4 1081 1082 1083
2412 4 1081 1082 1116
2413 5 1083 1082 1116
2414 6 1082 1083 1084
2415 5 1082 1083 1134
2416 6 1084 1083 1134
2417 7 919 1085 1086
2418 7 919 1085 1097
2419 7 919 1085 1191
2420 7 1086 1085 1097
2421 7 1086 1085 1191
2422 7 1097 1085 1191
2423 1 1085 1086 1087
2424 2 1086 1087 1088
2425 3 1086 1087 1109
2426 2 1088 1087 1109
2427 4 1087 1088 1089
2428 4 1087 1088 1110
2429 5 1089 1088 1110
2430 6 1088 1089 1090
2431 5 1088 1089 1143
2432 6 1090 1089 1143
2433 7 908 1091 1092
2434 7 908 1091 1103
2435 7 908 1091 1188
2436 7 1092 1091 1103
2437 7 1092 1091 1188
2438 7 1103 1091 1188
2439 1 1091 1092 1093
2440 2 1092 1093 1094
2441 3 1092 1093 1112
2442 2 1094 1093 1112
2443 4 1093 1094 1095
2444 4 1093 1094 1113
2445 5 1095 1094 1113
2446 6 1094 1095 1096
2447 5 1094 1095 1140
2448 6 1096 1095 1140
2449 1 1059 1097 1085
2450 5 1019 1098 1060
2451 6 1019 1098 1099
2452 6 1060 1098 1099
2453 1 1054 1100 1073
2454 5 1013 1101 1055
2455 6 1013 1101 1102
2456 6 1055 1101 1102
2457 1 1064 1103 1091
2458 5 1031 1104 1065
2459 6 1031 1104 1105
2460 6 1065 1104 1105
2461 1 1069 1106 1079
2462 5 1025 1107 1070
2463 6 1025 1107 1108
2464 6 1070 1107 1108
2465 1 918 1109 1087
2466 5 1041 1110 1088
2467 6 1041 1110 1111
2468 6 1088 1110 1111
2469 1 907 1112 1093
2470 5 1036 1113 1094
2471 6 1036 1113 1114
2472 6 1094 1113 1114
2473 1 909 1115 1081
2474 5 1051 1116 1082
2475 6 1051 1116 1117
2476 6 1082 1116 1117
2477 1 911 1118 1075
2478 5 1046 1119 1076
2479 6 1046 1119 1120
2480 6 1076 1119 1120
2481 1 887 1121 1017
2482 5 1018 1122 1061
2483 6 1018 1122 1123
2484 6 1061 1122 1123
2485 1 868 1124 1011
2486 5 1012 1125 1056
2487 6 1012 1125 1126
2488 6 1056 1125 1126
2489 1 906 1127 1023
2490 5 1024 1128 1071
2491 6 1024 1128 1129
2492 6 1071 1128 1129
2493 1 867 1130 1029
2494 5 1030 1131 1066
2495 6 1030 1131 1132
2496 6 1066 1131 1132
2497 1 1015 1133 1049
2498 5 1050 1134 1083
2499 6 1050 1134 1135
2500 6 1083 1134 1135
2501 1 1027 1136 1044
2502 5 1045 1137 1077
2503 6 1045 1137 1138
2504 6 1077 1137 1138
2505 1 1009 1139 1034
2506 5 1035 1140 1095
2507 6 1035 1140 1141
2508 6 1095 1140 1141
2509 1 1021 1142 1039
2510 5 1040 1143 1089
2511 6 1040 1143 1144
2512 6 1089 1143 1144
2513 1 1015 1145 1146
2514 2 1145 1146 1147
2515 3 1145 1146 1206
2516 2 1147 1146 1206
2517 4 1146 1147 1148
2518 4 1146 1147 1207
2519 5 1148 1147 1207
2520 6 1147 1148 1149
2521 5 1147 1148 1189
2522 6 1149 1148 1189
2523 1 1021 1150 1151
2524 2 1150 1151 1152
2525 3 1150 1151 1203
2526 2 1152 1151 1203
2527 4 1151 1152 1153
2528 4 1151 1152 1204
2529 5 1153 1152 1204
2530 6 1152 1153 1154
2531 5 1152 1153 1186
2532 6 1154 1153 1186
2533 1 1009 1155 1156
2534 2 1155 1156 1157
2535 3 1155 1156 1197
2536 2 1157 1156 1197
2537 4 1156 1157 1158
2538 4 1156 1157 1198
2539 5 1158 1157 1198
2540 6 1157 1158 1159
2541 5 1157 1158 1195
2542 6 1159 1158 1195
2543 1 1027 1160 1161
2544 2 1160 1161 1162
2545 3 1160 1161 1200
2546 2 1162 1161 1200
2547 4 1161 1162 1163
2548 4 1161 1162 1201
2549 5 1163 1162 1201
2550 6 1162 1163 1164
2551 5 1162 1163 1192
2552 6 1164 1163 1192
2553 1 931 1165 1166
2554 2 1165 1166 1167
2555 3 1165 1166 1191
2556 2 1167 1166 1191
2557 4 1166 1167 1168
2558 4 1166 1167 1192
2559 5 1168 1167 1192
2560 6 1167 1168 1169
2561 5 1167 1168 1201
2562 6 1169 1168 1201
2563 1 937 1170 1171
2564 2 1170 1171 1172
2565 3 1170 1171 1194
2566 2 1172 1171 1194
2567 4 1171 1172 1173
2568 4 1171 1172 1195
2569 5 1173 1172 1195
2570 6 1172 1173 1174
2571 5 1172 1173 1198
2572 6 1174 1173 1198
2573 1 925 1175 1176
2574 2 1175 1176 1177
2575 3 1175 1176 1188
2576 2 1177 1176 1188
2577 4 1176 1177 1178
2578 4 1176 1177 1189
2579 5 1178 1177 1189
2580 6 1177 1178 1179
2581 5 1177 1178 1207
2582 6 1179 1178 1207
2583 1 943 1180 1181
2584 2 1180 1181 1182
2585 3 1180 1181 1185
2586 2 1182 1181 1185
2587 4 1181 1182 1183
2588 4 1181 1182 1186
2589 5 1183 1182 1186
2590 6 1182 1183 1184
2591 5 1182 1183 1204
2592 6 1184 1183 1204
2593 1 1073 1185 1181
2594 5 1153 1186 1182
2595 6 1153 1186 1187
2596 6 1182 1186 1187
2597 1 1091 1188 1176
2598 5 1148 1189 1177
2599 6 1148 1189 1190
2600 6 1177 1189 1190
2601 1 1085 1191 1166
2602 5 1163 1192 1167
2603 6 1163 1192 1193
2604 6 1167 1192 1193
2605 1 1079 1194 1171
2606 5 1158 1195 1172
2607 6 1158 1195 1196
2608 6 1172 1195 1196
2609 1 902 1197 1156
2610 5 1157 1198 1173
2611 6 1157 1198 1199
2612 6 1173 1198 1199
2613 1 885 1200 1161
2614 5 1162 1201 1168
2615 6 1162 1201 1202
2616 6 1168 1201 1202
2617 1 894 1203 1151
2618 5 1152 1204 1183
2619 6 1152 1204 1205
2620 6 1183 1204 1205
2621 1 886 1206 1146
2622 5 1147 1207 1178
2623 6 1147 1207 1208
2624 6 1178 1207 1208
2625 1 886 1209 1225
2626 1 902 1210 1229
2627 1 904 1211 1261
2628 1 905 1212 1265
2629 1 868 1213 1249
2630 1 906 1214 1253
2631 1 907 1215 1233
2632 1 909 1216 1237
2633 1 937 1217 1237
2634 1 925 1218 1233
2635 1 905 1219 1225
2636 1 866 1220 1229
2637 1 894 1221 1253
2638 1 902 1222 1249
2639 1 906 1223 1261
2640 1 887 1224 1265
2641 3 1209 1225 1219
2642 2 1209 1225 1226
2643 2 1219 1225 1226
2644 4 1225 1226 1227
2645 4 1225 1226 1245
2646 5 1227 1226 1245
2647 5 1401 1227 1226
2648 6 1401 1227 1228
2649 6 1226 1227 1228
2650 3 1210 1229 1220
2651 2 1210 1229 1230
2652 2 1220 1229 1230
2653 4 1229 1230 1231
2654 4 1229 1230 1247
2655 5 1231 1230 1247
2656 5 1398 1231 1230
2657 6 1398 1231 1232
2658 6 1230 1231 1232
2659 3 1215 1233 1218
2660 2 1215 1233 1234
2661 2 1218 1233 1234
2662 4 1233 1234 1235
2663 4 1233 1234 1243
2664 5 1235 1234 1243
2665 5 1431 1235 1234
2666 6 1431 1235 1236
2667 6 1234 1235 1236
2668 3 1216 1237 1217
2669 2 1216 1237 1238
2670 2 1217 1237 1238
2671 4 1237 1238 1239
2672 4 1237 1238 1241
2673 5 1239 1238 1241
2674 5 1428 1239 1238
2675 6 1428 1239 1240
2676 6 1238 1239 1240
2677 5 1323 1241 1238
2678 6 1323 1241 1242
2679 6 1238 1241 1242
2680 5 1316 1243 1234
2681 6 1316 1243 1244
2682 6 1234 1243 1244
2683 5 1347 1245 1226
2684 6 1347 1245 1246
2685 6 1226 1245 1246
2686 5 1340 1247 1230
2687 6 1340 1247 1248
2688 6 1230 1247 1248
2689 3 1213 1249 1222
2690 2 1213 1249 1250
2691 2 1222 1249 1250
2692 4 1249 1250 1251
2693 4 1249 1250 1259
2694 5 1251 1250 1259
2695 5 153 1251 1250
2696 6 153 1251 1252
2697 6 1250 1251 1252
2698 3 1214 1253 1221
2699 2 1214 1253 1254
2700 2 1221 1253 1254
2701 4 1253 1254 1255
2702 4 1253 1254 1257
2703 5 1255 1254 1257
2704 5 150 1255 1254
2705 6 150 1255 1256
2706 6 1254 1255 1256
2707 5 87 1257 1254
2708 6 87 1257 1258
2709 6 1254 1257 1258
2710 5 81 1259 1250
2711 6 81 1259 1260
2712 6 1250 1259 1260
2713 3 1211 1261 1223
2714 2 1211 1261 1262
2715 2 1223 1261 1262
2716 4 1261 1262 1263
2717 4 1261 1262 1269
2718 5 1263 1262 1269
2719 5 2685 1263 1262
2720 6 2685 1263 1264
2721 6 1262 1263 1264
2722 3 1212 1265 1224
2723 2 1212 1265 1266
2724 2 1224 1265 1266
2725 4 1265 1266 1267
2726 4 1265 1266 1271
2727 5 1267 1266 1271
2728 5 2682 1267 1266
2729 6 2682 1267 1268
2730 6 1266 1267 1268
2731 5 2655 1269 1262
2732 6 2655 1269 1270
2733 6 1262 1269 1270
2734 5 2649 1271 1266
2735 6 2649 1271 1272
2736 6 1266 1271 1272
2737 1 1274 1273 1289
2738 2 1273 1274 1275
2739 3 1273 1274 1286
2740 2 1275 1274 1286
2741 4 1274 1275 1276
2742 4 1274 1275 1287
2743 5 1276 1275 1287
2744 6 1275 1276 1277
2745 5 1275 1276 3103
2746 6 1277 1276 3103
2747 1 1279 1278 1290
2748 2 1278 1279 1280
2749 3 1278 1279 1283
2750 2 1280 1279 1283
2751 4 1279 1280 1281
2752 4 1279 1280 1284
2753 5 1281 1280 1284
2754 6 1280 1281 1282
2755 5 1280 1281 3100
2756 6 1282 1281 3100
2757 1 1279 1283 1292
2758 6 1280 1284 1285
2759 5 1280 1284 3091
2760 6 1285 1284 3091
2761 1 1274 1286 1291
2762 6 1275 1287 1288
2763 5 1275 1287 3085
2764 6 1288 1287 3085
2765 7 1273 1289 1312
2766 7 1273 1289 1430
2767 7 1273 1289 1467
2768 7 1312 1289 1430
2769 7 1312 1289 1467
2770 7 1430 1289 1467
2771 7 1278 1290 1327
2772 7 1278 1290 1457
2773 7 1278 1290 1644
2774 7 1327 1290 1457
2775 7 1327 1290 1644
2776 7 1457 1290 1644
2777 7 1286 1291 1293
2778 7 1286 1291 1312
2779 7 1286 1291 1554
2780 7 1293 1291 1312
2781 7 1293 1291 1554
2782 7 1312 1291 1554
2783 7 1283 1292 1327
2784 7 1283 1292 1548
2785 7 1283 1292 1637
2786 7 1327 1292 1548
2787 7 1327 1292 1637
2788 7 1548 1292 1637
2789 1 1291 1293 1294
2790 2 1293 1294 1295
2791 3 1293 1294 1303
2792 2 1295 1294 1303
2793 4 1294 1295 1296
2794 4 1294 1295 1304
2795 5 1296 1295 1304
2796 6 1295 1296 1297
2797 5 1295 1296 571
2798 6 1297 1296 571
2799 1 1299 1298 1311
2800 2 1298 1299 1300
2801 3 1298 1299 1306
2802 2 1300 1299 1306
2803 4 1299 1300 1301
2804 4 1299 1300 1307
2805 5 1301 1300 1307
2806 6 1300 1301 1302
2807 5 1300 1301 568
2808 6 1302 1301 568
2809 1 1294 1303 1309
2810 6 1295 1304 1305
2811 5 1295 1304 523
2812 6 1305 1304 523
2813 1 1299 1306 1310
2814 6 1300 1307 1308
2815 5 1300 1307 517
2816 6 1308 1307 517
2817 7 1303 1309 1312
2818 7 1303 1309 1313
2819 7 1303 1309 1624
2820 7 1312 1309 1313
2821 7 1312 1309 1624
2822 7 1313 1309 1624
2823 7 1306 1310 1325
2824 7 1306 1310 1630
2825 7 1306 1310 1633
2826 7 1325 1310 1630
2827 7 1325 1310 1633
2828 7 1630 1310 1633
2829 7 1298 1311 1325
2830 7 1298 1311 1545
2831 7 1298 1311 1648
2832 7 1325 1311 1545
2833 7 1325 1311 1648
2834 7 1545 1311 1648
2835 8 1289 1312 1291
2836 8 1289 1312 1309
2837 8 1289 1312 1451
2838 8 1291 1312 1309
2839 8 1291 1312 1451
2840 8 1309 1312 1451
2841 1 1309 1313 1314
2842 2 1313 1314 1315
2843 3 1313 1314 1430
2844 2 1315 1314 1430
2845 4 1314 1315 1316
2846 4 1314 1315 1431
2847 5 1316 1315 1431
2848 6 1315 1316 1317
2849 5 1315 1316 1243
2850 6 1317 1316 1243
2851 7 1319 1318 1320
2852 7 1319 1318 1627
2853 7 1319 1318 1645
2854 7 1320 1318 1627
2855 7 1320 1318 1645
2856 7 1627 1318 1645
2857 8 1318 1319 1328
2858 8 1318 1319 1330
2859 8 1318 1319 1445
2860 8 1328 1319 1330
2861 8 1328 1319 1445
2862 8 1330 1319 1445
2863 1 1318 1320 1321
2864 2 1320 1321 1322
2865 3 1320 1321 1427
2866 2 1322 1321 1427
2867 4 1321 1322 1323
2868 4 1321 1322 1428
2869 5 1323 1322 1428
2870 6 1322 1323 1324
2871 5 1322 1323 1241
2872 6 1324 1323 1241
2873 8 1310 1325 1311
2874 8 1310 1325 1329
2875 8 1310 1325 1439
2876 8 1311 1325 1329
2877 8 1311 1325 1439
2878 8 1329 1325 1439
2879 7 1327 1326 1621
2880 7 1327 1326 1634
2881 7 1327 1326 1646
2882 7 1621 1326 1634
2883 7 1621 1326 1646
2884 7 1634 1326 1646
2885 8 1290 1327 1292
2886 8 1290 1327 1326
2887 8 1290 1327 1433
2888 8 1292 1327 1326
2889 8 1292 1327 1433
2890 8 1326 1327 1433
2891 7 1319 1328 1427
2892 7 1319 1328 1462
2893 7 1319 1328 1635
2894 7 1427 1328 1462
2895 7 1427 1328 1635
2896 7 1462 1328 1635
2897 7 1325 1329 1472
2898 7 1325 1329 1636
2899 7 1325 1329 1643
2900 7 1472 1329 1636
2901 7 1472 1329 1643
2902 7 1636 1329 1643
2903 7 1319 1330 1551
2904 7 1319 1330 1638
2905 7 1319 1330 1647
2906 7 1551 1330 1638
2907 7 1551 1330 1647
2908 7 1638 1330 1647
2909 7 1332 1331 1409
2910 7 1332 1331 1536
2911 7 1332 1331 1639
2912 7 1409 1331 1536
2913 7 1409 1331 1639
2914 7 1536 1331 1639
2915 8 1331 1332 1349
2916 8 1331 1332 1373
2917 8 1331 1332 1515
2918 8 1349 1332 1373
2919 8 1349 1332 1515
2920 8 1373 1332 1515
2921 7 1334 1333 1403
2922 7 1334 1333 1539
2923 7 1334 1333 1640
2924 7 1403 1333 1539
2925 7 1403 1333 1640
2926 7 1539 1333 1640
2927 8 1333 1334 1361
2928 8 1333 1334 1391
2929 8 1333 1334 1503
2930 8 1361 1334 1391
2931 8 1361 1334 1503
2932 8 1391 1334 1503
2933 7 1336 1335 1337
2934 7 1336 1335 1412
2935 7 1336 1335 1542
2936 7 1337 1335 1412
2937 7 1337 1335 1542
2938 7 1412 1335 1542
2939 8 1335 1336 1367
2940 8 1335 1336 1379
2941 8 1335 1336 1497
2942 8 1367 1336 1379
2943 8 1367 1336 1497
2944 8 1379 1336 1497
2945 1 1335 1337 1338
2946 2 1337 1338 1339
2947 3 1337 1338 1397
2948 2 1339 1338 1397
2949 4 1338 1339 1340
2950 4 1338 1339 1398
2951 5 1340 1339 1398
2952 6 1339 1340 1341
2953 5 1339 1340 1247
2954 6 1341 1340 1247
2955 7 1343 1342 1344
2956 7 1343 1342 1406
2957 7 1343 1342 1533
2958 7 1344 1342 1406
2959 7 1344 1342 1533
2960 7 1406 1342 1533
2961 8 1342 1343 1355
2962 8 1342 1343 1385
2963 8 1342 1343 1509
2964 8 1355 1343 1385
2965 8 1355 1343 1509
2966 8 1385 1343 1509
2967 1 1342 1344 1345
2968 2 1344 1345 1346
2969 3 1344 1345 1400
2970 2 1346 1345 1400
2971 4 1345 1346 1347
2972 4 1345 1346 1401
2973 5 1347 1346 1401
2974 6 1346 1347 1348
2975 5 1346 1347 1245
2976 6 1348 1347 1245
2977 7 1332 1349 1350
2978 7 1332 1349 1599
2979 7 1332 1349 1642
2980 7 1350 1349 1599
2981 7 1350 1349 1642
2982 7 1599 1349 1642
2983 1 1349 1350 1351
2984 2 1350 1351 1352
2985 3 1350 1351 1424
2986 2 1352 1351 1424
2987 4 1351 1352 1353
2988 4 1351 1352 1425
2989 5 1353 1352 1425
2990 6 1352 1353 1354
2991 5 1352 1353 835
2992 6 1354 1353 835
2993 7 1343 1355 1356
2994 7 1343 1355 1400
2995 7 1343 1355 1589
2996 7 1356 1355 1400
2997 7 1356 1355 1589
2998 7 1400 1355 1589
2999 1 1355 1356 1357
3000 2 1356 1357 1358
3001 3 1356 1357 1421
3002 2 1358 1357 1421
3003 4 1357 1358 1359
3004 4 1357 1358 1422
3005 5 1359 1358 1422
3006 6 1358 1359 1360
3007 5 1358 1359 833
3008 6 1360 1359 833
3009 7 1334 1361 1362
3010 7 1334 1361 1594
3011 7 1334 1361 1641
3012 7 1362 1361 1594
3013 7 1362 1361 1641
3014 7 1594 1361 1641
3015 1 1361 1362 1363
3016 2 1362 1363 1364
3017 3 1362 1363 1415
3018 2 1364 1363 1415
3019 4 1363 1364 1365
3020 4 1363 1364 1416
3021 5 1365 1364 1416
3022 5 459 1365 1364
3023 6 459 1365 1366
3024 6 1364 1365 1366
3025 7 1336 1367 1368
3026 7 1336 1367 1397
3027 7 1336 1367 1604
3028 7 1368 1367 1397
3029 7 1368 1367 1604
3030 7 1397 1367 1604
3031 1 1367 1368 1369
3032 2 1368 1369 1370
3033 3 1368 1369 1418
3034 2 1370 1369 1418
3035 4 1369 1370 1371
3036 4 1369 1370 1419
3037 5 1371 1370 1419
3038 5 456 1371 1370
3039 6 456 1371 1372
3040 6 1370 1371 1372
3041 7 1332 1373 1374
3042 7 1332 1373 1424
3043 7 1332 1373 1487
3044 7 1374 1373 1424
3045 7 1374 1373 1487
3046 7 1424 1373 1487
3047 1 1373 1374 1375
3048 2 1374 1375 1376
3049 3 1374 1375 1409
3050 2 1376 1375 1409
3051 4 1375 1376 1377
3052 4 1375 1376 1410
3053 5 1377 1376 1410
3054 6 1376 1377 1378
3055 5 1376 1377 3391
3056 6 1378 1377 3391
3057 7 1336 1379 1380
3058 7 1336 1379 1418
3059 7 1336 1379 1477
3060 7 1380 1379 1418
3061 7 1380 1379 1477
3062 7 1418 1379 1477
3063 1 1379 1380 1381
3064 2 1380 1381 1382
3065 3 1380 1381 1412
3066 2 1382 1381 1412
3067 4 1381 1382 1383
3068 4 1381 1382 1413
3069 5 1383 1382 1413
3070 6 1382 1383 1384
3071 5 1382 1383 3389
3072 6 1384 1383 3389
3073 7 1343 1385 1386
3074 7 1343 1385 1421
3075 7 1343 1385 1482
3076 7 1386 1385 1421
3077 7 1386 1385 1482
3078 7 1421 1385 1482
3079 1 1385 1386 1387
3080 2 1386 1387 1388
3081 3 1386 1387 1406
3082 2 1388 1387 1406
3083 4 1387 1388 1389
3084 4 1387 1388 1407
3085 5 1389 1388 1407
3086 5 2983 1389 1388
3087 6 2983 1389 1390
3088 6 1388 1389 1390
3089 7 1334 1391 1392
3090 7 1334 1391 1415
3091 7 1334 1391 1492
3092 7 1392 1391 1415
3093 7 1392 1391 1492
3094 7 1415 1391 1492
3095 1 1391 1392 1393
3096 2 1392 1393 1394
3097 3 1392 1393 1403
3098 2 1394 1393 1403
3099 4 1393 1394 1395
3100 4 1393 1394 1404
3101 5 1395 1394 1404
3102 5 2980 1395 1394
3103 6 2980 1395 1396
3104 6 1394 1395 1396
3105 1 1338 1397 1367
3106 6 1339 1398 1399
3107 5 1339 1398 1231
3108 6 1399 1398 1231
3109 1 1345 1400 1355
3110 6 1346 1401 1402
3111 5 1346 1401 1227
3112 6 1402 1401 1227
3113 1 1333 1403 1393
3114 5 2977 1404 1394
3115 6 2977 1404 1405
3116 6 1394 1404 1405
3117 1 1342 1406 1387
3118 5 2972 1407 1388
3119 6 2972 1407 1408
3120 6 1388 1407 1408
3121 1 1331 1409 1375
3122 6 1376 1410 1411
3123 5 1376 1410 3387
3124 6 1411 1410 3387
3125 1 1335 1412 1381
3126 6 1382 1413 1414
3127 5 1382 1413 3383
3128 6 1414 1413 3383
3129 1 1363 1415 1391
3130 5 453 1416 1364
3131 6 453 1416 1417
3132 6 1364 1416 1417
3133 1 1369 1418 1379
3134 5 448 1419 1370
3135 6 448 1419 1420
3136 6 1370 1419 1420
3137 1 1357 1421 1385
3138 6 1358 1422 1423
3139 5 1358 1422 831
3140 6 1423 1422 831
3141 1 1351 1424 1373
3142 6 1352 1425 1426
3143 5 1352 1425 827
3144 6 1426 1425 827
3145 1 1321 1427 1328
3146 6 1322 1428 1429
3147 5 1322 1428 1239
3148 6 1429 1428 1239
3149 1 1289 1430 1314
3150 6 1315 1431 1432
3151 5 1315 1431 1235
3152 6 1432 1431 1235
3153 7 1327 1433 1434
3154 7 1327 1433 1563
3155 7 1327 1433 1579
3156 7 1434 1433 1563
3157 7 1434 1433 1579
3158 7 1563 1433 1579
3159 1 1433 1434 1435
3160 2 1434 1435 1436
3161 3 1434 1435 1548
3162 2 1436 1435 1548
3163 4 1435 1436 1437
3164 4 1435 1436 1549
3165 5 1437 1436 1549
3166 6 1436 1437 1438
3167 5 1436 1437 1525
3168 6 1438 1437 1525
3169 7 1325 1439 1440
3170 7 1325 1439 1557
3171 7 1325 1439 1569
3172 7 1440 1439 1557
3173 7 1440 1439 1569
3174 7 1557 1439 1569
3175 1 1439 1440 1441
3176 2 1440 1441 1442
3177 3 1440 1441 1545
3178 2 1442 1441 1545
3179 4 1441 1442 1443
3180 4 1441 1442 1546
3181 5 1443 1442 1546
3182 6 1442 1443 1444
3183 5 1442 1443 1522
3184 6 1444 1443 1522
3185 7 1319 1445 1446
3186 7 1319 1445 1566
3187 7 1319 1445 1574
3188 7 1446 1445 1566
3189 7 1446 1445 1574
3190 7 1566 1445 1574
3191 1 1445 1446 1447
3192 2 1446 1447 1448
3193 3 1446 1447 1551
3194 2 1448 1447 1551
3195 4 1447 1448 1449
3196 4 1447 1448 1552
3197 5 1449 1448 1552
3198 6 1448 1449 1450
3199 5 1448 1449 1531
3200 6 1450 1449 1531
3201 7 1312 1451 1452
3202 7 1312 1451 1560
3203 7 1312 1451 1584
3204 7 1452 1451 1560
3205 7 1452 1451 1584
3206 7 1560 1451 1584
3207 1 1451 1452 1453
3208 2 1452 1453 1454
3209 3 1452 1453 1554
3210 2 1454 1453 1554
3211 4 1453 1454 1455
3212 4 1453 1454 1555
3213 5 1455 1454 1555
3214 6 1454 1455 1456
3215 5 1454 1455 1528
3216 6 1456 1455 1528
3217 1 1290 1457 1458
3218 2 1457 1458 1459
3219 3 1457 1458 1563
3220 2 1459 1458 1563
3221 4 1458 1459 1460
3222 4 1458 1459 1564
3223 5 1460 1459 1564
3224 6 1459 1460 1461
3225 5 1459 1460 1537
3226 6 1461 1460 1537
3227 1 1328 1462 1463
3228 2 1462 1463 1464
3229 3 1462 1463 1566
3230 2 1464 1463 1566
3231 4 1463 1464 1465
3232 4 1463 1464 1567
3233 5 1465 1464 1567
3234 6 1464 1465 1466
3235 5 1464 1465 1534
3236 6 1466 1465 1534
3237 1 1289 1467 1468
3238 2 1467 1468 1469
3239 3 1467 1468 1560
3240 2 1469 1468 1560
3241 4 1468 1469 1470
3242 4 1468 1469 1561
3243 5 1470 1469 1561
3244 6 1469 1470 1471
3245 5 1469 1470 1543
3246 6 1471 1470 1543
3247 1 1329 1472 1473
3248 2 1472 1473 1474
3249 3 1472 1473 1557
3250 2 1474 1473 1557
3251 4 1473 1474 1475
3252 4 1473 1474 1558
3253 5 1475 1474 1558
3254 6 1474 1475 1476
3255 5 1474 1475 1540
3256 6 1476 1475 1540
3257 1 1379 1477 1478
3258 2 1477 1478 1479
3259 3 1477 1478 1524
3260 2 1479 1478 1524
3261 4 1478 1479 1480
3262 4 1478 1479 1525
3263 5 1480 1479 1525
3264 6 1479 1480 1481
3265 5 1479 1480 1549
3266 6 1481 1480 1549
3267 1 1385 1482 1483
3268 2 1482 1483 1484
3269 3 1482 1483 1521
3270 2 1484 1483 1521
3271 4 1483 1484 1485
3272 4 1483 1484 1522
3273 5 1485 1484 1522
3274 6 1484 1485 1486
3275 5 1484 1485 1546
3276 6 1486 1485 1546
3277 1 1373 1487 1488
3278 2 1487 1488 1489
3279 3 1487 1488 1527
3280 2 1489 1488 1527
3281 4 1488 1489 1490
3282 4 1488 1489 1528
3283 5 1490 1489 1528
3284 6 1489 1490 1491
3285 5 1489 1490 1555
3286 6 1491 1490 1555
3287 1 1391 1492 1493
3288 2 1492 1493 1494
3289 3 1492 1493 1530
3290 2 1494 1493 1530
3291 4 1493 1494 1495
3292 4 1493 1494 1531
3293 5 1495 1494 1531
3294 6 1494 1495 1496
3295 5 1494 1495 1552
3296 6 1496 1495 1552
3297 7 1336 1497 1498
3298 7 1336 1497 1524
3299 7 1336 1497 1609
3300 7 1498 1497 1524
3301 7 1498 1497 1609
3302 7 1524 1497 1609
3303 1 1497 1498 1499
3304 2 1498 1499 1500
3305 3 1498 1499 1542
3306 2 1500 1499 1542
3307 4 1499 1500 1501
3308 4 1499 1500 1543
3309 5 1501 1500 1543
3310 6 1500 1501 1502
3311 5 1500 1501 1561
3312 6 1502 1501 1561
3313 7 1334 1503 1504
3314 7 1334 1503 1530
3315 7 1334 1503 1618
3316 7 1504 1503 1530
3317 7 1504 1503 1618
3318 7 1530 1503 1618
3319 1 1503 1504 1505
3320 2 1504 1505 1506
3321 3 1504 1505 1539
3322 2 1506 1505 1539
3323 4 1505 1506 1507
3324 4 1505 1506 1540
3325 5 1507 1506 1540
3326 6 1506 1507 1508
3327 5 1506 1507 1558
3328 6 1508 1507 1558
3329 7 1343 1509 1510
3330 7 1343 1509 1521
3331 7 1343 1509 1615
3332 7 1510 1509 1521
3333 7 1510 1509 1615
3334 7 1521 1509 1615
3335 1 1509 1510 1511
3336 2 1510 1511 1512
3337 3 1510 1511 1533
3338 2 1512 1511 1533
3339 4 1511 1512 1513
3340 4 1511 1512 1534
3341 5 1513 1512 1534
3342 6 1512 1513 1514
3343 5 1512 1513 1567
3344 6 1514 1513 1567
3345 7 1332 1515 1516
3346 7 1332 1515 1527
3347 7 1332 1515 1612
3348 7 1516 1515 1527
3349 7 1516 1515 1612
3350 7 1527 1515 1612
3351 1 1515 1516 1517
3352 2 1516 1517 1518
3353 3 1516 1517 1536
3354 2 1518 1517 1536
3355 4 1517 1518 1519
3356 4 1517 1518 1537
3357 5 1519 1518 1537
3358 6 1518 1519 1520
3359 5 1518 1519 1564
3360 6 1520 1519 1564
3361 1 1483 1521 1509
3362 5 1443 1522 1484
3363 6 1443 1522 1523
3364 6 1484 1522 1523
3365 1 1478 1524 1497
3366 5 1437 1525 1479
3367 6 1437 1525 1526
3368 6 1479 1525 1526
3369 1 1488 1527 1515
3370 5 1455 1528 1489
3371 6 1455 1528 1529
3372 6 1489 1528 1529
3373 1 1493 1530 1503
3374 5 1449 1531 1494
3375 6 1449 1531 1532
3376 6 1494 1531 1532
3377 1 1342 1533 1511
3378 5 1465 1534 1512
3379 6 1465 1534 1535
3380 6 1512 1534 1535
3381 1 1331 1536 1517
3382 5 1460 1537 1518
3383 6 1460 1537 1538
3384 6 1518 1537 1538
3385 1 1333 1539 1505
3386 5 1475 1540 1506
3387 6 1475 1540 1541
3388 6 1506 1540 1541
3389 1 1335 1542 1499
3390 5 1470 1543 1500
3391 6 1470 1543 1544
3392 6 1500 1543 1544
3393 1 1311 1545 1441
3394 5 1442 1546 1485
3395 6 1442 1546 1547
3396 6 1485 1546 1547
3397 1 1292 1548 1435
3398 5 1436 1549 1480
3399 6 1436 1549 1550
3400 6 1480 1549 1550
3401 1 1330 1551 1447
3402 5 1448 1552 1495
3403 6 1448 1552 1553
3404 6 1495 1552 1553
3405 1 1291 1554 1453
3406 5 1454 1555 1490
3407 6 1454 1555 1556
3408 6 1490 1555 1556
3409 1 1439 1557 1473
3410 5 1474 1558 1507
3411 6 1474 1558 1559
3412 6 1507 1558 1559
3413 1 1451 1560 1468
3414 5 1469 1561 1501
3415 6 1469 1561 1562
3416 6 1501 1561 1562
3417 1 1433 1563 1458
3418 5 1459 1564 1519
3419 6 1459 1564 1565
3420 6 1519 1564 1565
3421 1 1445 1566 1463
3422 5 1464 1567 1513
3423 6 1464 1567 1568
3424 6 1513 1567 1568
3425 1 1439 1569 1570
3426 2 1569 1570 1571
3427 3 1569 1570 1630
3428 2 1571 1570 1630
3429 4 1570 1571 1572
3430 4 1570 1571 1631
3431 5 1572 1571 1631
3432 6 1571 1572 1573
3433 5 1571 1572 1613
3434 6 1573 1572 1613
3435 1 1445 1574 1575
3436 2 1574 1575 1576
3437 3 1574 1575 1627
3438 2 1576 1575 1627
3439 4 1575 1576 1577
3440 4 1575 1576 1628
3441 5 1577 1576 1628
3442 6 1576 1577 1578
3443 5 1576 1577 1610
3444 6 1578 1577 1610
3445 1 1433 1579 1580
3446 2 1579 1580 1581
3447 3 1579 1580 1621
3448 2 1581 1580 1621
3449 4 1580 1581 1582
3450 4 1580 1581 1622
3451 5 1582 1581 1622
3452 6 1581 1582 1583
3453 5 1581 1582 1619
3454 6 1583 1582 1619
3455 1 1451 1584 1585
3456 2 1584 1585 1586
3457 3 1584 1585 1624
3458 2 1586 1585 1624
3459 4 1585 1586 1587
3460 4 1585 1586 1625
3461 5 1587 1586 1625
3462 6 1586 1587 1588
3463 5 1586 1587 1616
3464 6 1588 1587 1616
3465 1 1355 1589 1590
3466 2 1589 1590 1591
3467 3 1589 1590 1615
3468 2 1591 1590 1615
3469 4 1590 1591 1592
3470 4 1590 1591 1616
3471 5 1592 1591 1616
3472 6 1591 1592 1593
3473 5 1591 1592 1625
3474 6 1593 1592 1625
3475 1 1361 1594 1595
3476 2 1594 1595 1596
3477 3 1594 1595 1618
3478 2 1596 1595 1618
3479 4 1595 1596 1597
3480 4 1595 1596 1619
3481 5 1597 1596 1619
3482 6 1596 1597 1598
3483 5 1596 1597 1622
3484 6 1598 1597 1622
3485 1 1349 1599 1600
3486 2 1599 1600 1601
3487 3 1599 1600 1612
3488 2 1601 1600 1612
3489 4 1600 1601 1602
3490 4 1600 1601 1613
3491 5 1602 1601 1613
3492 6 1601 1602 1603
3493 5 1601 1602 1631
3494 6 1603 1602 1631
3495 1 1367 1604 1605
3496 2 1604 1605 1606
3497 3 1604 1605 1609
3498 2 1606 1605 1609
3499 4 1605 1606 1607
3500 4 1605 1606 1610
3501 5 1607 1606 1610
3502 6 1606 1607 1608
3503 5 1606 1607 1628
3504 6 1608 1607 1628
3505 1 1497 1609 1605
3506 5 1577 1610 1606
3507 6 1577 1610 1611
3508 6 1606 1610 1611
3509 1 1515 1612 1600
3510 5 1572 1613 1601
3511 6 1572 1613 1614
3512 6 1601 1613 1614
3513 1 1509 1615 1590
3514 5 1587 1616 1591
3515 6 1587 1616 1617
3516 6 1591 1616 1617
3517 1 1503 1618 1595
3518 5 1582 1619 1596
3519 6 1582 1619 1620
3520 6 1596 1619 1620
3521 1 1326 1621 1580
3522 5 1581 1622 1597
3523 6 1581 1622 1623
3524 6 1597 1622 1623
3525 1 1309 1624 1585
3526 5 1586 1625 1592
3527 6 1586 1625 1626
3528 6 1592 1625 1626
3529 1 1318 1627 1575
3530 5 1576 1628 1607
3531 6 1576 1628 1629
3532 6 1607 1628 1629
3533 1 1310 1630 1570
3534 5 1571 1631 1602
3535 6 1571 1631 1632
3536 6 1602 1631 1632
3537 1 1310 1633 1649
3538 1 1326 1634 1653
3539 1 1328 1635 1685
3540 1 1329 1636 1689
3541 1 1292 1637 1673
3542 1 1330 1638 1677
3543 1 1331 1639 1657
3544 1 1333 1640 1661
3545 1 1361 1641 1661
3546 1 1349 1642 1657
3547 1 1329 1643 1649
3548 1 1290 1644 1653
3549 1 1318 1645 1677
3550 1 1326 1646 1673
3551 1 1330 1647 1685
3552 1 1311 1648 1689
3553 3 1633 1649 1643
3554 2 1633 1649 1650
3555 2 1643 1649 1650
3556 4 1649 1650 1651
3557 4 1649 1650 1669
3558 5 1651 1650 1669
3559 5 977 1651 1650
3560 6 977 1651 1652
3561 6 1650 1651 1652
3562 3 1634 1653 1644
3563 2 1634 1653 1654
3564 2 1644 1653 1654
3565 4 1653 1654 1655
3566 4 1653 1654 1671
3567 5 1655 1654 1671
3568 5 974 1655 1654
3569 6 974 1655 1656
3570 6 1654 1655 1656
3571 3 1639 1657 1642
3572 2 1639 1657 1658
3573 2 1642 1657 1658
3574 4 1657 1658 1659
3575 4 1657 1658 1667
3576 5 1659 1658 1667
3577 5 1007 1659 1658
3578 6 1007 1659 1660
3579 6 1658 1659 1660
3580 3 1640 1661 1641
3581 2 1640 1661 1662
3582 2 1641 1661 1662
3583 4 1661 1662 1663
3584 4 1661 1662 1665
3585 5 1663 1662 1665
3586 5 1004 1663 1662
3587 6 1004 1663 1664
3588 6 1662 1663 1664
3589 5 899 1665 1662
3590 6 899 1665 1666
3591 6 1662 1665 1666
3592 5 892 1667 1658
3593 6 892 1667 1668
3594 6 1658 1667 1668
3595 5 923 1669 1650
3596 6 923 1669 1670
3597 6 1650 1669 1670
3598 5 916 1671 1654
3599 6 916 1671 1672
3600 6 1654 1671 1672
3601 3 1637 1673 1646
3602 2 1637 1673 1674
3603 2 1646 1673 1674
3604 4 1673 1674 1675
3605 4 1673 1674 1683
3606 5 1675 1674 1683
3607 5 577 1675 1674
3608 6 577 1675 1676
3609 6 1674 1675 1676
3610 3 1638 1677 1645
3611 2 1638 1677 1678
3612 2 1645 1677 1678
3613 4 1677 1678 1679
3614 4 1677 1678 1681
3615 5 1679 1678 1681
3616 5 574 1679 1678
3617 6 574 1679 1680
3618 6 1678 1679 1680
3619 5 511 1681 1678
3620 6 511 1681 1682
3621 6 1678 1681 1682
3622 5 505 1683 1674
3623 6 505 1683 1684
3624 6 1674 1683 1684
3625 3 1635 1685 1647
3626 2 1635 1685 1686
3627 2 1647 1685 1686
3628 4 1685 1686 1687
3629 4 1685 1686 1693
3630 5 1687 1686 1693
3631 5 3109 1687 1686
3632 6 3109 1687 1688
3633 6 1686 1687 1688
3634 3 1636 1689 1648
3635 2 1636 1689 1690
3636 2 1648 1689 1690
3637 4 1689 1690 1691
3638 4 1689 1690 1695
3639 5 1691 1690 1695
3640 5 3106 1691 1690
3641 6 3106 1691 1692
3642 6 1690 1691 1692
3643 5 3079 1693 1686
3644 6 3079 1693 1694
3645 6 1686 1693 1694
3646 5 3073 1695 1690
3647 6 3073 1695 1696
3648 6 1690 1695 1696
3649 1 1698 1697 1713
3650 2 1697 1698 1699
3651 3 1697 1698 1710
3652 2 1699 1698 1710
3653 4 1698 1699 1700
3654 4 1698 1699 1711
3655 5 1700 1699 1711
3656 6 1699 1700 1701
3657 5 1699 1700 135
3658 6 1701 1700 135
3659 1 1703 1702 1714
3660 2 1702 1703 1704
3661 3 1702 1703 1707
3662 2 1704 1703 1707
3663 4 1703 1704 1705
3664 4 1703 1704 1708
3665 5 1705 1704 1708
3666 6 1704 1705 1706
3667 5 1704 1705 132
3668 6 1706 1705 132
3669 1 1703 1707 1716
3670 6 1704 1708 1709
3671 5 1704 1708 123
3672 6 1709 1708 123
3673 1 1698 1710 1715
3674 6 1699 1711 1712
3675 5 1699 1711 117
3676 6 1712 1711 117
3677 7 1697 1713 1736
3678 7 1697 1713 1854
3679 7 1697 1713 1891
3680 7 1736 1713 1854
3681 7 1736 1713 1891
3682 7 1854 1713 1891
3683 7 1702 1714 1751
3684 7 1702 1714 1881
3685 7 1702 1714 2068
3686 7 1751 1714 1881
3687 7 1751 1714 2068
3688 7 1881 1714 2068
3689 7 1710 1715 1717
3690 7 1710 1715 1736
3691 7 1710 1715 1978
3692 7 1717 1715 1736
3693 7 1717 1715 1978
3694 7 1736 1715 1978
3695 7 1707 1716 1751
3696 7 1707 1716 1972
3697 7 1707 1716 2061
3698 7 1751 1716 1972
3699 7 1751 1716 2061
3700 7 1972 1716 2061
3701 1 1715 1717 1718
3702 2 1717 1718 1719
3703 3 1717 1718 1727
3704 2 1719 1718 1727
3705 4 1718 1719 1720
3706 4 1718 1719 1728
3707 5 1720 1719 1728
3708 6 1719 1720 1721
3709 5 1719 1720 2691
3710 6 1721 1720 2691
3711 1 1723 1722 1735
3712 2 1722 1723 1724
3713 3 1722 1723 1730
3714 2 1724 1723 1730
3715 4 1723 1724 1725
3716 4 1723 1724 1731
3717 5 1725 1724 1731
3718 6 1724 1725 1726
3719 5 1724 1725 2688
3720 6 1726 1725 2688
3721 1 1718 1727 1733
3722 6 1719 1728 1729
3723 5 1719 1728 2643
3724 6 1729 1728 2643
3725 1 1723 1730 1734
3726 6 1724 1731 1732
3727 5 1724 1731 2637
3728 6 1732 1731 2637
3729 7 1727 1733 1736
3730 7 1727 1733 1737
3731 7 1727 1733 2048
3732 7 1736 1733 1737
3733 7 1736 1733 2048
3734 7 1737 1733 2048
3735 7 1730 1734 1749
3736 7 1730 1734 2054
3737 7 1730 1734 2057
3738 7 1749 1734 2054
3739 7 1749 1734 2057
3740 7 2054 1734 2057
3741 7 1722 1735 1749
3742 7 1722 1735 1969
3743 7 1722 1735 2072
3744 7 1749 1735 1969
3745 7 1749 1735 2072
3746 7 1969 1735 2072
3747 8 1713 1736 1715
3748 8 1713 1736 1733
3749 8 1713 1736 1875
3750 8 1715 1736 1733
3751 8 1715 1736 1875
3752 8 1733 1736 1875
3753 1 1733 1737 1738
3754 2 1737 1738 1739
3755 3 1737 1738 1854
3756 2 1739 1738 1854
3757 4 1738 1739 1740
3758 4 1738 1739 1855
3759 5 1740 1739 1855
3760 6 1739 1740 1741
3761 5 1739 1740 2515
3762 6 1741 1740 2515
3763 7 1743 1742 1744
3764 7 1743 1742 2051
3765 7 1743 1742 2069
3766 7 1744 1742 2051
3767 7 1744 1742 2069
3768 7 2051 1742 2069
3769 8 1742 1743 1752
3770 8 1742 1743 1754
3771 8 1742 1743 1869
3772 8 1752 1743 1754
3773 8 1752 1743 1869
3774 8 1754 1743 1869
3775 1 1742 1744 1745
3776 2 1744 1745 1746
3777 3 1744 1745 1851
3778 2 1746 1745 1851
3779 4 1745 1746 1747
3780 4 1745 1746 1852
3781 5 1747 1746 1852
3782 6 1746 1747 1748
3783 5 1746 1747 2513
3784 6 1748 1747 2513
3785 8 1734 1749 1735
3786 8 1734 1749 1753
3787 8 1734 1749 1863
3788 8 1735 1749 1753
3789 8 1735 1749 1863
3790 8 1753 1749 1863
3791 7 1751 1750 2045
3792 7 1751 1750 2058
3793 7 1751 1750 2070
3794 7 2045 1750 2058
3795 7 2045 1750 2070
3796 7 2058 1750 2070
3797 8 1714 1751 1716
3798 8 1714 1751 1750
3799 8 1714 1751 1857
3800 8 1716 1751 1750
3801 8 1716 1751 1857
3802 8 1750 1751 1857
3803 7 1743 1752 1851
3804 7 1743 1752 1886
3805 7 1743 1752 2059
3806 7 1851 1752 1886
3807 7 1851 1752 2059
3808 7 1886 1752 2059
3809 7 1749 1753 1896
3810 7 1749 1753 2060
3811 7 1749 1753 2067
3812 7 1896 1753 2060
3813 7 1896 1753 2067
3814 7 2060 1753 2067
3815 7 1743 1754 1975
3816 7 1743 1754 2062
3817 7 1743 1754 2071
3818 7 1975 1754 2062
3819 7 1975 1754 2071
3820 7 2062 1754 2071
3821 7 1756 1755 1833
3822 7 1756 1755 1960
3823 7 1756 1755 2063
3824 7 1833 1755 1960
3825 7 1833 1755 2063
3826 7 1960 1755 2063
3827 8 1755 1756 1773
3828 8 1755 1756 1797
3829 8 1755 1756 1939
3830 8 1773 1756 1797
3831 8 1773 1756 1939
3832 8 1797 1756 1939
3833 7 1758 1757 1827
3834 7 1758 1757 1963
3835 7 1758 1757 2064
3836 7 1827 1757 1963
3837 7 1827 1757 2064
3838 7 1963 1757 2064
3839 8 1757 1758 1785
3840 8 1757 1758 1815
3841 8 1757 1758 1927
3842 8 1785 1758 1815
3843 8 1785 1758 1927
3844 8 1815 1758 1927
3845 7 1760 1759 1761
3846 7 1760 1759 1836
3847 7 1760 1759 1966
3848 7 1761 1759 1836
3849 7 1761 1759 1966
3850 7 1836 1759 1966
3851 8 1759 1760 1791
3852 8 1759 1760 1803
3853 8 1759 1760 1921
3854 8 1791 1760 1803
3855 8 1791 1760 1921
3856 8 1803 1760 1921
3857 1 1759 1761 1762
3858 2 1761 1762 1763
3859 3 1761 1762 1821
3860 2 1763 1762 1821
3861 4 1762 1763 1764
3862 4 1762 1763 1822
3863 5 1764 1763 1822
3864 6 1763 1764 1765
3865 5 1763 1764 2519
3866 6 1765 1764 2519
3867 7 1767 1766 1768
3868 7 1767 1766 1830
3869 7 1767 1766 1957
3870 7 1768 1766 1830
3871 7 1768 1766 1957
3872 7 1830 1766 1957
3873 8 1766 1767 1779
3874 8 1766 1767 1809
3875 8 1766 1767 1933
3876 8 1779 1767 1809
3877 8 1779 1767 1933
3878 8 1809 1767 1933
3879 1 1766 1768 1769
3880 2 1768 1769 1770
3881 3 1768 1769 1824
3882 2 1770 1769 1824
3883 4 1769 1770 1771
3884 4 1769 1770 1825
3885 5 1771 1770 1825
3886 6 1770 1771 1772
3887 5 1770 1771 2517
3888 6 1772 1771 2517
3889 7 1756 1773 1774
3890 7 1756 1773 2023
3891 7 1756 1773 2066
3892 7 1774 1773 2023
3893 7 1774 1773 2066
3894 7 2023 1773 2066
3895 1 1773 1774 1775
3896 2 1774 1775 1776
3897 3 1774 1775 1848
3898 2 1776 1775 1848
3899 4 1775 1776 1777
3900 4 1775 1776 1849
3901 5 1777 1776 1849
3902 6 1776 1777 1778
3903 5 1776 1777 2955
3904 6 1778 1777 2955
3905 7 1767 1779 1780
3906 7 1767 1779 1824
3907 7 1767 1779 2013
3908 7 1780 1779 1824
3909 7 1780 1779 2013
3910 7 1824 1779 2013
3911 1 1779 1780 1781
3912 2 1780 1781 1782
3913 3 1780 1781 1845
3914 2 1782 1781 1845
3915 4 1781 1782 1783
3916 4 1781 1782 1846
3917 5 1783 1782 1846
3918 6 1782 1783 1784
3919 5 1782 1783 2953
3920 6 1784 1783 2953
3921 7 1758 1785 1786
3922 7 1758 1785 2018
3923 7 1758 1785 2065
3924 7 1786 1785 2018
3925 7 1786 1785 2065
3926 7 2018 1785 2065
3927 1 1785 1786 1787
3928 2 1786 1787 1788
3929 3 1786 1787 1839
3930 2 1788 1787 1839
3931 4 1787 1788 1789
3932 4 1787 1788 1840
3933 5 1789 1788 1840
3934 5 2579 1789 1788
3935 6 2579 1789 1790
3936 6 1788 1789 1790
3937 7 1760 1791 1792
3938 7 1760 1791 1821
3939 7 1760 1791 2028
3940 7 1792 1791 1821
3941 7 1792 1791 2028
3942 7 1821 1791 2028
3943 1 1791 1792 1793
3944 2 1792 1793 1794
3945 3 1792 1793 1842
3946 2 1794 1793 1842
3947 4 1793 1794 1795
3948 4 1793 1794 1843
3949 5 1795 1794 1843
3950 5 2576 1795 1794
3951 6 2576 1795 1796
3952 6 1794 1795 1796
3953 7 1756 1797 1798
3954 7 1756 1797 1848
3955 7 1756 1797 1911
3956 7 1798 1797 1848
3957 7 1798 1797 1911
3958 7 1848 1797 1911
3959 1 1797 1798 1799
3960 2 1798 1799 1800
3961 3 1798 1799 1833
3962 2 1800 1799 1833
3963 4 1799 1800 1801
3964 4 1799 1800 1834
3965 5 1801 1800 1834
3966 6 1800 1801 1802
3967 5 1800 1801 423
3968 6 1802 1801 423
3969 7 1760 1803 1804
3970 7 1760 1803 1842
3971 7 1760 1803 1901
3972 7 1804 1803 1842
3973 7 1804 1803 1901
3974 7 1842 1803 1901
3975 1 1803 1804 1805
3976 2 1804 1805 1806
3977 3 1804 1805 1836
3978 2 1806 1805 1836
3979 4 1805 1806 1807
3980 4 1805 1806 1837
3981 5 1807 1806 1837
3982 6 1806 1807 1808
3983 5 1806 1807 421
3984 6 1808 1807 421
3985 7 1767 1809 1810
3986 7 1767 1809 1845
3987 7 1767 1809 1906
3988 7 1810 1809 1845
3989 7 1810 1809 1906
3990 7 1845 1809 1906
3991 1 1809 1810 1811
3992 2 1810 1811 1812
3993 3 1810 1811 1830
3994 2 1812 1811 1830
3995 4 1811 1812 1813
3996 4 1811 1812 1831
3997 5 1813 1812 1831
3998 5 15 1813 1812
3999 6 15 1813 1814
4000 6 1812 1813 1814
4001 7 1758 1815 1816
4002 7 1758 1815 1839
4003 7 1758 1815 1916
4004 7 1816 1815 1839
4005 7 1816 1815 1916
4006 7 1839 1815 1916
4007 1 1815 1816 1817
4008 2 1816 1817 1818
4009 3 1816 1817 1827
4010 2 1818 1817 1827
4011 4 1817 1818 1819
4012 4 1817 1818 1828
4013 5 1819 1818 1828
4014 5 12 1819 1818
4015 6 12 1819 1820
4016 6 1818 1819 1820
4017 1 1762 1821 1791
4018 6 1763 1822 1823
4019 5 1763 1822 2503
4020 6 1823 1822 2503
4021 1 1769 1824 1779
4022 6 1770 1825 1826
4023 5 1770 1825 2499
4024 6 1826 1825 2499
4025 1 1757 1827 1817
4026 5 9 1828 1818
4027 6 9 1828 1829
4028 6 1818 1828 1829
4029 1 1766 1830 1811
4030 5 4 1831 1812
4031 6 4 1831 1832
4032 6 1812 1831 1832
4033 1 1755 1833 1799
4034 6 1800 1834 1835
4035 5 1800 1834 419
4036 6 1835 1834 419
4037 1 1759 1836 1805
4038 6 1806 1837 1838
4039 5 1806 1837 415
4040 6 1838 1837 415
4041 1 1787 1839 1815
4042 5 2573 1840 1788
4043 6 2573 1840 1841
4044 6 1788 1840 1841
4045 1 1793 1842 1803
4046 5 2568 1843 1794
4047 6 2568 1843 1844
4048 6 1794 1843 1844
4049 1 1781 1845 1809
4050 6 1782 1846 1847
4051 5 1782 1846 2951
4052 6 1847 1846 2951
4053 1 1775 1848 1797
4054 6 1776 1849 1850
4055 5 1776 1849 2947
4056 6 1850 1849 2947
4057 1 1745 1851 1752
4058 6 1746 1852 1853
4059 5 1746 1852 2511
4060 6 1853 1852 2511
4061 1 1713 1854 1738
4062 6 1739 1855 1856
4063 5 1739 1855 2507
4064 6 1856 1855 2507
4065 7 1751 1857 1858
4066 7 1751 1857 1987
4067 7 1751 1857 2003
4068 7 1858 1857 1987
4069 7 1858 1857 2003
4070 7 1987 1857 2003
4071 1 1857 1858 1859
4072 2 1858 1859 1860
4073 3 1858 1859 1972
4074 2 1860 1859 1972
4075 4 1859 1860 1861
4076 4 1859 1860 1973
4077 5 1861 1860 1973
4078 6 1860 1861 1862
4079 5 1860 1861 1949
4080 6 1862 1861 1949
4081 7 1749 1863 1864
4082 7 1749 1863 1981
4083 7 1749 1863 1993
4084 7 1864 1863 1981
4085 7 1864 1863 1993
4086 7 1981 1863 1993
4087 1 1863 1864 1865
4088 2 1864 1865 1866
4089 3 1864 1865 1969
4090 2 1866 1865 1969
4091 4 1865 1866 1867
4092 4 1865 1866 1970
4093 5 1867 1866 1970
4094 6 1866 1867 1868
4095 5 1866 1867 1946
4096 6 1868 1867 1946
4097 7 1743 1869 1870
4098 7 1743 1869 1990
4099 7 1743 1869 1998
4100 7 1870 1869 1990
4101 7 1870 1869 1998
4102 7 1990 1869 1998
4103 1 1869 1870 1871
4104 2 1870 1871 1872
4105 3 1870 1871 1975
4106 2 1872 1871 1975
4107 4 1871 1872 1873
4108 4 1871 1872 1976
4109 5 1873 1872 1976
4110 6 1872 1873 1874
4111 5 1872 1873 1955
4112 6 1874 1873 1955
4113 7 1736 1875 1876
4114 7 1736 1875 1984
4115 7 1736 1875 2008
4116 7 1876 1875 1984
4117 7 1876 1875 2008
4118 7 1984 1875 2008
4119 1 1875 1876 1877
4120 2 1876 1877 1878
4121 3 1876 1877 1978
4122 2 1878 1877 1978
4123 4 1877 1878 1879
4124 4 1877 1878 1979
4125 5 1879 1878 1979
4126 6 1878 1879 1880
4127 5 1878 1879 1952
4128 6 1880 1879 1952
4129 1 1714 1881 1882
4130 2 1881 1882 1883
4131 3 1881 1882 1987
4132 2 1883 1882 1987
4133 4 1882 1883 1884
4134 4 1882 1883 1988
4135 5 1884 1883 1988
4136 6 1883 1884 1885
4137 5 1883 1884 1961
4138 6 1885 1884 1961
4139 1 1752 1886 1887
4140 2 1886 1887 1888
4141 3 1886 1887 1990
4142 2 1888 1887 1990
4143 4 1887 1888 1889
4144 4 1887 1888 1991
4145 5 1889 1888 1991
4146 6 1888 1889 1890
4147 5 1888 1889 1958
4148 6 1890 1889 1958
4149 1 1713 1891 1892
4150 2 1891 1892 1893
4151 3 1891 1892 1984
4152 2 1893 1892 1984
4153 4 1892 1893 1894
4154 4 1892 1893 1985
4155 5 1894 1893 1985
4156 6 1893 1894 1895
4157 5 1893 1894 1967
4158 6 1895 1894 1967
4159 1 1753 1896 1897
4160 2 1896 1897 1898
4161 3 1896 1897 1981
4162 2 1898 1897 1981
4163 4 1897 1898 1899
4164 4 1897 1898 1982
4165 5 1899 1898 1982
4166 6 1898 1899 1900
4167 5 1898 1899 1964
4168 6 1900 1899 1964
4169 1 1803 1901 1902
4170 2 1901 1902 1903
4171 3 1901 1902 1948
4172 2 1903 1902 1948
4173 4 1902 1903 1904
4174 4 1902 1903 1949
4175 5 1904 1903 1949
4176 6 1903 1904 1905
4177 5 1903 1904 1973
4178 6 1905 1904 1973
4179 1 1809 1906 1907
4180 2 1906 1907 1908
4181 3 1906 1907 1945
4182 2 1908 1907 1945
4183 4 1907 1908 1909
4184 4 1907 1908 1946
4185 5 1909 1908 1946
4186 6 1908 1909 1910
4187 5 1908 1909 1970
4188 6 1910 1909 1970
4189 1 1797 1911 1912
4190 2 1911 1912 1913
4191 3 1911 1912 1951
4192 2 1913 1912 1951
4193 4 1912 1913 1914
4194 4 1912 1913 1952
4195 5 1914 1913 1952
4196 6 1913 1914 1915
4197 5 1913 1914 1979
4198 6 1915 1914 1979
4199 1 1815 1916 1917
4200 2 1916 1917 1918
4201 3 1916 1917 1954
4202 2 1918 1917 1954
4203 4 1917 1918 1919
4204 4 1917 1918 1955
4205 5 1919 1918 1955
4206 6 1918 1919 1920
4207 5 1918 1919 1976
4208 6 1920 1919 1976
4209 7 1760 1921 1922
4210 7 1760 1921 1948
4211 7 1760 1921 2033
4212 7 1922 1921 1948
4213 7 1922 1921 2033
4214 7 1948 1921 2033
4215 1 1921 1922 1923
4216 2 1922 1923 1924
4217 3 1922 1923 1966
4218 2 1924 1923 1966
4219 4 1923 1924 1925
4220 4 1923 1924 1967
4221 5 1925 1924 1967
4222 6 1924 1925 1926
4223 5 1924 1925 1985
4224 6 1926 1925 1985
4225 7 1758 1927 1928
4226 7 1758 1927 1954
4227 7 1758 1927 2042
4228 7 1928 1927 1954
4229 7 1928 1927 2042
4230 7 1954 1927 2042
4231 1 1927 1928 1929
4232 2 1928 1929 1930
4233 3 1928 1929 1963
4234 2 1930 1929 1963
4235 4 1929 1930 1931
4236 4 1929 1930 1964
4237 5 1931 1930 1964
4238 6 1930 1931 1932
4239 5 1930 1931 1982
4240 6 1932 1931 1982
4241 7 1767 1933 1934
4242 7 1767 1933 1945
4243 7 1767 1933 2039
4244 7 1934 1933 1945
4245 7 1934 1933 2039
4246 7 1945 1933 2039
4247 1 1933 1934 1935
4248 2 1934 1935 1936
4249 3 1934 1935 1957
4250 2 1936 1935 1957
4251 4 1935 1936 1937
4252 4 1935 1936 1958
4253 5 1937 1936 1958
4254 6 1936 1937 1938
4255 5 1936 1937 1991
4256 6 1938 1937 1991
4257 7 1756 1939 1940
4258 7 1756 1939 1951
4259 7 1756 1939 2036
4260 7 1940 1939 1951
4261 7 1940 1939 2036
4262 7 1951 1939 2036
4263 1 1939 1940 1941
4264 2 1940 1941 1942
4265 3 1940 1941 1960
4266 2 1942 1941 1960
4267 4 1941 1942 1943
4268 4 1941 1942 1961
4269 5 1943 1942 1961
4270 6 1942 1943 1944
4271 5 1942 1943 1988
4272 6 1944 1943 1988
4273 1 1907 1945 1933
4274 5 1867 1946 1908
4275 6 1867 1946 1947
4276 6 1908 1946 1947
4277 1 1902 1948 1921
4278 5 1861 1949 1903
4279 6 1861 1949 1950
4280 6 1903 1949 1950
4281 1 1912 1951 1939
4282 5 1879 1952 1913
4283 6 1879 1952 1953
4284 6 1913 1952 1953
4285 1 1917 1954 1927
4286 5 1873 1955 1918
4287 6 1873 1955 1956
4288 6 1918 1955 1956
4289 1 1766 1957 1935
4290 5 1889 1958 1936
4291 6 1889 1958 1959
4292 6 1936 1958 1959
4293 1 1755 1960 1941
4294 5 1884 1961 1942
4295 6 1884 1961 1962
4296 6 1942 1961 1962
4297 1 1757 1963 1929
4298 5 1899 1964 1930
4299 6 1899 1964 1965
4300 6 1930 1964 1965
4301 1 1759 1966 1923
4302 5 1894 1967 1924
4303 6 1894 1967 1968
4304 6 1924 1967 1968
4305 1 1735 1969 1865
4306 5 1866 1970 1909
4307 6 1866 1970 1971
4308 6 1909 1970 1971
4309 1 1716 1972 1859
4310 5 1860 1973 1904
4311 6 1860 1973 1974
4312 6 1904 1973 1974
4313 1 1754 1975 1871
4314 5 1872 1976 1919
4315 6 1872 1976 1977
4316 6 1919 1976 1977
4317 1 1715 1978 1877
4318 5 1878 1979 1914
4319 6 1878 1979 1980
4320 6 1914 1979 1980
4321 1 1863 1981 1897
4322 5 1898 1982 1931
4323 6 1898 1982 1983
4324 6 1931 1982 1983
4325 1 1875 1984 1892
4326 5 1893 1985 1925
4327 6 1893 1985 1986
4328 6 1925 1985 1986
4329 1 1857 1987 1882
4330 5 1883 1988 1943
4331 6 1883 1988 1989
4332 6 1943 1988 1989
4333 1 1869 1990 1887
4334 5 1888 1991 1937
4335 6 1888 1991 1992
4336 6 1937 1991 1992
4337 1 1863 1993 1994
4338 2 1993 1994 1995
4339 3 1993 1994 2054
4340 2 1995 1994 2054
4341 4 1994 1995 1996
4342 4 1994 1995 2055
4343 5 1996 1995 2055
4344 6 1995 1996 1997
4345 5 1995 1996 2037
4346 6 1997 1996 2037
4347 1 1869 1998 1999
4348 2 1998 1999 2000
4349 3 1998 1999 2051
4350 2 2000 1999 2051
4351 4 1999 2000 2001
4352 4 1999 2000 2052
4353 5 2001 2000 2052
4354 6 2000 2001 2002
4355 5 2000 2001 2034
4356 6 2002 2001 2034
4357 1 1857 2003 2004
4358 2 2003 2004 2005
4359 3 2003 2004 2045
4360 2 2005 2004 2045
4361 4 2004 2005 2006
4362 4 2004 2005 2046
4363 5 2006 2005 2046
4364 6 2005 2006 2007
4365 5 2005 2006 2043
4366 6 2007 2006 2043
4367 1 1875 2008 2009
4368 2 2008 2009 2010
4369 3 2008 2009 2048
4370 2 2010 2009 2048
4371 4 2009 2010 2011
4372 4 2009 2010 2049
4373 5 2011 2010 2049
4374 6 2010 2011 2012
4375 5 2010 2011 2040
4376 6 2012 2011 2040
4377 1 1779 2013 2014
4378 2 2013 2014 2015
4379 3 2013 2014 2039
4380 2 2015 2014 2039
4381 4 2014 2015 2016
4382 4 2014 2015 2040
4383 5 2016 2015 2040
4384 6 2015 2016 2017
4385 5 2015 2016 2049
4386 6 2017 2016 2049
4387 1 1785 2018 2019
4388 2 2018 2019 2020
4389 3 2018 2019 2042
4390 2 2020 2019 2042
4391 4 2019 2020 2021
4392 4 2019 2020 2043
4393 5 2021 2020 2043
4394 6 2020 2021 2022
4395 5 2020 2021 2046
4396 6 2022 2021 2046
4397 1 1773 2023 2024
4398 2 2023 2024 2025
4399 3 2023 2024 2036
4400 2 2025 2024 2036
4401 4 2024 2025 2026
4402 4 2024 2025 2037
4403 5 2026 2025 2037
4404 6 2025 2026 2027
4405 5 2025 2026 2055
4406 6 2027 2026 2055
4407 1 1791 2028 2029
4408 2 2028 2029 2030
4409 3 2028 2029 2033
4410 2 2030 2029 2033
4411 4 2029 2030 2031
4412 4 2029 2030 2034
4413 5 2031 2030 2034
4414 6 2030 2031 2032
4415 5 2030 2031 2052
4416 6 2032 2031 2052
4417 1 1921 2033 2029
4418 5 2001 2034 2030
4419 6 2001 2034 2035
4420 6 2030 2034 2035
4421 1 1939 2036 2024
4422 5 1996 2037 2025
4423 6 1996 2037 2038
4424 6 2025 2037 2038
4425 1 1933 2039 2014
4426 5 2011 2040 2015
4427 6 2011 2040 2041
4428 6 2015 2040 2041
4429 1 1927 2042 2019
4430 5 2006 2043 2020
4431 6 2006 2043 2044
4432 6 2020 2043 2044
4433 1 1750 2045 2004
4434 5 2005 2046 2021
4435 6 2005 2046 2047
4436 6 2021 2046 2047
4437 1 1733 2048 2009
4438 5 2010 2049 2016
4439 6 2010 2049 2050
4440 6 2016 2049 2050
4441 1 1742 2051 1999
4442 5 2000 2052 2031
4443 6 2000 2052 2053
4444 6 2031 2052 2053
4445 1 1734 2054 1994
4446 5 1995 2055 2026
4447 6 1995 2055 2056
4448 6 2026 2055 2056
4449 1 1734 2057 2073
4450 1 1750 2058 2077
4451 1 1752 2059 2109
4452 1 1753 2060 2113
4453 1 1716 2061 2097
4454 1 1754 2062 2101
4455 1 1755 2063 2081
4456 1 1757 2064 2085
4457 1 1785 2065 2085
4458 1 1773 2066 2081
4459 1 1753 2067 2073
4460 1 1714 2068 2077
4461 1 1742 2069 2101
4462 1 1750 2070 2097
4463 1 1754 2071 2109
4464 1 1735 2072 2113
4465 3 2057 2073 2067
4466 2 2057 2073 2074
4467 2 2067 2073 2074
4468 4 2073 2074 2075
4469 4 2073 2074 2093
4470 5 2075 2074 2093
4471 5 2249 2075 2074
4472 6 2249 2075 2076
4473 6 2074 2075 2076
4474 3 2058 2077 2068
4475 2 2058 2077 2078
4476 2 2068 2077 2078
4477 4 2077 2078 2079
4478 4 2077 2078 2095
4479 5 2079 2078 2095
4480 5 2246 2079 2078
4481 6 2246 2079 2080
4482 6 2078 2079 2080
4483 3 2063 2081 2066
4484 2 2063 2081 2082
4485 2 2066 2081 2082
4486 4 2081 2082 2083
4487 4 2081 2082 2091
4488 5 2083 2082 2091
4489 5 2279 2083 2082
4490 6 2279 2083 2084
4491 6 2082 2083 2084
4492 3 2064 2085 2065
4493 2 2064 2085 2086
4494 2 2065 2085 2086
4495 4 2085 2086 2087
4496 4 2085 2086 2089
4497 5 2087 2086 2089
4498 5 2276 2087 2086
4499 6 2276 2087 2088
4500 6 2086 2087 2088
4501 5 2171 2089 2086
4502 6 2171 2089 2090
4503 6 2086 2089 2090
4504 5 2164 2091 2082
4505 6 2164 2091 2092
4506 6 2082 2091 2092
4507 5 2195 2093 2074
4508 6 2195 2093 2094
4509 6 2074 2093 2094
4510 5 2188 2095 2078
4511 6 2188 2095 2096
4512 6 2078 2095 2096
4513 3 2061 2097 2070
4514 2 2061 2097 2098
4515 2 2070 2097 2098
4516 4 2097 2098 2099
4517 4 2097 2098 2107
4518 5 2099 2098 2107
4519 5 2697 2099 2098
4520 6 2697 2099 2100
4521 6 2098 2099 2100
4522 3 2062 2101 2069
4523 2 2062 2101 2102
4524 2 2069 2101 2102
4525 4 2101 2102 2103
4526 4 2101 2102 2105
4527 5 2103 2102 2105
4528 5 2694 2103 2102
4529 6 2694 2103 2104
4530 6 2102 2103 2104
4531 5 2631 2105 2102
4532 6 2631 2105 2106
4533 6 2102 2105 2106
4534 5 2625 2107 2098
4535 6 2625 2107 2108
4536 6 2098 2107 2108
4537 3 2059 2109 2071
4538 2 2059 2109 2110
4539 2 2071 2109 2110
4540 4 2109 2110 2111
4541 4 2109 2110 2117
4542 5 2111 2110 2117
4543 5 141 2111 2110
4544 6 141 2111 2112
4545 6 2110 2111 2112
4546 3 2060 2113 2072
4547 2 2060 2113 2114
4548 2 2072 2113 2114
4549 4 2113 2114 2115
4550 4 2113 2114 2119
4551 5 2115 2114 2119
4552 5 138 2115 2114
4553 6 138 2115 2116
4554 6 2114 2115 2116
4555 5 111 2117 2110
4556 6 111 2117 2118
4557 6 2110 2117 2118
4558 5 105 2119 2114
4559 6 105 2119 2120
4560 6 2114 2119 2120
4561 1 2122 2121 2137
4562 2 2121 2122 2123
4563 3 2121 2122 2134
4564 2 2123 2122 2134
4565 4 2122 2123 2124
4566 4 2122 2123 2135
4567 5 2124 2123 2135
4568 6 2123 2124 2125
4569 5 2123 2124 559
4570 6 2125 2124 559
4571 1 2127 2126 2138
4572 2 2126 2127 2128
4573 3 2126 2127 2131
4574 2 2128 2127 2131
4575 4 2127 2128 2129
4576 4 2127 2128 2132
4577 5 2129 2128 2132
4578 6 2128 2129 2130
4579 5 2128 2129 556
4580 6 2130 2129 556
4581 1 2127 2131 2140
4582 6 2128 2132 2133
4583 5 2128 2132 547
4584 6 2133 2132 547
4585 1 2122 2134 2139
4586 6 2123 2135 2136
4587 5 2123 2135 541
4588 6 2136 2135 541
4589 7 2121 2137 2160
4590 7 2121 2137 2278
4591 7 2121 2137 2315
4592 7 2160 2137 2278
4593 7 2160 2137 2315
4594 7 2278 2137 2315
4595 7 2126 2138 2175
4596 7 2126 2138 2305
4597 7 2126 2138 2492
4598 7 2175 2138 2305
4599 7 2175 2138 2492
4600 7 2305 2138 2492
4601 7 2134 2139 2141
4602 7 2134 2139 2160
4603 7 2134 2139 2402
4604 7 2141 2139 2160
4605 7 2141 2139 2402
4606 7 2160 2139 2402
4607 7 2131 2140 2175
4608 7 2131 2140 2396
4609 7 2131 2140 2485
4610 7 2175 2140 2396
4611 7 2175 2140 2485
4612 7 2396 2140 2485
4613 1 2139 2141 2142
4614 2 2141 2142 2143
4615 3 2141 2142 2151
4616 2 2143 2142 2151
4617 4 2142 2143 2144
4618 4 2142 2143 2152
4619 5 2144 2143 2152
4620 6 2143 2144 2145
4621 5 2143 2144 3115
4622 6 2145 2144 3115
4623 1 2147 2146 2159
4624 2 2146 2147 2148
4625 3 2146 2147 2154
4626 2 2148 2147 2154
4627 4 2147 2148 2149
4628 4 2147 2148 2155
4629 5 2149 2148 2155
4630 6 2148 2149 2150
4631 5 2148 2149 3112
4632 6 2150 2149 3112
4633 1 2142 2151 2157
4634 6 2143 2152 2153
4635 5 2143 2152 3067
4636 6 2153 2152 3067
4637 1 2147 2154 2158
4638 6 2148 2155 2156
4639 5 2148 2155 3061
4640 6 2156 2155 3061
4641 7 2151 2157 2160
4642 7 2151 2157 2161
4643 7 2151 2157 2472
4644 7 2160 2157 2161
4645 7 2160 2157 2472
4646 7 2161 2157 2472
4647 7 2154 2158 2173
4648 7 2154 2158 2478
4649 7 2154 2158 2481
4650 7 2173 2158 2478
4651 7 2173 2158 2481
4652 7 2478 2158 2481
4653 7 2146 2159 2173
4654 7 2146 2159 2393
4655 7 2146 2159 2496
4656 7 2173 2159 2393
4657 7 2173 2159 2496
4658 7 2393 2159 2496
4659 8 2137 2160 2139
4660 8 2137 2160 2157
4661 8 2137 2160 2299
4662 8 2139 2160 2157
4663 8 2139 2160 2299
4664 8 2157 2160 2299
4665 1 2157 2161 2162
4666 2 2161 2162 2163
4667 3 2161 2162 2278
4668 2 2163 2162 2278
4669 4 2162 2163 2164
4670 4 2162 2163 2279
4671 5 2164 2163 2279
4672 6 2163 2164 2165
4673 5 2163 2164 2091
4674 6 2165 2164 2091
4675 7 2167 2166 2168
4676 7 2167 2166 2475
4677 7 2167 2166 2493
4678 7 2168 2166 2475
4679 7 2168 2166 2493
4680 7 2475 2166 2493
4681 8 2166 2167 2176
4682 8 2166 2167 2178
4683 8 2166 2167 2293
4684 8 2176 2167 2178
4685 8 2176 2167 2293
4686 8 2178 2167 2293
4687 1 2166 2168 2169
4688 2 2168 2169 2170
4689 3 2168 2169 2275
4690 2 2170 2169 2275
4691 4 2169 2170 2171
4692 4 2169 2170 2276
4693 5 2171 2170 2276
4694 6 2170 2171 2172
4695 5 2170 2171 2089
4696 6 2172 2171 2089
4697 8 2158 2173 2159
4698 8 2158 2173 2177
4699 8 2158 2173 2287
4700 8 2159 2173 2177
4701 8 2159 2173 2287
4702 8 2177 2173 2287
4703 7 2175 2174 2469
4704 7 2175 2174 2482
4705 7 2175 2174 2494
4706 7 2469 2174 2482
4707 7 2469 2174 2494
4708 7 2482 2174 2494
4709 8 2138 2175 2140
4710 8 2138 2175 2174
4711 8 2138 2175 2281
4712 8 2140 2175 2174
4713 8 2140 2175 2281
4714 8 2174 2175 2281
4715 7 2167 2176 2275
4716 7 2167 2176 2310
4717 7 2167 2176 2483
4718 7 2275 2176 2310
4719 7 2275 2176 2483
4720 7 2310 2176 2483
4721 7 2173 2177 2320
4722 7 2173 2177 2484
4723 7 2173 2177 2491
4724 7 2320 2177 2484
4725 7 2320 2177 2491
4726 7 2484 2177 2491
4727 7 2167 2178 2399
4728 7 2167 2178 2486
4729 7 2167 2178 2495
4730 7 2399 2178 2486
4731 7 2399 2178 2495
4732 7 2486 2178 2495
4733 7 2180 2179 2257
4734 7 2180 2179 2384
4735 7 2180 2179 2487
4736 7 2257 2179 2384
4737 7 2257 2179 2487
4738 7 2384 2179 2487
4739 8 2179 2180 2197
4740 8 2179 2180 2221
4741 8 2179 2180 2363
4742 8 2197 2180 2221
4743 8 2197 2180 2363
4744 8 2221 2180 2363
4745 7 2182 2181 2251
4746 7 2182 2181 2387
4747 7 2182 2181 2488
4748 7 2251 2181 2387
4749 7 2251 2181 2488
4750 7 2387 2181 2488
4751 8 2181 2182 2209
4752 8 2181 2182 2239
4753 8 2181 2182 2351
4754 8 2209 2182 2239
4755 8 2209 2182 2351
4756 8 2239 2182 2351
4757 7 2184 2183 2185
4758 7 2184 2183 2260
4759 7 2184 2183 2390
4760 7 2185 2183 2260
4761 7 2185 2183 2390
4762 7 2260 2183 2390
4763 8 2183 2184 2215
4764 8 2183 2184 2227
4765 8 2183 2184 2345
4766 8 2215 2184 2227
4767 8 2215 2184 2345
4768 8 2227 2184 2345
4769 1 2183 2185 2186
4770 2 2185 2186 2187
4771 3 2185 2186 2245
4772 2 2187 2186 2245
4773 4 2186 2187 2188
4774 4 2186 2187 2246
4775 5 2188 2187 2246
4776 6 2187 2188 2189
4777 5 2187 2188 2095
4778 6 2189 2188 2095
4779 7 2191 2190 2192
4780 7 2191 2190 2254
4781 7 2191 2190 2381
4782 7 2192 2190 2254
4783 7 2192 2190 2381
4784 7 2254 2190 2381
4785 8 2190 2191 2203
4786 8 2190 2191 2233
4787 8 2190 2191 2357
4788 8 2203 2191 2233
4789 8 2203 2191 2357
4790 8 2233 2191 2357
4791 1 2190 2192 2193
4792 2 2192 2193 2194
4793 3 2192 2193 2248
4794 2 2194 2193 2248
4795 4 2193 2194 2195
4796 4 2193 2194 2249
4797 5 2195 2194 2249
4798 6 2194 2195 2196
4799 5 2194 2195 2093
4800 6 2196 2195 2093
4801 7 2180 2197 2198
4802 7 2180 2197 2447
4803 7 2180 2197 2490
4804 7 2198 2197 2447
4805 7 2198 2197 2490
4806 7 2447 2197 2490
4807 1 2197 2198 2199
4808 2 2198 2199 2200
4809 3 2198 2199 2272
4810 2 2200 2199 2272
4811 4 2199 2200 2201
4812 4 2199 2200 2273
4813 5 2201 2200 2273
4814 6 2200 2201 2202
4815 5 2200 2201 3379
4816 6 2202 2201 3379
4817 7 2191 2203 2204
4818 7 2191 2203 2248
4819 7 2191 2203 2437
4820 7 2204 2203 2248
4821 7 2204 2203 2437
4822 7 2248 2203 2437
4823 1 2203 2204 2205
4824 2 2204 2205 2206
4825 3 2204 2205 2269
4826 2 2206 2205 2269
4827 4 2205 2206 2207
4828 4 2205 2206 2270
4829 5 2207 2206 2270
4830 6 2206 2207 2208
4831 5 2206 2207 3377
4832 6 2208 2207 3377
4833 7 2182 2209 2210
4834 7 2182 2209 2442
4835 7 2182 2209 2489
4836 7 2210 2209 2442
4837 7 2210 2209 2489
4838 7 2442 2209 2489
4839 1 2209 2210 2211
4840 2 2210 2211 2212
4841 3 2210 2211 2263
4842 2 2212 2211 2263
4843 4 2211 2212 2213
4844 4 2211 2212 2264
4845 5 2213 2212 2264
4846 5 3003 2213 2212
4847 6 3003 2213 2214
4848 6 2212 2213 2214
4849 7 2184 2215 2216
4850 7 2184 2215 2245
4851 7 2184 2215 2452
4852 7 2216 2215 2245
4853 7 2216 2215 2452
4854 7 2245 2215 2452
4855 1 2215 2216 2217
4856 2 2216 2217 2218
4857 3 2216 2217 2266
4858 2 2218 2217 2266
4859 4 2217 2218 2219
4860 4 2217 2218 2267
4861 5 2219 2218 2267
4862 5 3000 2219 2218
4863 6 3000 2219 2220
4864 6 2218 2219 2220
4865 7 2180 2221 2222
4866 7 2180 2221 2272
4867 7 2180 2221 2335
4868 7 2222 2221 2272
4869 7 2222 2221 2335
4870 7 2272 2221 2335
4871 1 2221 2222 2223
4872 2 2222 2223 2224
4873 3 2222 2223 2257
4874 2 2224 2223 2257
4875 4 2223 2224 2225
4876 4 2223 2224 2258
4877 5 2225 2224 2258
4878 6 2224 2225 2226
4879 5 2224 2225 847
4880 6 2226 2225 847
4881 7 2184 2227 2228
4882 7 2184 2227 2266
4883 7 2184 2227 2325
4884 7 2228 2227 2266
4885 7 2228 2227 2325
4886 7 2266 2227 2325
4887 1 2227 2228 2229
4888 2 2228 2229 2230
4889 3 2228 2229 2260
4890 2 2230 2229 2260
4891 4 2229 2230 2231
4892 4 2229 2230 2261
4893 5 2231 2230 2261
4894 6 2230 2231 2232
4895 5 2230 2231 845
4896 6 2232 2231 845
4897 7 2191 2233 2234
4898 7 2191 2233 2269
4899 7 2191 2233 2330
4900 7 2234 2233 2269
4901 7 2234 2233 2330
4902 7 2269 2233 2330
4903 1 2233 2234 2235
4904 2 2234 2235 2236
4905 3 2234 2235 2254
4906 2 2236 2235 2254
4907 4 2235 2236 2237
4908 4 2235 2236 2255
4909 5 2237 2236 2255
4910 5 439 2237 2236
4911 6 439 2237 2238
4912 6 2236 2237 2238
4913 7 2182 2239 2240
4914 7 2182 2239 2263
4915 7 2182 2239 2340
4916 7 2240 2239 2263
4917 7 2240 2239 2340
4918 7 2263 2239 2340
4919 1 2239 2240 2241
4920 2 2240 2241 2242
4921 3 2240 2241 2251
4922 2 2242 2241 2251
4923 4 2241 2242 2243
4924 4 2241 2242 2252
4925 5 2243 2242 2252
4926 5 436 2243 2242
4927 6 436 2243 2244
4928 6 2242 2243 2244
4929 1 2186 2245 2215
4930 6 2187 2246 2247
4931 5 2187 2246 2079
4932 6 2247 2246 2079
4933 1 2193 2248 2203
4934 6 2194 2249 2250
4935 5 2194 2249 2075
4936 6 2250 2249 2075
4937 1 2181 2251 2241
4938 5 433 2252 2242
4939 6 433 2252 2253
4940 6 2242 2252 2253
4941 1 2190 2254 2235
4942 5 428 2255 2236
4943 6 428 2255 2256
4944 6 2236 2255 2256
4945 1 2179 2257 2223
4946 6 2224 2258 2259
4947 5 2224 2258 843
4948 6 2259 2258 843
4949 1 2183 2260 2229
4950 6 2230 2261 2262
4951 5 2230 2261 839
4952 6 2262 2261 839
4953 1 2211 2263 2239
4954 5 2997 2264 2212
4955 6 2997 2264 2265
4956 6 2212 2264 2265
4957 1 2217 2266 2227
4958 5 2992 2267 2218
4959 6 2992 2267 2268
4960 6 2218 2267 2268
4961 1 2205 2269 2233
4962 6 2206 2270 2271
4963 5 2206 2270 3375
4964 6 2271 2270 3375
4965 1 2199 2272 2221
4966 6 2200 2273 2274
4967 5 2200 2273 3371
4968 6 2274 2273 3371
4969 1 2169 2275 2176
4970 6 2170 2276 2277
4971 5 2170 2276 2087
4972 6 2277 2276 2087
4973 1 2137 2278 2162
4974 6 2163 2279 2280
4975 5 2163 2279 2083
4976 6 2280 2279 2083
4977 7 2175 2281 2282
4978 7 2175 2281 2411
4979 7 2175 2281 2427
4980 7 2282 2281 2411
4981 7 2282 2281 2427
4982 7 2411 2281 2427
4983 1 2281 2282 2283
4984 2 2282 2283 2284
4985 3 2282 2283 2396
4986 2 2284 2283 2396
4987 4 2283 2284 2285
4988 4 2283 2284 2397
4989 5 2285 2284 2397
4990 6 2284 2285 2286
4991 5 2284 2285 2373
4992 6 2286 2285 2373
4993 7 2173 2287 2288
4994 7 2173 2287 2405
4995 7 2173 2287 2417
4996 7 2288 2287 2405
4997 7 2288 2287 2417
4998 7 2405 2287 2417
4999 1 2287 2288 2289
5000 2 2288 2289 2290
5001 3 2288 2289 2393
5002 2 2290 2289 2393
5003 4 2289 2290 2291
5004 4 2289 2290 2394
5005 5 2291 2290 2394
5006 6 2290 2291 2292
5007 5 2290 2291 2370
5008 6 2292 2291 2370
5009 7 2167 2293 2294
5010 7 2167 2293 2414
5011 7 2167 2293 2422
5012 7 2294 2293 2414
5013 7 2294 2293 2422
5014 7 2414 2293 2422
5015 1 2293 2294 2295
5016 2 2294 2295 2296
5017 3 2294 2295 2399
5018 2 2296 2295 2399
5019 4 2295 2296 2297
5020 4 2295 2296 2400
5021 5 2297 2296 2400
5022 6 2296 2297 2298
5023 5 2296 2297 2379
5024 6 2298 2297 2379
5025 7 2160 2299 2300
5026 7 2160 2299 2408
5027 7 2160 2299 2432
5028 7 2300 2299 2408
5029 7 2300 2299 2432
5030 7 2408 2299 2432
5031 1 2299 2300 2301
5032 2 2300 2301 2302
5033 3 2300 2301 2402
5034 2 2302 2301 2402
5035 4 2301 2302 2303
5036 4 2301 2302 2403
5037 5 2303 2302 2403
5038 6 2302 2303 2304
5039 5 2302 2303 2376
5040 6 2304 2303 2376
5041 1 2138 2305 2306
5042 2 2305 2306 2307
5043 3 2305 2306 2411
5044 2 2307 2306 2411
5045 4 2306 2307 2308
5046 4 2306 2307 2412
5047 5 2308 2307 2412
5048 6 2307 2308 2309
5049 5 2307 2308 2385
5050 6 2309 2308 2385
5051 1 2176 2310 2311
5052 2 2310 2311 2312
5053 3 2310 2311 2414
5054 2 2312 2311 2414
5055 4 2311 2312 2313
5056 4 2311 2312 2415
5057 5 2313 2312 2415
5058 6 2312 2313 2314
5059 5 2312 2313 2382
5060 6 2314 2313 2382
5061 1 2137 2315 2316
5062 2 2315 2316 2317
5063 3 2315 2316 2408
5064 2 2317 2316 2408
5065 4 2316 2317 2318
5066 4 2316 2317 2409
5067 5 2318 2317 2409
5068 6 2317 2318 2319
5069 5 2317 2318 2391
5070 6 2319 2318 2391
5071 1 2177 2320 2321
5072 2 2320 2321 2322
5073 3 2320 2321 2405
5074 2 2322 2321 2405
5075 4 2321 2322 2323
5076 4 2321 2322 2406
5077 5 2323 2322 2406
5078 6 2322 2323 2324
5079 5 2322 2323 2388
5080 6 2324 2323 2388
5081 1 2227 2325 2326
5082 2 2325 2326 2327
5083 3 2325 2326 2372
5084 2 2327 2326 2372
5085 4 2326 2327 2328
5086 4 2326 2327 2373
5087 5 2328 2327 2373
5088 6 2327 2328 2329
5089 5 2327 2328 2397
5090 6 2329 2328 2397
5091 1 2233 2330 2331
5092 2 2330 2331 2332
5093 3 2330 2331 2369
5094 2 2332 2331 2369
5095 4 2331 2332 2333
5096 4 2331 2332 2370
5097 5 2333 2332 2370
5098 6 2332 2333 2334
5099 5 2332 2333 2394
5100 6 2334 2333 2394
5101 1 2221 2335 2336
5102 2 2335 2336 2337
5103 3 2335 2336 2375
5104 2 2337 2336 2375
5105 4 2336 2337 2338
5106 4 2336 2337 2376
5107 5 2338 2337 2376
5108 6 2337 2338 2339
5109 5 2337 2338 2403
5110 6 2339 2338 2403
5111 1 2239 2340 2341
5112 2 2340 2341 2342
5113 3 2340 2341 2378
5114 2 2342 2341 2378
5115 4 2341 2342 2343
5116 4 2341 2342 2379
5117 5 2343 2342 2379
5118 6 2342 2343 2344
5119 5 2342 2343 2400
5120 6 2344 2343 2400
5121 7 2184 2345 2346
5122 7 2184 2345 2372
5123 7 2184 2345 2457
5124 7 2346 2345 2372
5125 7 2346 2345 2457
5126 7 2372 2345 2457
5127 1 2345 2346 2347
5128 2 2346 2347 2348
5129 3 2346 2347 2390
5130 2 2348 2347 2390
5131 4 2347 2348 2349
5132 4 2347 2348 2391
5133 5 2349 2348 2391
5134 6 2348 2349 2350
5135 5 2348 2349 2409
5136 6 2350 2349 2409
5137 7 2182 2351 2352
5138 7 2182 2351 2378
5139 7 2182 2351 2466
5140 7 2352 2351 2378
5141 7 2352 2351 2466
5142 7 2378 2351 2466
5143 1 2351 2352 2353
5144 2 2352 2353 2354
5145 3 2352 2353 2387
5146 2 2354 2353 2387
5147 4 2353 2354 2355
5148 4 2353 2354 2388
5149 5 2355 2354 2388
5150 6 2354 2355 2356
5151 5 2354 2355 2406
5152 6 2356 2355 2406
5153 7 2191 2357 2358
5154 7 2191 2357 2369
5155 7 2191 2357 2463
5156 7 2358 2357 2369
5157 7 2358 2357 2463
5158 7 2369 2357 2463
5159 1 2357 2358 2359
5160 2 2358 2359 2360
5161 3 2358 2359 2381
5162 2 2360 2359 2381
5163 4 2359 2360 2361
5164 4 2359 2360 2382
5165 5 2361 2360 2382
5166 6 2360 2361 2362
5167 5 2360 2361 2415
5168 6 2362 2361 2415
5169 7 2180 2363 2364
5170 7 2180 2363 2375
5171 7 2180 2363 2460
5172 7 2364 2363 2375
5173 7 2364 2363 2460
5174 7 2375 2363 2460
5175 1 2363 2364 2365
5176 2 2364 2365 2366
5177 3 2364 2365 2384
5178 2 2366 2365 2384
5179 4 2365 2366 2367
5180 4 2365 2366 2385
5181 5 2367 2366 2385
5182 6 2366 2367 2368
5183 5 2366 2367 2412
5184 6 2368 2367 2412
5185 1 2331 2369 2357
5186 5 2291 2370 2332
5187 6 2291 2370 2371
5188 6 2332 2370 2371
5189 1 2326 2372 2345
5190 5 2285 2373 2327
5191 6 2285 2373 2374
5192 6 2327 2373 2374
5193 1 2336 2375 2363
5194 5 2303 2376 2337
5195 6 2303 2376 2377
5196 6 2337 2376 2377
5197 1 2341 2378 2351
5198 5 2297 2379 2342
5199 6 2297 2379 2380
5200 6 2342 2379 2380
5201 1 2190 2381 2359
5202 5 2313 2382 2360
5203 6 2313 2382 2383
5204 6 2360 2382 2383
5205 1 2179 2384 2365
5206 5 2308 2385 2366
5207 6 2308 2385 2386
5208 6 2366 2385 2386
5209 1 2181 2387 2353
5210 5 2323 2388 2354
5211 6 2323 2388 2389
5212 6 2354 2388 2389
5213 1 2183 2390 2347
5214 5 2318 2391 2348
5215 6 2318 2391 2392
5216 6 2348 2391 2392
5217 1 2159 2393 2289
5218 5 2290 2394 2333
5219 6 2290 2394 2395
5220 6 2333 2394 2395
5221 1 2140 2396 2283
5222 5 2284 2397 2328
5223 6 2284 2397 2398
5224 6 2328 2397 2398
5225 1 2178 2399 2295
5226 5 2296 2400 2343
5227 6 2296 2400 2401
5228 6 2343 2400 2401
5229 1 2139 2402 2301
5230 5 2302 2403 2338
5231 6 2302 2403 2404
5232 6 2338 2403 2404
5233 1 2287 2405 2321
5234 5 2322 2406 2355
5235 6 2322 2406 2407
5236 6 2355 2406 2407
5237 1 2299 2408 2316
5238 5 2317 2409 2349
5239 6 2317 2409 2410
5240 6 2349 2409 2410
5241 1 2281 2411 2306
5242 5 2307 2412 2367
5243 6 2307 2412 2413
5244 6 2367 2412 2413
5245 1 2293 2414 2311
5246 5 2312 2415 2361
5247 6 2312 2415 2416
5248 6 2361 2415 2416
5249 1 2287 2417 2418
5250 2 2417 2418 2419
5251 3 2417 2418 2478
5252 2 2419 2418 2478
5253 4 2418 2419 2420
5254 4 2418 2419 2479
5255 5 2420 2419 2479
5256 6 2419 2420 2421
5257 5 2419 2420 2461
5258 6 2421 2420 2461
5259 1 2293 2422 2423
5260 2 2422 2423 2424
5261 3 2422 2423 2475
5262 2 2424 2423 2475
5263 4 2423 2424 2425
5264 4 2423 2424 2476
5265 5 2425 2424 2476
5266 6 2424 2425 2426
5267 5 2424 2425 2458
5268 6 2426 2425 2458
5269 1 2281 2427 2428
5270 2 2427 2428 2429
5271 3 2427 2428 2469
5272 2 2429 2428 2469
5273 4 2428 2429 2430
5274 4 2428 2429 2470
5275 5 2430 2429 2470
5276 6 2429 2430 2431
5277 5 2429 2430 2467
5278 6 2431 2430 2467
5279 1 2299 2432 2433
5280 2 2432 2433 2434
5281 3 2432 2433 2472
5282 2 2434 2433 2472
5283 4 2433 2434 2435
5284 4 2433 2434 2473
5285 5 2435 2434 2473
5286 6 2434 2435 2436
5287 5 2434 2435 2464
5288 6 2436 2435 2464
5289 1 2203 2437 2438
5290 2 2437 2438 2439
5291 3 2437 2438 2463
5292 2 2439 2438 2463
5293 4 2438 2439 2440
5294 4 2438 2439 2464
5295 5 2440 2439 2464
5296 6 2439 2440 2441
5297 5 2439 2440 2473
5298 6 2441 2440 2473
5299 1 2209 2442 2443
5300 2 2442 2443 2444
5301 3 2442 2443 2466
5302 2 2444 2443 2466
5303 4 2443 2444 2445
5304 4 2443 2444 2467
5305 5 2445 2444 2467
5306 6 2444 2445 2446
5307 5 2444 2445 2470
5308 6 2446 2445 2470
5309 1 2197 2447 2448
5310 2 2447 2448 2449
5311 3 2447 2448 2460
5312 2 2449 2448 2460
5313 4 2448 2449 2450
5314 4 2448 2449 2461
5315 5 2450 2449 2461
5316 6 2449 2450 2451
5317 5 2449 2450 2479
5318 6 2451 2450 2479
5319 1 2215 2452 2453
5320 2 2452 2453 2454
5321 3 2452 2453 2457
5322 2 2454 2453 2457
5323 4 2453 2454 2455
5324 4 2453 2454 2458
5325 5 2455 2454 2458
5326 6 2454 2455 2456
5327 5 2454 2455 2476
5328 6 2456 2455 2476
5329 1 2345 2457 2453
5330 5 2425 2458 2454
5331 6 2425 2458 2459
5332 6 2454 2458 2459
5333 1 2363 2460 2448
5334 5 2420 2461 2449
5335 6 2420 2461 2462
5336 6 2449 2461 2462
5337 1 2357 2463 2438
5338 5 2435 2464 2439
5339 6 2435 2464 2465
5340 6 2439 2464 2465
5341 1 2351 2466 2443
5342 5 2430 2467 2444
5343 6 2430 2467 2468
5344 6 2444 2467 2468
5345 1 2174 2469 2428
5346 5 2429 2470 2445
5347 6 2429 2470 2471
5348 6 2445 2470 2471
5349 1 2157 2472 2433
5350 5 2434 2473 2440
5351 6 2434 2473 2474
5352 6 2440 2473 2474
5353 1 2166 2475 2423
5354 5 2424 2476 2455
5355 6 2424 2476 2477
5356 6 2455 2476 2477
5357 1 2158 2478 2418
5358 5 2419 2479 2450
5359 6 2419 2479 2480
5360 6 2450 2479 2480
5361 1 2158 2481 2497
5362 1 2174 2482 2501
5363 1 2176 2483 2533
5364 1 2177 2484 2537
5365 1 2140 2485 2521
5366 1 2178 2486 2525
5367 1 2179 2487 2505
5368 1 2181 2488 2509
5369 1 2209 2489 2509
5370 1 2197 2490 2505
5371 1 2177 2491 2497
5372 1 2138 2492 2501
5373 1 2166 2493 2525
5374 1 2174 2494 2521
5375 1 2178 2495 2533
5376 1 2159 2496 2537
5377 3 2481 2497 2491
5378 2 2481 2497 2498
5379 2 2491 2497 2498
5380 4 2497 2498 2499
5381 4 2497 2498 2517
5382 5 2499 2498 2517
5383 5 1825 2499 2498
5384 6 1825 2499 2500
5385 6 2498 2499 2500
5386 3 2482 2501 2492
5387 2 2482 2501 2502
5388 2 2492 2501 2502
5389 4 2501 2502 2503
5390 4 2501 2502 2519
5391 5 2503 2502 2519
5392 5 1822 2503 2502
5393 6 1822 2503 2504
5394 6 2502 2503 2504
5395 3 2487 2505 2490
5396 2 2487 2505 2506
5397 2 2490 2505 2506
5398 4 2505 2506 2507
5399 4 2505 2506 2515
5400 5 2507 2506 2515
5401 5 1855 2507 2506
5402 6 1855 2507 2508
5403 6 2506 2507 2508
5404 3 2488 2509 2489
5405 2 2488 2509 2510
5406 2 2489 2509 2510
5407 4 2509 2510 2511
5408 4 2509 2510 2513
5409 5 2511 2510 2513
5410 5 1852 2511 2510
5411 6 1852 2511 2512
5412 6 2510 2511 2512
5413 5 1747 2513 2510
5414 6 1747 2513 2514
5415 6 2510 2513 2514
5416 5 1740 2515 2506
5417 6 1740 2515 2516
5418 6 2506 2515 2516
5419 5 1771 2517 2498
5420 6 1771 2517 2518
5421 6 2498 2517 2518
5422 5 1764 2519 2502
5423 6 1764 2519 2520
5424 6 2502 2519 2520
5425 3 2485 2521 2494
5426 2 2485 2521 2522
5427 2 2494 2521 2522
5428 4 2521 2522 2523
5429 4 2521 2522 2531
5430 5 2523 2522 2531
5431 5 3121 2523 2522
5432 6 3121 2523 2524
5433 6 2522 2523 2524
5434 3 2486 2525 2493
5435 2 2486 2525 2526
5436 2 2493 2525 2526
5437 4 2525 2526 2527
5438 4 2525 2526 2529
5439 5 2527 2526 2529
5440 5 3118 2527 2526
5441 6 3118 2527 2528
5442 6 2526 2527 2528
5443 5 3055 2529 2526
5444 6 3055 2529 2530
5445 6 2526 2529 2530
5446 5 3049 2531 2522
5447 6 3049 2531 2532
5448 6 2522 2531 2532
5449 3 2483 2533 2495
5450 2 2483 2533 2534
5451 2 2495 2533 2534
5452 4 2533 2534 2535
5453 4 2533 2534 2541
5454 5 2535 2534 2541
5455 5 565 2535 2534
5456 6 565 2535 2536
5457 6 2534 2535 2536
5458 3 2484 2537 2496
5459 2 2484 2537 2538
5460 2 2496 2537 2538
5461 4 2537 2538 2539
5462 4 2537 2538 2543
5463 5 2539 2538 2543
5464 5 562 2539 2538
5465 6 562 2539 2540
5466 6 2538 2539 2540
5467 5 535 2541 2534
5468 6 535 2541 2542
5469 6 2534 2541 2542
5470 5 529 2543 2538
5471 6 529 2543 2544
5472 6 2538 2543 2544
5473 1 2546 2545 2561
5474 2 2545 2546 2547
5475 3 2545 2546 2558
5476 2 2547 2546 2558
5477 4 2546 2547 2548
5478 4 2546 2547 2559
5479 5 2548 2547 2559
5480 6 2547 2548 2549
5481 5 2547 2548 983
5482 6 2549 2548 983
5483 1 2551 2550 2562
5484 2 2550 2551 2552
5485 3 2550 2551 2555
5486 2 2552 2551 2555
5487 4 2551 2552 2553
5488 4 2551 2552 2556
5489 5 2553 2552 2556
5490 6 2552 2553 2554
5491 5 2552 2553 980
5492 6 2554 2553 980
5493 1 2551 2555 2564
5494 6 2552 2556 2557
5495 5 2552 2556 971
5496 6 2557 2556 971
5497 1 2546 2558 2563
5498 6 2547 2559 2560
5499 5 2547 2559 965
5500 6 2560 2559 965
5501 7 2545 2561 2584
5502 7 2545 2561 2702
5503 7 2545 2561 2739
5504 7 2584 2561 2702
5505 7 2584 2561 2739
5506 7 2702 2561 2739
5507 7 2550 2562 2599
5508 7 2550 2562 2729
5509 7 2550 2562 2916
5510 7 2599 2562 2729
5511 7 2599 2562 2916
5512 7 2729 2562 2916
5513 7 2558 2563 2565
5514 7 2558 2563 2584
5515 7 2558 2563 2826
5516 7 2565 2563 2584
5517 7 2565 2563 2826
5518 7 2584 2563 2826
5519 7 2555 2564 2599
5520 7 2555 2564 2820
5521 7 2555 2564 2909
5522 7 2599 2564 2820
5523 7 2599 2564 2909
5524 7 2820 2564 2909
5525 1 2563 2565 2566
5526 2 2565 2566 2567
5527 3 2565 2566 2575
5528 2 2567 2566 2575
5529 4 2566 2567 2568
5530 4 2566 2567 2576
5531 5 2568 2567 2576
5532 6 2567 2568 2569
5533 5 2567 2568 1843
5534 6 2569 2568 1843
5535 1 2571 2570 2583
5536 2 2570 2571 2572
5537 3 2570 2571 2578
5538 2 2572 2571 2578
5539 4 2571 2572 2573
5540 4 2571 2572 2579
5541 5 2573 2572 2579
5542 6 2572 2573 2574
5543 5 2572 2573 1840
5544 6 2574 2573 1840
5545 1 2566 2575 2581
5546 6 2567 2576 2577
5547 5 2567 2576 1795
5548 6 2577 2576 1795
5549 1 2571 2578 2582
5550 6 2572 2579 2580
5551 5 2572 2579 1789
5552 6 2580 2579 1789
5553 7 2575 2581 2584
5554 7 2575 2581 2585
5555 7 2575 2581 2896
5556 7 2584 2581 2585
5557 7 2584 2581 2896
5558 7 2585 2581 2896
5559 7 2578 2582 2597
5560 7 2578 2582 2902
5561 7 2578 2582 2905
5562 7 2597 2582 2902
5563 7 2597 2582 2905
5564 7 2902 2582 2905
5565 7 2570 2583 2597
5566 7 2570 2583 2817
5567 7 2570 2583 2920
5568 7 2597 2583 2817
5569 7 2597 2583 2920
5570 7 2817 2583 2920
5571 8 2561 2584 2563
5572 8 2561 2584 2581
5573 8 2561 2584 2723
5574 8 2563 2584 2581
5575 8 2563 2584 2723
5576 8 2581 2584 2723
5577 1 2581 2585 2586
5578 2 2585 2586 2587
5579 3 2585 2586 2702
5580 2 2587 2586 2702
5581 4 2586 2587 2588
5582 4 2586 2587 2703
5583 5 2588 2587 2703
5584 6 2587 2588 2589
5585 5 2587 2588 3363
5586 6 2589 2588 3363
5587 7 2591 2590 2592
5588 7 2591 2590 2899
5589 7 2591 2590 2917
5590 7 2592 2590 2899
5591 7 2592 2590 2917
5592 7 2899 2590 2917
5593 8 2590 2591 2600
5594 8 2590 2591 2602
5595 8 2590 2591 2717
5596 8 2600 2591 2602
5597 8 2600 2591 2717
5598 8 2602 2591 2717
5599 1 2590 2592 2593
5600 2 2592 2593 2594
5601 3 2592 2593 2699
5602 2 2594 2593 2699
5603 4 2593 2594 2595
5604 4 2593 2594 2700
5605 5 2595 2594 2700
5606 6 2594 2595 2596
5607 5 2594 2595 3361
5608 6 2596 2595 3361
5609 8 2582 2597 2583
5610 8 2582 2597 2601
5611 8 2582 2597 2711
5612 8 2583 2597 2601
5613 8 2583 2597 2711
5614 8 2601 2597 2711
5615 7 2599 2598 2893
5616 7 2599 2598 2906
5617 7 2599 2598 2918
5618 7 2893 2598 2906
5619 7 2893 2598 2918
5620 7 2906 2598 2918
5621 8 2562 2599 2564
5622 8 2562 2599 2598
5623 8 2562 2599 2705
5624 8 2564 2599 2598
5625 8 2564 2599 2705
5626 8 2598 2599 2705
5627 7 2591 2600 2699
5628 7 2591 2600 2734
5629 7 2591 2600 2907
5630 7 2699 2600 2734
5631 7 2699 2600 2907
5632 7 2734 2600 2907
5633 7 2597 2601 2744
5634 7 2597 2601 2908
5635 7 2597 2601 2915
5636 7 2744 2601 2908
5637 7 2744 2601 2915
5638 7 2908 2601 2915
5639 7 2591 2602 2823
5640 7 2591 2602 2910
5641 7 2591 2602 2919
5642 7 2823 2602 2910
5643 7 2823 2602 2919
5644 7 2910 2602 2919
5645 7 2604 2603 2681
5646 7 2604 2603 2808
5647 7 2604 2603 2911
5648 7 2681 2603 2808
5649 7 2681 2603 2911
5650 7 2808 2603 2911
5651 8 2603 2604 2621
5652 8 2603 2604 2645
5653 8 2603 2604 2787
5654 8 2621 2604 2645
5655 8 2621 2604 2787
5656 8 2645 2604 2787
5657 7 2606 2605 2675
5658 7 2606 2605 2811
5659 7 2606 2605 2912
5660 7 2675 2605 2811
5661 7 2675 2605 2912
5662 7 2811 2605 2912
5663 8 2605 2606 2633
5664 8 2605 2606 2663
5665 8 2605 2606 2775
5666 8 2633 2606 2663
5667 8 2633 2606 2775
5668 8 2663 2606 2775
5669 7 2608 2607 2609
5670 7 2608 2607 2684
5671 7 2608 2607 2814
5672 7 2609 2607 2684
5673 7 2609 2607 2814
5674 7 2684 2607 2814
5675 8 2607 2608 2639
5676 8 2607 2608 2651
5677 8 2607 2608 2769
5678 8 2639 2608 2651
5679 8 2639 2608 2769
5680 8 2651 2608 2769
5681 1 2607 2609 2610
5682 2 2609 2610 2611
5683 3 2609 2610 2669
5684 2 2611 2610 2669
5685 4 2610 2611 2612
5686 4 2610 2611 2670
5687 5 2612 2611 2670
5688 6 2611 2612 2613
5689 5 2611 2612 3367
5690 6 2613 2612 3367
5691 7 2615 2614 2616
5692 7 2615 2614 2678
5693 7 2615 2614 2805
5694 7 2616 2614 2678
5695 7 2616 2614 2805
5696 7 2678 2614 2805
5697 8 2614 2615 2627
5698 8 2614 2615 2657
5699 8 2614 2615 2781
5700 8 2627 2615 2657
5701 8 2627 2615 2781
5702 8 2657 2615 2781
5703 1 2614 2616 2617
5704 2 2616 2617 2618
5705 3 2616 2617 2672
5706 2 2618 2617 2672
5707 4 2617 2618 2619
5708 4 2617 2618 2673
5709 5 2619 2618 2673
5710 6 2618 2619 2620
5711 5 2618 2619 3365
5712 6 2620 2619 3365
5713 7 2604 2621 2622
5714 7 2604 2621 2871
5715 7 2604 2621 2914
5716 7 2622 2621 2871
5717 7 2622 2621 2914
5718 7 2871 2621 2914
5719 1 2621 2622 2623
5720 2 2622 2623 2624
5721 3 2622 2623 2696
5722 2 2624 2623 2696
5723 4 2623 2624 2625
5724 4 2623 2624 2697
5725 5 2625 2624 2697
5726 6 2624 2625 2626
5727 5 2624 2625 2107
5728 6 2626 2625 2107
5729 7 2615 2627 2628
5730 7 2615 2627 2672
5731 7 2615 2627 2861
5732 7 2628 2627 2672
5733 7 2628 2627 2861
5734 7 2672 2627 2861
5735 1 2627 2628 2629
5736 2 2628 2629 2630
5737 3 2628 2629 2693
5738 2 2630 2629 2693
5739 4 2629 2630 2631
5740 4 2629 2630 2694
5741 5 2631 2630 2694
5742 6 2630 2631 2632
5743 5 2630 2631 2105
5744 6 2632 2631 2105
5745 7 2606 2633 2634
5746 7 2606 2633 2866
5747 7 2606 2633 2913
5748 7 2634 2633 2866
5749 7 2634 2633 2913
5750 7 2866 2633 2913
5751 1 2633 2634 2635
5752 2 2634 2635 2636
5753 3 2634 2635 2687
5754 2 2636 2635 2687
5755 4 2635 2636 2637
5756 4 2635 2636 2688
5757 5 2637 2636 2688
5758 5 1731 2637 2636
5759 6 1731 2637 2638
5760 6 2636 2637 2638
5761 7 2608 2639 2640
5762 7 2608 2639 2669
5763 7 2608 2639 2876
5764 7 2640 2639 2669
5765 7 2640 2639 2876
5766 7 2669 2639 2876
5767 1 2639 2640 2641
5768 2 2640 2641 2642
5769 3 2640 2641 2690
5770 2 2642 2641 2690
5771 4 2641 2642 2643
5772 4 2641 2642 2691
5773 5 2643 2642 2691
5774 5 1728 2643 2642
5775 6 1728 2643 2644
5776 6 2642 2643 2644
5777 7 2604 2645 2646
5778 7 2604 2645 2696
5779 7 2604 2645 2759
5780 7 2646 2645 2696
5781 7 2646 2645 2759
5782 7 2696 2645 2759
5783 1 2645 2646 2647
5784 2 2646 2647 2648
5785 3 2646 2647 2681
5786 2 2648 2647 2681
5787 4 2647 2648 2649
5788 4 2647 2648 2682
5789 5 2649 2648 2682
5790 6 2648 2649 2650
5791 5 2648 2649 1271
5792 6 2650 2649 1271
5793 7 2608 2651 2652
5794 7 2608 2651 2690
5795 7 2608 2651 2749
5796 7 2652 2651 2690
5797 7 2652 2651 2749
5798 7 2690 2651 2749
5799 1 2651 2652 2653
5800 2 2652 2653 2654
5801 3 2652 2653 2684
5802 2 2654 2653 2684
5803 4 2653 2654 2655
5804 4 2653 2654 2685
5805 5 2655 2654 2685
5806 6 2654 2655 2656
5807 5 2654 2655 1269
5808 6 2656 2655 1269
5809 7 2615 2657 2658
5810 7 2615 2657 2693
5811 7 2615 2657 2754
5812 7 2658 2657 2693
5813 7 2658 2657 2754
5814 7 2693 2657 2754
5815 1 2657 2658 2659
5816 2 2658 2659 2660
5817 3 2658 2659 2678
5818 2 2660 2659 2678
5819 4 2659 2660 2661
5820 4 2659 2660 2679
5821 5 2661 2660 2679
5822 5 863 2661 2660
5823 6 863 2661 2662
5824 6 2660 2661 2662
5825 7 2606 2663 2664
5826 7 2606 2663 2687
5827 7 2606 2663 2764
5828 7 2664 2663 2687
5829 7 2664 2663 2764
5830 7 2687 2663 2764
5831 1 2663 2664 2665
5832 2 2664 2665 2666
5833 3 2664 2665 2675
5834 2 2666 2665 2675
5835 4 2665 2666 2667
5836 4 2665 2666 2676
5837 5 2667 2666 2676
5838 5 860 2667 2666
5839 6 860 2667 2668
5840 6 2666 2667 2668
5841 1 2610 2669 2639
5842 6 2611 2670 2671
5843 5 2611 2670 3351
5844 6 2671 2670 3351
5845 1 2617 2672 2627
5846 6 2618 2673 2674
5847 5 2618 2673 3347
5848 6 2674 2673 3347
5849 1 2605 2675 2665
5850 5 857 2676 2666
5851 6 857 2676 2677
5852 6 2666 2676 2677
5853 1 2614 2678 2659
5854 5 852 2679 2660
5855 6 852 2679 2680
5856 6 2660 2679 2680
5857 1 2603 2681 2647
5858 6 2648 2682 2683
5859 5 2648 2682 1267
5860 6 2683 2682 1267
5861 1 2607 2684 2653
5862 6 2654 2685 2686
5863 5 2654 2685 1263
5864 6 2686 2685 1263
5865 1 2635 2687 2663
5866 5 1725 2688 2636
5867 6 1725 2688 2689
5868 6 2636 2688 2689
5869 1 2641 2690 2651
5870 5 1720 2691 2642
5871 6 1720 2691 2692
5872 6 2642 2691 2692
5873 1 2629 2693 2657
5874 6 2630 2694 2695
5875 5 2630 2694 2103
5876 6 2695 2694 2103
5877 1 2623 2696 2645
5878 6 2624 2697 2698
5879 5 2624 2697 2099
5880 6 2698 2697 2099
5881 1 2593 2699 2600
5882 6 2594 2700 2701
5883 5 2594 2700 3359
5884 6 2701 2700 3359
5885 1 2561 2702 2586
5886 6 2587 2703 2704
5887 5 2587 2703 3355
5888 6 2704 2703 3355
5889 7 2599 2705 2706
5890 7 2599 2705 2835
5891 7 2599 2705 2851
5892 7 2706 2705 2835
5893 7 2706 2705 2851
5894 7 2835 2705 2851
5895 1 2705 2706 2707
5896 2 2706 2707 2708
5897 3 2706 2707 2820
5898 2 2708 2707 2820
5899 4 2707 2708 2709
5900 4 2707 2708 2821
5901 5 2709 2708 2821
5902 6 2708 2709 2710
5903 5 2708 2709 2797
5904 6 2710 2709 2797
5905 7 2597 2711 2712
5906 7 2597 2711 2829
5907 7 2597 2711 2841
5908 7 2712 2711 2829
5909 7 2712 2711 2841
5910 7 2829 2711 2841
5911 1 2711 2712 2713
5912 2 2712 2713 2714
5913 3 2712 2713 2817
5914 2 2714 2713 2817
5915 4 2713 2714 2715
5916 4 2713 2714 2818
5917 5 2715 2714 2818
5918 6 2714 2715 2716
5919 5 2714 2715 2794
5920 6 2716 2715 2794
5921 7 2591 2717 2718
5922 7 2591 2717 2838
5923 7 2591 2717 2846
5924 7 2718 2717 2838
5925 7 2718 2717 2846
5926 7 2838 2717 2846
5927 1 2717 2718 2719
5928 2 2718 2719 2720
5929 3 2718 2719 2823
5930 2 2720 2719 2823
5931 4 2719 2720 2721
5932 4 2719 2720 2824
5933 5 2721 2720 2824
5934 6 2720 2721 2722
5935 5 2720 2721 2803
5936 6 2722 2721 2803
5937 7 2584 2723 2724
5938 7 2584 2723 2832
5939 7 2584 2723 2856
5940 7 2724 2723 2832
5941 7 2724 2723 2856
5942 7 2832 2723 2856
5943 1 2723 2724 2725
5944 2 2724 2725 2726
5945 3 2724 2725 2826
5946 2 2726 2725 2826
5947 4 2725 2726 2727
5948 4 2725 2726 2827
5949 5 2727 2726 2827
5950 6 2726 2727 2728
5951 5 2726 2727 2800
5952 6 2728 2727 2800
5953 1 2562 2729 2730
5954 2 2729 2730 2731
5955 3 2729 2730 2835
5956 2 2731 2730 2835
5957 4 2730 2731 2732
5958 4 2730 2731 2836
5959 5 2732 2731 2836
5960 6 2731 2732 2733
5961 5 2731 2732 2809
5962 6 2733 2732 2809
5963 1 2600 2734 2735
5964 2 2734 2735 2736
5965 3 2734 2735 2838
5966 2 2736 2735 2838
5967 4 2735 2736 2737
5968 4 2735 2736 2839
5969 5 2737 2736 2839
5970 6 2736 2737 2738
5971 5 2736 2737 2806
5972 6 2738 2737 2806
5973 1 2561 2739 2740
5974 2 2739 2740 2741
5975 3 2739 2740 2832
5976 2 2741 2740 2832
5977 4 2740 2741 2742
5978 4 2740 2741 2833
5979 5 2742 2741 2833
5980 6 2741 2742 2743
5981 5 2741 2742 2815
5982 6 2743 2742 2815
5983 1 2601 2744 2745
5984 2 2744 2745 2746
5985 3 2744 2745 2829
5986 2 2746 2745 2829
5987 4 2745 2746 2747
5988 4 2745 2746 2830
5989 5 2747 2746 2830
5990 6 2746 2747 2748
5991 5 2746 2747 2812
5992 6 2748 2747 2812
5993 1 2651 2749 2750
5994 2 2749 2750 2751
5995 3 2749 2750 2796
5996 2 2751 2750 2796
5997 4 2750 2751 2752
5998 4 2750 2751 2797
5999 5 2752 2751 2797
6000 6 2751 2752 2753
6001 5 2751 2752 2821
6002 6 2753 2752 2821
6003 1 2657 2754 2755
6004 2 2754 2755 2756
6005 3 2754 2755 2793
6006 2 2756 2755 2793
6007 4 2755 2756 2757
6008 4 2755 2756 2794
6009 5 2757 2756 2794
6010 6 2756 2757 2758
6011 5 2756 2757 2818
6012 6 2758 2757 2818
6013 1 2645 2759 2760
6014 2 2759 2760 2761
6015 3 2759 2760 2799
6016 2 2761 2760 2799
6017 4 2760 2761 2762
6018 4 2760 2761 2800
6019 5 2762 2761 2800
6020 6 2761 2762 2763
6021 5 2761 2762 2827
6022 6 2763 2762 2827
6023 1 2663 2764 2765
6024 2 2764 2765 2766
6025 3 2764 2765 2802
6026 2 2766 2765 2802
6027 4 2765 2766 2767
6028 4 2765 2766 2803
6029 5 2767 2766 2803
6030 6 2766 2767 2768
6031 5 2766 2767 2824
6032 6 2768 2767 2824
6033 7 2608 2769 2770
6034 7 2608 2769 2796
6035 7 2608 2769 2881
6036 7 2770 2769 2796
6037 7 2770 2769 2881
6038 7 2796 2769 2881
6039 1 2769 2770 2771
6040 2 2770 2771 2772
6041 3 2770 2771 2814
6042 2 2772 2771 2814
6043 4 2771 2772 2773
6044 4 2771 2772 2815
6045 5 2773 2772 2815
6046 6 2772 2773 2774
6047 5 2772 2773 2833
6048 6 2774 2773 2833
6049 7 2606 2775 2776
6050 7 2606 2775 2802
6051 7 2606 2775 2890
6052 7 2776 2775 2802
6053 7 2776 2775 2890
6054 7 2802 2775 2890
6055 1 2775 2776 2777
6056 2 2776 2777 2778
6057 3 2776 2777 2811
6058 2 2778 2777 2811
6059 4 2777 2778 2779
6060 4 2777 2778 2812
6061 5 2779 2778 2812
6062 6 2778 2779 2780
6063 5 2778 2779 2830
6064 6 2780 2779 2830
6065 7 2615 2781 2782
6066 7 2615 2781 2793
6067 7 2615 2781 2887
6068 7 2782 2781 2793
6069 7 2782 2781 2887
6070 7 2793 2781 2887
6071 1 2781 2782 2783
6072 2 2782 2783 2784
6073 3 2782 2783 2805
6074 2 2784 2783 2805
6075 4 2783 2784 2785
6076 4 2783 2784 2806
6077 5 2785 2784 2806
6078 6 2784 2785 2786
6079 5 2784 2785 2839
6080 6 2786 2785 2839
6081 7 2604 2787 2788
6082 7 2604 2787 2799
6083 7 2604 2787 2884
6084 7 2788 2787 2799
6085 7 2788 2787 2884
6086 7 2799 2787 2884
6087 1 2787 2788 2789
6088 2 2788 2789 2790
6089 3 2788 2789 2808
6090 2 2790 2789 2808
6091 4 2789 2790 2791
6092 4 2789 2790 2809
6093 5 2791 2790 2809
6094 6 2790 2791 2792
6095 5 2790 2791 2836
6096 6 2792 2791 2836
6097 1 2755 2793 2781
6098 5 2715 2794 2756
6099 6 2715 2794 2795
6100 6 2756 2794 2795
6101 1 2750 2796 2769
6102 5 2709 2797 2751
6103 6 2709 2797 2798
6104 6 2751 2797 2798
6105 1 2760 2799 2787
6106 5 2727 2800 2761
6107 6 2727 2800 2801
6108 6 2761 2800 2801
6109 1 2765 2802 2775
6110 5 2721 2803 2766
6111 6 2721 2803 2804
6112 6 2766 2803 2804
6113 1 2614 2805 2783
6114 5 2737 2806 2784
6115 6 2737 2806 2807
6116 6 2784 2806 2807
6117 1 2603 2808 2789
6118 5 2732 2809 2790
6119 6 2732 2809 2810
6120 6 2790 2809 2810
6121 1 2605 2811 2777
6122 5 2747 2812 2778
6123 6 2747 2812 2813
6124 6 2778 2812 2813
6125 1 2607 2814 2771
6126 5 2742 2815 2772
6127 6 2742 2815 2816
6128 6 2772 2815 2816
6129 1 2583 2817 2713
6130 5 2714 2818 2757
6131 6 2714 2818 2819
6132 6 2757 2818 2819
6133 1 2564 2820 2707
6134 5 2708 2821 2752
6135 6 2708 2821 2822
6136 6 2752 2821 2822
6137 1 2602 2823 2719
6138 5 2720 2824 2767
6139 6 2720 2824 2825
6140 6 2767 2824 2825
6141 1 2563 2826 2725
6142 5 2726 2827 2762
6143 6 2726 2827 2828
6144 6 2762 2827 2828
6145 1 2711 2829 2745
6146 5 2746 2830 2779
6147 6 2746 2830 2831
6148 6 2779 2830 2831
6149 1 2723 2832 2740
6150 5 2741 2833 2773
6151 6 2741 2833 2834
6152 6 2773 2833 2834
6153 1 2705 2835 2730
6154 5 2731 2836 2791
6155 6 2731 2836 2837
6156 6 2791 2836 2837
6157 1 2717 2838 2735
6158 5 2736 2839 2785
6159 6 2736 2839 2840
6160 6 2785 2839 2840
6161 1 2711 2841 2842
6162 2 2841 2842 2843
6163 3 2841 2842 2902
6164 2 2843 2842 2902
6165 4 2842 2843 2844
6166 4 2842 2843 2903
6167 5 2844 2843 2903
6168 6 2843 2844 2845
6169 5 2843 2844 2885
6170 6 2845 2844 2885
6171 1 2717 2846 2847
6172 2 2846 2847 2848
6173 3 2846 2847 2899
6174 2 2848 2847 2899
6175 4 2847 2848 2849
6176 4 2847 2848 2900
6177 5 2849 2848 2900
6178 6 2848 2849 2850
6179 5 2848 2849 2882
6180 6 2850 2849 2882
6181 1 2705 2851 2852
6182 2 2851 2852 2853
6183 3 2851 2852 2893
6184 2 2853 2852 2893
6185 4 2852 2853 2854
6186 4 2852 2853 2894
6187 5 2854 2853 2894
6188 6 2853 2854 2855
6189 5 2853 2854 2891
6190 6 2855 2854 2891
6191 1 2723 2856 2857
6192 2 2856 2857 2858
6193 3 2856 2857 2896
6194 2 2858 2857 2896
6195 4 2857 2858 2859
6196 4 2857 2858 2897
6197 5 2859 2858 2897
6198 6 2858 2859 2860
6199 5 2858 2859 2888
6200 6 2860 2859 2888
6201 1 2627 2861 2862
6202 2 2861 2862 2863
6203 3 2861 2862 2887
6204 2 2863 2862 2887
6205 4 2862 2863 2864
6206 4 2862 2863 2888
6207 5 2864 2863 2888
6208 6 2863 2864 2865
6209 5 2863 2864 2897
6210 6 2865 2864 2897
6211 1 2633 2866 2867
6212 2 2866 2867 2868
6213 3 2866 2867 2890
6214 2 2868 2867 2890
6215 4 2867 2868 2869
6216 4 2867 2868 2891
6217 5 2869 2868 2891
6218 6 2868 2869 2870
6219 5 2868 2869 2894
6220 6 2870 2869 2894
6221 1 2621 2871 2872
6222 2 2871 2872 2873
6223 3 2871 2872 2884
6224 2 2873 2872 2884
6225 4 2872 2873 2874
6226 4 2872 2873 2885
6227 5 2874 2873 2885
6228 6 2873 2874 2875
6229 5 2873 2874 2903
6230 6 2875 2874 2903
6231 1 2639 2876 2877
6232 2 2876 2877 2878
6233 3 2876 2877 2881
6234 2 2878 2877 2881
6235 4 2877 2878 2879
6236 4 2877 2878 2882
6237 5 2879 2878 2882
6238 6 2878 2879 2880
6239 5 2878 2879 2900
6240 6 2880 2879 2900
6241 1 2769 2881 2877
6242 5 2849 2882 2878
6243 6 2849 2882 2883
6244 6 2878 2882 2883
6245 1 2787 2884 2872
6246 5 2844 2885 2873
6247 6 2844 2885 2886
6248 6 2873 2885 2886
6249 1 2781 2887 2862
6250 5 2859 2888 2863
6251 6 2859 2888 2889
6252 6 2863 2888 2889
6253 1 2775 2890 2867
6254 5 2854 2891 2868
6255 6 2854 2891 2892
6256 6 2868 2891 2892
6257 1 2598 2893 2852
6258 5 2853 2894 2869
6259 6 2853 2894 2895
6260 6 2869 2894 2895
6261 1 2581 2896 2857
6262 5 2858 2897 2864
6263 6 2858 2897 2898
6264 6 2864 2897 2898
6265 1 2590 2899 2847
6266 5 2848 2900 2879
6267 6 2848 2900 2901
6268 6 2879 2900 2901
6269 1 2582 2902 2842
6270 5 2843 2903 2874
6271 6 2843 2903 2904
6272 6 2874 2903 2904
6273 1 2582 2905 2921
6274 1 2598 2906 2925
6275 1 2600 2907 2957
6276 1 2601 2908 2961
6277 1 2564 2909 2945
6278 1 2602 2910 2949
6279 1 2603 2911 2929
6280 1 2605 2912 2933
6281 1 2633 2913 2933
6282 1 2621 2914 2929
6283 1 2601 2915 2921
6284 1 2562 2916 2925
6285 1 2590 2917 2949
6286 1 2598 2918 2945
6287 1 2602 2919 2957
6288 1 2583 2920 2961
6289 3 2905 2921 2915
6290 2 2905 2921 2922
6291 2 2915 2921 2922
6292 4 2921 2922 2923
6293 4 2921 2922 2941
6294 5 2923 2922 2941
6295 5 3097 2923 2922
6296 6 3097 2923 2924
6297 6 2922 2923 2924
6298 3 2906 2925 2916
6299 2 2906 2925 2926
6300 2 2916 2925 2926
6301 4 2925 2926 2927
6302 4 2925 2926 2943
6303 5 2927 2926 2943
6304 5 3094 2927 2926
6305 6 3094 2927 2928
6306 6 2926 2927 2928
6307 3 2911 2929 2914
6308 2 2911 2929 2930
6309 2 2914 2929 2930
6310 4 2929 2930 2931
6311 4 2929 2930 2939
6312 5 2931 2930 2939
6313 5 3127 2931 2930
6314 6 3127 2931 2932
6315 6 2930 2931 2932
6316 3 2912 2933 2913
6317 2 2912 2933 2934
6318 2 2913 2933 2934
6319 4 2933 2934 2935
6320 4 2933 2934 2937
6321 5 2935 2934 2937
6322 5 3124 2935 2934
6323 6 3124 2935 2936
6324 6 2934 2935 2936
6325 5 3019 2937 2934
6326 6 3019 2937 2938
6327 6 2934 2937 2938
6328 5 3012 2939 2930
6329 6 3012 2939 2940
6330 6 2930 2939 2940
6331 5 3043 2941 2922
6332 6 3043 2941 2942
6333 6 2922 2941 2942
6334 5 3036 2943 2926
6335 6 3036 2943 2944
6336 6 2926 2943 2944
6337 3 2909 2945 2918
6338 2 2909 2945 2946
6339 2 2918 2945 2946
6340 4 2945 2946 2947
6341 4 2945 2946 2955
6342 5 2947 2946 2955
6343 5 1849 2947 2946
6344 6 1849 2947 2948
6345 6 2946 2947 2948
6346 3 2910 2949 2917
6347 2 2910 2949 2950
6348 2 2917 2949 2950
6349 4 2949 2950 2951
6350 4 2949 2950 2953
6351 5 2951 2950 2953
6352 5 1846 2951 2950
6353 6 1846 2951 2952
6354 6 2950 2951 2952
6355 5 1783 2953 2950
6356 6 1783 2953 2954
6357 6 2950 2953 2954
6358 5 1777 2955 2946
6359 6 1777 2955 2956
6360 6 2946 2955 2956
6361 3 2907 2957 2919
6362 2 2907 2957 2958
6363 2 2919 2957 2958
6364 4 2957 2958 2959
6365 4 2957 2958 2965
6366 5 2959 2958 2965
6367 5 989 2959 2958
6368 6 989 2959 2960
6369 6 2958 2959 2960
6370 3 2908 2961 2920
6371 2 2908 2961 2962
6372 2 2920 2961 2962
6373 4 2961 2962 2963
6374 4 2961 2962 2967
6375 5 2963 2962 2967
6376 5 986 2963 2962
6377 6 986 2963 2964
6378 6 2962 2963 2964
6379 5 959 2965 2958
6380 6 959 2965 2966
6381 6 2958 2965 2966
6382 5 953 2967 2962
6383 6 953 2967 2968
6384 6 2962 2967 2968
6385 1 2970 2969 2985
6386 2 2969 2970 2971
6387 3 2969 2970 2982
6388 2 2971 2970 2982
6389 4 2970 2971 2972
6390 4 2970 2971 2983
6391 5 2972 2971 2983
6392 6 2971 2972 2973
6393 5 2971 2972 1407
6394 6 2973 2972 1407
6395 1 2975 2974 2986
6396 2 2974 2975 2976
6397 3 2974 2975 2979
6398 2 2976 2975 2979
6399 4 2975 2976 2977
6400 4 2975 2976 2980
6401 5 2977 2976 2980
6402 6 2976 2977 2978
6403 5 2976 2977 1404
6404 6 2978 2977 1404
6405 1 2975 2979 2988
6406 6 2976 2980 2981
6407 5 2976 2980 1395
6408 6 2981 2980 1395
6409 1 2970 2982 2987
6410 6 2971 2983 2984
6411 5 2971 2983 1389
6412 6 2984 2983 1389
6413 7 2969 2985 3008
6414 7 2969 2985 3126
6415 7 2969 2985 3163
6416 7 3008 2985 3126
6417 7 3008 2985 3163
6418 7 3126 2985 3163
6419 7 2974 2986 3023
6420 7 2974 2986 3153
6421 7 2974 2986 3340
6422 7 3023 2986 3153
6423 7 3023 2986 3340
6424 7 3153 2986 3340
6425 7 2982 2987 2989
6426 7 2982 2987 3008
6427 7 2982 2987 3250
6428 7 2989 2987 3008
6429 7 2989 2987 3250
6430 7 3008 2987 3250
6431 7 2979 2988 3023
6432 7 2979 2988 3244
6433 7 2979 2988 3333
6434 7 3023 2988 3244
6435 7 3023 2988 3333
6436 7 3244 2988 3333
6437 1 2987 2989 2990
6438 2 2989 2990 2991
6439 3 2989 2990 2999
6440 2 2991 2990 2999
6441 4 2990 2991 2992
6442 4 2990 2991 3000
6443 5 2992 2991 3000
6444 6 2991 2992 2993
6445 5 2991 2992 2267
6446 6 2993 2992 2267
6447 1 2995 2994 3007
6448 2 2994 2995 2996
6449 3 2994 2995 3002
6450 2 2996 2995 3002
6451 4 2995 2996 2997
6452 4 2995 2996 3003
6453 5 2997 2996 3003
6454 6 2996 2997 2998
6455 5 2996 2997 2264
6456 6 2998 2997 2264
6457 1 2990 2999 3005
6458 6 2991 3000 3001
6459 5 2991 3000 2219
6460 6 3001 3000 2219
6461 1 2995 3002 3006
6462 6 2996 3003 3004
6463 5 2996 3003 2213
6464 6 3004 3003 2213
6465 7 2999 3005 3008
6466 7 2999 3005 3009
6467 7 2999 3005 3320
6468 7 3008 3005 3009
6469 7 3008 3005 3320
6470 7 3009 3005 3320
6471 7 3002 3006 3021
6472 7 3002 3006 3326
6473 7 3002 3006 3329
6474 7 3021 3006 3326
6475 7 3021 3006 3329
6476 7 3326 3006 3329
6477 7 2994 3007 3021
6478 7 2994 3007 3241
6479 7 2994 3007 3344
6480 7 3021 3007 3241
6481 7 3021 3007 3344
6482 7 3241 3007 3344
6483 8 2985 3008 2987
6484 8 2985 3008 3005
6485 8 2985 3008 3147
6486 8 2987 3008 3005
6487 8 2987 3008 3147
6488 8 3005 3008 3147
6489 1 3005 3009 3010
6490 2 3009 3010 3011
6491 3 3009 3010 3126
6492 2 3011 3010 3126
6493 4 3010 3011 3012
6494 4 3010 3011 3127
6495 5 3012 3011 3127
6496 6 3011 3012 3013
6497 5 3011 3012 2939
6498 6 3013 3012 2939
6499 7 3015 3014 3016
6500 7 3015 3014 3323
6501 7 3015 3014 3341
6502 7 3016 3014 3323
6503 7 3016 3014 3341
6504 7 3323 3014 3341
6505 8 3014 3015 3024
6506 8 3014 3015 3026
6507 8 3014 3015 3141
6508 8 3024 3015 3026
6509 8 3024 3015 3141
6510 8 3026 3015 3141
6511 1 3014 3016 3017
6512 2 3016 3017 3018
6513 3 3016 3017 3123
6514 2 3018 3017 3123
6515 4 3017 3018 3019
6516 4 3017 3018 3124
6517 5 3019 3018 3124
6518 6 3018 3019 3020
6519 5 3018 3019 2937
6520 6 3020 3019 2937
6521 8 3006 3021 3007
6522 8 3006 3021 3025
6523 8 3006 3021 3135
6524 8 3007 3021 3025
6525 8 3007 3021 3135
6526 8 3025 3021 3135
6527 7 3023 3022 3317
6528 7 3023 3022 3330
6529 7 3023 3022 3342
6530 7 3317 3022 3330
6531 7 3317 3022 3342
6532 7 3330 3022 3342
6533 8 2986 3023 2988
6534 8 2986 3023 3022
6535 8 2986 3023 3129
6536 8 2988 3023 3022
6537 8 2988 3023 3129
6538 8 3022 3023 3129
6539 7 3015 3024 3123
6540 7 3015 3024 3158
6541 7 3015 3024 3331
6542 7 3123 3024 3158
6543 7 3123 3024 3331
6544 7 3158 3024 3331
6545 7 3021 3025 3168
6546 7 3021 3025 3332
6547 7 3021 3025 3339
6548 7 3168 3025 3332
6549 7 3168 3025 3339
6550 7 3332 3025 3339
6551 7 3015 3026 3247
6552 7 3015 3026 3334
6553 7 3015 3026 3343
6554 7 3247 3026 3334
6555 7 3247 3026 3343
6556 7 3334 3026 3343
6557 7 3028 3027 3105
6558 7 3028 3027 3232
6559 7 3028 3027 3335
6560 7 3105 3027 3232
6561 7 3105 3027 3335
6562 7 3232 3027 3335
6563 8 3027 3028 3045
6564 8 3027 3028 3069
6565 8 3027 3028 3211
6566 8 3045 3028 3069
6567 8 3045 3028 3211
6568 8 3069 3028 3211
6569 7 3030 3029 3099
6570 7 3030 3029 3235
6571 7 3030 3029 3336
6572 7 3099 3029 3235
6573 7 3099 3029 3336
6574 7 3235 3029 3336
6575 8 3029 3030 3057
6576 8 3029 3030 3087
6577 8 3029 3030 3199
6578 8 3057 3030 3087
6579 8 3057 3030 3199
6580 8 3087 3030 3199
6581 7 3032 3031 3033
6582 7 3032 3031 3108
6583 7 3032 3031 3238
6584 7 3033 3031 3108
6585 7 3033 3031 3238
6586 7 3108 3031 3238
6587 8 3031 3032 3063
6588 8 3031 3032 3075
6589 8 3031 3032 3193
6590 8 3063 3032 3075
6591 8 3063 3032 3193
6592 8 3075 3032 3193
6593 1 3031 3033 3034
6594 2 3033 3034 3035
6595 3 3033 3034 3093
6596 2 3035 3034 3093
6597 4 3034 3035 3036
6598 4 3034 3035 3094
6599 5 3036 3035 3094
6600 6 3035 3036 3037
6601 5 3035 3036 2943
6602 6 3037 3036 2943
6603 7 3039 3038 3040
6604 7 3039 3038 3102
6605 7 3039 3038 3229
6606 7 3040 3038 3102
6607 7 3040 3038 3229
6608 7 3102 3038 3229
6609 8 3038 3039 3051
6610 8 3038 3039 3081
6611 8 3038 3039 3205
6612 8 3051 3039 3081
6613 8 3051 3039 3205
6614 8 3081 3039 3205
6615 1 3038 3040 3041
6616 2 3040 3041 3042
6617 3 3040 3041 3096
6618 2 3042 3041 3096
6619 4 3041 3042 3043
6620 4 3041 3042 3097
6621 5 3043 3042 3097
6622 6 3042 3043 3044
6623 5 3042 3043 2941
6624 6 3044 3043 2941
6625 7 3028 3045 3046
6626 7 3028 3045 3295
6627 7 3028 3045 3338
6628 7 3046 3045 3295
6629 7 3046 3045 3338
6630 7 3295 3045 3338
6631 1 3045 3046 3047
6632 2 3046 3047 3048
6633 3 3046 3047 3120
6634 2 3048 3047 3120
6635 4 3047 3048 3049
6636 4 3047 3048 3121
6637 5 3049 3048 3121
6638 6 3048 3049 3050
6639 5 3048 3049 2531
6640 6 3050 3049 2531
6641 7 3039 3051 3052
6642 7 3039 3051 3096
6643 7 3039 3051 3285
6644 7 3052 3051 3096
6645 7 3052 3051 3285
6646 7 3096 3051 3285
6647 1 3051 3052 3053
6648 2 3052 3053 3054
6649 3 3052 3053 3117
6650 2 3054 3053 3117
6651 4 3053 3054 3055
6652 4 3053 3054 3118
6653 5 3055 3054 3118
6654 6 3054 3055 3056
6655 5 3054 3055 2529
6656 6 3056 3055 2529
6657 7 3030 3057 3058
6658 7 3030 3057 3290
6659 7 3030 3057 3337
6660 7 3058 3057 3290
6661 7 3058 3057 3337
6662 7 3290 3057 3337
6663 1 3057 3058 3059
6664 2 3058 3059 3060
6665 3 3058 3059 3111
6666 2 3060 3059 3111
6667 4 3059 3060 3061
6668 4 3059 3060 3112
6669 5 3061 3060 3112
6670 5 2155 3061 3060
6671 6 2155 3061 3062
6672 6 3060 3061 3062
6673 7 3032 3063 3064
6674 7 3032 3063 3093
6675 7 3032 3063 3300
6676 7 3064 3063 3093
6677 7 3064 3063 3300
6678 7 3093 3063 3300
6679 1 3063 3064 3065
6680 2 3064 3065 3066
6681 3 3064 3065 3114
6682 2 3066 3065 3114
6683 4 3065 3066 3067
6684 4 3065 3066 3115
6685 5 3067 3066 3115
6686 5 2152 3067 3066
6687 6 2152 3067 3068
6688 6 3066 3067 3068
6689 7 3028 3069 3070
6690 7 3028 3069 3120
6691 7 3028 3069 3183
6692 7 3070 3069 3120
6693 7 3070 3069 3183
6694 7 3120 3069 3183
6695 1 3069 3070 3071
6696 2 3070 3071 3072
6697 3 3070 3071 3105
6698 2 3072 3071 3105
6699 4 3071 3072 3073
6700 4 3071 3072 3106
6701 5 3073 3072 3106
6702 6 3072 3073 3074
6703 5 3072 3073 1695
6704 6 3074 3073 1695
6705 7 3032 3075 3076
6706 7 3032 3075 3114
6707 7 3032 3075 3173
6708 7 3076 3075 3114
6709 7 3076 3075 3173
6710 7 3114 3075 3173
6711 1 3075 3076 3077
6712 2 3076 3077 3078
6713 3 3076 3077 3108
6714 2 3078 3077 3108
6715 4 3077 3078 3079
6716 4 3077 3078 3109
6717 5 3079 3078 3109
6718 6 3078 3079 3080
6719 5 3078 3079 1693
6720 6 3080 3079 1693
6721 7 3039 3081 3082
6722 7 3039 3081 3117
6723 7 3039 3081 3178
6724 7 3082 3081 3117
6725 7 3082 3081 3178
6726 7 3117 3081 3178
6727 1 3081 3082 3083
6728 2 3082 3083 3084
6729 3 3082 3083 3102
6730 2 3084 3083 3102
6731 4 3083 3084 3085
6732 4 3083 3084 3103
6733 5 3085 3084 3103
6734 5 1287 3085 3084
6735 6 1287 3085 3086
6736 6 3084 3085 3086
6737 7 3030 3087 3088
6738 7 3030 3087 3111
6739 7 3030 3087 3188
6740 7 3088 3087 3111
6741 7 3088 3087 3188
6742 7 3111 3087 3188
6743 1 3087 3088 3089
6744 2 3088 3089 3090
6745 3 3088 3089 3099
6746 2 3090 3089 3099
6747 4 3089 3090 3091
6748 4 3089 3090 3100
6749 5 3091 3090 3100
6750 5 1284 3091 3090
6751 6 1284 3091 3092
6752 6 3090 3091 3092
6753 1 3034 3093 3063
6754 6 3035 3094 3095
6755 5 3035 3094 2927
6756 6 3095 3094 2927
6757 1 3041 3096 3051
6758 6 3042 3097 3098
6759 5 3042 3097 2923
6760 6 3098 3097 2923
6761 1 3029 3099 3089
6762 5 1281 3100 3090
6763 6 1281 3100 3101
6764 6 3090 3100 3101
6765 1 3038 3102 3083
6766 5 1276 3103 3084
6767 6 1276 3103 3104
6768 6 3084 3103 3104
6769 1 3027 3105 3071
6770 6 3072 3106 3107
6771 5 3072 3106 1691
6772 6 3107 3106 1691
6773 1 3031 3108 3077
6774 6 3078 3109 3110
6775 5 3078 3109 1687
6776 6 3110 3109 1687
6777 1 3059 3111 3087
6778 5 2149 3112 3060
6779 6 2149 3112 3113
6780 6 3060 3112 3113
6781 1 3065 3114 3075
6782 5 2144 3115 3066
6783 6 2144 3115 3116
6784 6 3066 3115 3116
6785 1 3053 3117 3081
6786 6 3054 3118 3119
6787 5 3054 3118 2527
6788 6 3119 3118 2527
6789 1 3047 3120 3069
6790 6 3048 3121 3122
6791 5 3048 3121 2523
6792 6 3122 3121 2523
6793 1 3017 3123 3024
6794 6 3018 3124 3125
6795 5 3018 3124 2935
6796 6 3125 3124 2935
6797 1 2985 3126 3010
6798 6 3011 3127 3128
6799 5 3011 3127 2931
6800 6 3128 3127 2931
6801 7 3023 3129 3130
6802 7 3023 3129 3259
6803 7 3023 3129 3275
6804 7 3130 3129 3259
6805 7 3130 3129 3275
6806 7 3259 3129 3275
6807 1 3129 3130 3131
6808 2 3130 3131 3132
6809 3 3130 3131 3244
6810 2 3132 3131 3244
6811 4 3131 3132 3133
6812 4 3131 3132 3245
6813 5 3133 3132 3245
6814 6 3132 3133 3134
6815 5 3132 3133 3221
6816 6 3134 3133 3221
6817 7 3021 3135 3136
6818 7 3021 3135 3253
6819 7 3021 3135 3265
6820 7 3136 3135 3253
6821 7 3136 3135 3265
6822 7 3253 3135 3265
6823 1 3135 3136 3137
6824 2 3136 3137 3138
6825 3 3136 3137 3241
6826 2 3138 3137 3241
6827 4 3137 3138 3139
6828 4 3137 3138 3242
6829 5 3139 3138 3242
6830 6 3138 3139 3140
6831 5 3138 3139 3218
6832 6 3140 3139 3218
6833 7 3015 3141 3142
6834 7 3015 3141 3262
6835 7 3015 3141 3270
6836 7 3142 3141 3262
6837 7 3142 3141 3270
6838 7 3262 3141 3270
6839 1 3141 3142 3143
6840 2 3142 3143 3144
6841 3 3142 3143 3247
6842 2 3144 3143 3247
6843 4 3143 3144 3145
6844 4 3143 3144 3248
6845 5 3145 3144 3248
6846 6 3144 3145 3146
6847 5 3144 3145 3227
6848 6 3146 3145 3227
6849 7 3008 3147 3148
6850 7 3008 3147 3256
6851 7 3008 3147 3280
6852 7 3148 3147 3256
6853 7 3148 3147 3280
6854 7 3256 3147 3280
6855 1 3147 3148 3149
6856 2 3148 3149 3150
6857 3 3148 3149 3250
6858 2 3150 3149 3250
6859 4 3149 3150 3151
6860 4 3149 3150 3251
6861 5 3151 3150 3251
6862 6 3150 3151 3152
6863 5 3150 3151 3224
6864 6 3152 3151 3224
6865 1 2986 3153 3154
6866 2 3153 3154 3155
6867 3 3153 3154 3259
6868 2 3155 3154 3259
6869 4 3154 3155 3156
6870 4 3154 3155 3260
6871 5 3156 3155 3260
6872 6 3155 3156 3157
6873 5 3155 3156 3233
6874 6 3157 3156 3233
6875 1 3024 3158 3159
6876 2 3158 3159 3160
6877 3 3158 3159 3262
6878 2 3160 3159 3262
6879 4 3159 3160 3161
6880 4 3159 3160 3263
6881 5 3161 3160 3263
6882 6 3160 3161 3162
6883 5 3160 3161 3230
6884 6 3162 3161 3230
6885 1 2985 3163 3164
6886 2 3163 3164 3165
6887 3 3163 3164 3256
6888 2 3165 3164 3256
6889 4 3164 3165 3166
6890 4 3164 3165 3257
6891 5 3166 3165 3257
6892 6 3165 3166 3167
6893 5 3165 3166 3239
6894 6 3167 3166 3239
6895 1 3025 3168 3169
6896 2 3168 3169 3170
6897 3 3168 3169 3253
6898 2 3170 3169 3253
6899 4 3169 3170 3171
6900 4 3169 3170 3254
6901 5 3171 3170 3254
6902 6 3170 3171 3172
6903 5 3170 3171 3236
6904 6 3172 3171 3236
6905 1 3075 3173 3174
6906 2 3173 3174 3175
6907 3 3173 3174 3220
6908 2 3175 3174 3220
6909 4 3174 3175 3176
6910 4 3174 3175 3221
6911 5 3176 3175 3221
6912 6 3175 3176 3177
6913 5 3175 3176 3245
6914 6 3177 3176 3245
6915 1 3081 3178 3179
6916 2 3178 3179 3180
6917 3 3178 3179 3217
6918 2 3180 3179 3217
6919 4 3179 3180 3181
6920 4 3179 3180 3218
6921 5 3181 3180 3218
6922 6 3180 3181 3182
6923 5 3180 3181 3242
6924 6 3182 3181 3242
6925 1 3069 3183 3184
6926 2 3183 3184 3185
6927 3 3183 3184 3223
6928 2 3185 3184 3223
6929 4 3184 3185 3186
6930 4 3184 3185 3224
6931 5 3186 3185 3224
6932 6 3185 3186 3187
6933 5 3185 3186 3251
6934 6 3187 3186 3251
6935 1 3087 3188 3189
6936 2 3188 3189 3190
6937 3 3188 3189 3226
6938 2 3190 3189 3226
6939 4 3189 3190 3191
6940 4 3189 3190 3227
6941 5 3191 3190 3227
6942 6 3190 3191 3192
6943 5 3190 3191 3248
6944 6 3192 3191 3248
6945 7 3032 3193 3194
6946 7 3032 3193 3220
6947 7 3032 3193 3305
6948 7 3194 3193 3220
6949 7 3194 3193 3305
6950 7 3220 3193 3305
6951 1 3193 3194 3195
6952 2 3194 3195 3196
6953 3 3194 3195 3238
6954 2 3196 3195 3238
6955 4 3195 3196 3197
6956 4 3195 3196 3239
6957 5 3197 3196 3239
6958 6 3196 3197 3198
6959 5 3196 3197 3257
6960 6 3198 3197 3257
6961 7 3030 3199 3200
6962 7 3030 3199 3226
6963 7 3030 3199 3314
6964 7 3200 3199 3226
6965 7 3200 3199 3314
6966 7 3226 3199 3314
6967 1 3199 3200 3201
6968 2 3200 3201 3202
6969 3 3200 3201 3235
6970 2 3202 3201 3235
6971 4 3201 3202 3203
6972 4 3201 3202 3236
6973 5 3203 3202 3236
6974 6 3202 3203 3204
6975 5 3202 3203 3254
6976 6 3204 3203 3254
6977 7 3039 3205 3206
6978 7 3039 3205 3217
6979 7 3039 3205 3311
6980 7 3206 3205 3217
6981 7 3206 3205 3311
6982 7 3217 3205 3311
6983 1 3205 3206 3207
6984 2 3206 3207 3208
6985 3 3206 3207 3229
6986 2 3208 3207 3229
6987 4 3207 3208 3209
6988 4 3207 3208 3230
6989 5 3209 3208 3230
6990 6 3208 3209 3210
6991 5 3208 3209 3263
6992 6 3210 3209 3263
6993 7 3028 3211 3212
6994 7 3028 3211 3223
6995 7 3028 3211 3308
6996 7 3212 3211 3223
6997 7 3212 3211 3308
6998 7 3223 3211 3308
6999 1 3211 3212 3213
7000 2 3212 3213 3214
7001 3 3212 3213 3232
7002 2 3214 3213 3232
7003 4 3213 3214 3215
7004 4 3213 3214 3233
7005 5 3215 3214 3233
7006 6 3214 3215 3216
7007 5 3214 3215 3260
7008 6 3216 3215 3260
7009 1 3179 3217 3205
7010 5 3139 3218 3180
7011 6 3139 3218 3219
7012 6 3180 3218 3219
7013 1 3174 3220 3193
7014 5 3133 3221 3175
7015 6 3133 3221 3222
7016 6 3175 3221 3222
7017 1 3184 3223 3211
7018 5 3151 3224 3185
7019 6 3151 3224 3225
7020 6 3185 3224 3225
7021 1 3189 3226 3199
7022 5 3145 3227 3190
7023 6 3145 3227 3228
7024 6 3190 3227 3228
7025 1 3038 3229 3207
7026 5 3161 3230 3208
7027 6 3161 3230 3231
7028 6 3208 3230 3231
7029 1 3027 3232 3213
7030 5 3156 3233 3214
7031 6 3156 3233 3234
7032 6 3214 3233 3234
7033 1 3029 3235 3201
7034 5 3171 3236 3202
7035 6 3171 3236 3237
7036 6 3202 3236 3237
7037 1 3031 3238 3195
7038 5 3166 3239 3196
7039 6 3166 3239 3240
7040 6 3196 3239 3240
7041 1 3007 3241 3137
7042 5 3138 3242 3181
7043 6 3138 3242 3243
7044 6 3181 3242 3243
7045 1 2988 3244 3131
7046 5 3132 3245 3176
7047 6 3132 3245 3246
7048 6 3176 3245 3246
7049 1 3026 3247 3143
7050 5 3144 3248 3191
7051 6 3144 3248 3249
7052 6 3191 3248 3249
7053 1 2987 3250 3149
7054 5 3150 3251 3186
7055 6 3150 3251 3252
7056 6 3186 3251 3252
7057 1 3135 3253 3169
7058 5 3170 3254 3203
7059 6 3170 3254 3255
7060 6 3203 3254 3255
7061 1 3147 3256 3164
7062 5 3165 3257 3197
7063 6 3165 3257 3258
7064 6 3197 3257 3258
7065 1 3129 3259 3154
7066 5 3155 3260 3215
7067 6 3155 3260 3261
7068 6 3215 3260 3261
7069 1 3141 3262 3159
7070 5 3160 3263 3209
7071 6 3160 3263 3264
7072 6 3209 3263 3264
7073 1 3135 3265 3266
7074 2 3265 3266 3267
7075 3 3265 3266 3326
7076 2 3267 3266 3326
7077 4 3266 3267 3268
7078 4 3266 3267 3327
7079 5 3268 3267 3327
7080 6 3267 3268 3269
7081 5 3267 3268 3309
7082 6 3269 3268 3309
7083 1 3141 3270 3271
7084 2 3270 3271 3272
7085 3 3270 3271 3323
7086 2 3272 3271 3323
7087 4 3271 3272 3273
7088 4 3271 3272 3324
7089 5 3273 3272 3324
7090 6 3272 3273 3274
7091 5 3272 3273 3306
7092 6 3274 3273 3306
7093 1 3129 3275 3276
7094 2 3275 3276 3277
7095 3 3275 3276 3317
7096 2 3277 3276 3317
7097 4 3276 3277 3278
7098 4 3276 3277 3318
7099 5 3278 3277 3318
7100 6 3277 3278 3279
7101 5 3277 3278 3315
7102 6 3279 3278 3315
7103 1 3147 3280 3281
7104 2 3280 3281 3282
7105 3 3280 3281 3320
7106 2 3282 3281 3320
7107 4 3281 3282 3283
7108 4 3281 3282 3321
7109 5 3283 3282 3321
7110 6 3282 3283 3284
7111 5 3282 3283 3312
7112 6 3284 3283 3312
7113 1 3051 3285 3286
7114 2 3285 3286 3287
7115 3 3285 3286 3311
7116 2 3287 3286 3311
7117 4 3286 3287 3288
7118 4 3286 3287 3312
7119 5 3288 3287 3312
7120 6 3287 3288 3289
7121 5 3287 3288 3321
7122 6 3289 3288 3321
7123 1 3057 3290 3291
7124 2 3290 3291 3292
7125 3 3290 3291 3314
7126 2 3292 3291 3314
7127 4 3291 3292 3293
7128 4 3291 3292 3315
7129 5 3293 3292 3315
7130 6 3292 3293 3294
7131 5 3292 3293 3318
7132 6 3294 3293 3318
7133 1 3045 3295 3296
7134 2 3295 3296 3297
7135 3 3295 3296 3308
7136 2 3297 3296 3308
7137 4 3296 3297 3298
7138 4 3296 3297 3309
7139 5 3298 3297 3309
7140 6 3297 3298 3299
7141 5 3297 3298 3327
7142 6 3299 3298 3327
7143 1 3063 3300 3301
7144 2 3300 3301 3302
7145 3 3300 3301 3305
7146 2 3302 3301 3305
7147 4 3301 3302 3303
7148 4 3301 3302 3306
7149 5 3303 3302 3306
7150 6 3302 3303 3304
7151 5 3302 3303 3324
7152 6 3304 3303 3324
7153 1 3193 3305 3301
7154 5 3273 3306 3302
7155 6 3273 3306 3307
7156 6 3302 3306 3307
7157 1 3211 3308 3296
7158 5 3268 3309 3297
7159 6 3268 3309 3310
7160 6 3297 3309 3310
7161 1 3205 3311 3286
7162 5 3283 3312 3287
7163 6 3283 3312 3313
7164 6 3287 3312 3313
7165 1 3199 3314 3291
7166 5 3278 3315 3292
7167 6 3278 3315 3316
7168 6 3292 3315 3316
7169 1 3022 3317 3276
7170 5 3277 3318 3293
7171 6 3277 3318 3319
7172 6 3293 3318 3319
7173 1 3005 3320 3281
7174 5 3282 3321 3288
7175 6 3282 3321 3322
7176 6 3288 3321 3322
7177 1 3014 3323 3271
7178 5 3272 3324 3303
7179 6 3272 3324 3325
7180 6 3303 3324 3325
7181 1 3006 3326 3266
7182 5 3267 3327 3298
7183 6 3267 3327 3328
7184 6 3298 3327 3328
7185 1 3006 3329 3345
7186 1 3022 3330 3349
7187 1 3024 3331 3381
7188 1 3025 3332 3385
7189 1 2988 3333 3369
7190 1 3026 3334 3373
7191 1 3027 3335 3353
7192 1 3029 3336 3357
7193 1 3057 3337 3357
7194 1 3045 3338 3353
7195 1 3025 3339 3345
7196 1 2986 3340 3349
7197 1 3014 3341 3373
7198 1 3022 3342 3369
7199 1 3026 3343 3381
7200 1 3007 3344 3385
7201 3 3329 3345 3339
7202 2 3329 3345 3346
7203 2 3339 3345 3346
7204 4 3345 3346 3347
7205 4 3345 3346 3365
7206 5 3347 3346 3365
7207 5 2673 3347 3346
7208 6 2673 3347 3348
7209 6 3346 3347 3348
7210 3 3330 3349 3340
7211 2 3330 3349 3350
7212 2 3340 3349 3350
7213 4 3349 3350 3351
7214 4 3349 3350 3367
7215 5 3351 3350 3367
7216 5 2670 3351 3350
7217 6 2670 3351 3352
7218 6 3350 3351 3352
7219 3 3335 3353 3338
7220 2 3335 3353 3354
7221 2 3338 3353 3354
7222 4 3353 3354 3355
7223 4 3353 3354 3363
7224 5 3355 3354 3363
7225 5 2703 3355 3354
7226 6 2703 3355 3356
7227 6 3354 3355 3356
7228 3 3336 3357 3337
7229 2 3336 3357 3358
7230 2 3337 3357 3358
7231 4 3357 3358 3359
7232 4 3357 3358 3361
7233 5 3359 3358 3361
7234 5 2700 3359 3358
7235 6 2700 3359 3360
7236 6 3358 3359 3360
7237 5 2595 3361 3358
7238 6 2595 3361 3362
7239 6 3358 3361 3362
7240 5 2588 3363 3354
7241 6 2588 3363 3364
7242 6 3354 3363 3364
7243 5 2619 3365 3346
7244 6 2619 3365 3366
7245 6 3346 3365 3366
7246 5 2612 3367 3350
7247 6 2612 3367 3368
7248 6 3350 3367 3368
7249 3 3333 3369 3342
7250 2 3333 3369 3370
7251 2 3342 3369 3370
7252 4 3369 3370 3371
7253 4 3369 3370 3379
7254 5 3371 3370 3379
7255 5 2273 3371 3370
7256 6 2273 3371 3372
7257 6 3370 3371 3372
7258 3 3334 3373 3341
7259 2 3334 3373 3374
7260 2 3341 3373 3374
7261 4 3373 3374 3375
7262 4 3373 3374 3377
7263 5 3375 3374 3377
7264 5 2270 3375 3374
7265 6 2270 3375 3376
7266 6 3374 3375 3376
7267 5 2207 3377 3374
7268 6 2207 3377 3378
7269 6 3374 3377 3378
7270 5 2201 3379 3370
7271 6 2201 3379 3380
7272 6 3370 3379 3380
7273 3 3331 3381 3343
7274 2 3331 3381 3382
7275 2 3343 3381 3382
7276 4 3381 3382 3383
7277 4 3381 3382 3389
7278 5 3383 3382 3389
7279 5 1413 3383 3382
7280 6 1413 3383 3384
7281 6 3382 3383 3384
7282 3 3332 3385 3344
7283 2 3332 3385 3386
7284 2 3344 3385 3386
7285 4 3385 3386 3387
7286 4 3385 3386 3391
7287 5 3387 3386 3391
7288 5 1410 3387 3386
7289 6 1410 3387 3388
7290 6 3386 3387 3388
7291 5 1383 3389 3382
7292 6 1383 3389 3390
7293 6 3382 3389 3390
7294 5 1377 3391 3386
7295 6 1377 3391 3392
7296 6 3386 3391 3392

Dihedrals

1 1 17 1 2 3
2 1 17 1 2 14
3 2 1 2 3 4
4 2 1 2 3 15
5 2 14 2 3 4
6 2 14 2 3 15
7 1 1 2 14 19
8 1 3 2 14 19
9 3 2 3 4 5
10 3 2 3 4 1831
11 3 15 3 4 5
12 3 15 3 4 1831
13 3 2 3 15 16
14 3 2 3 15 1813
15 3 4 3 15 16
16 3 4 3 15 1813
17 3 3 4 1831 1812
18 3 3 4 1831 1832
19 3 5 4 1831 1812
20 3 5 4 1831 1832
21 1 18 6 7 8
22 1 18 6 7 11
23 2 6 7 8 9
24 2 6 7 8 12
25 2 11 7 8 9
26 2 11 7 8 12
27 1 6 7 11 20
28 1 8 7 11 20
29 3 7 8 9 10
30 3 7 8 9 1828
31 3 12 8 9 10
32 3 12 8 9 1828
33 3 7 8 12 13
34 3 7 8 12 1819
35 3 9 8 12 13
36 3 9 8 12 1819
37 3 8 9 1828 1818
38 3 8 9 1828 1829
39 3 10 9 1828 1818
40 3 10 9 1828 1829
41 3 8 12 1819 1818
42 3 8 12 1819 1820
43 3 13 12 1819 1818
44 3 13 12 1819 1820
45 3 3 15 1813 1812
46 3 3 15 1813 1814
47 3 16 15 1813 1812
48 3 16 15 1813 1814
49 1 19 21 22 23
50 1 19 21 22 31
51 2 21 22 23 24
52 2 21 22 23 32
53 2 31 22 23 24
54 2 31 22 23 32
55 1 21 22 31 37
56 1 23 22 31 37
57 3 22 23 24 25
58 3 22 23 24 995
59 3 32 23 24 25
60 3 32 23 24 995
61 3 22 23 32 33
62 3 22 23 32 947
63 3 24 23 32 33
64 3 24 23 32 947
65 3 23 24 995 946
66 3 23 24 995 996
67 3 25 24 995 946
68 3 25 24 995 996
69 1 39 26 27 28
70 1 39 26 27 34
71 2 26 27 28 29
72 2 26 27 28 35
73 2 34 27 28 29
74 2 34 27 28 35
75 1 26 27 34 38
76 1 28 27 34 38
77 3 27 28 29 30
78 3 27 28 29 992
79 3 35 28 29 30
80 3 35 28 29 992
81 3 27 28 35 36
82 3 27 28 35 941
83 3 29 28 35 36
84 3 29 28 35 941
85 3 28 29 992 940
86 3 28 29 992 993
87 3 30 29 992 940
88 3 30 29 992 993
89 3 23 32 947 946
90 3 23 32 947 948
91 3 33 32 947 946
92 3 33 32 947 948
93 3 28 35 941 940
94 3 28 35 941 942
95 3 36 35 941 940
96 3 36 35 941 942
97 1 37 41 42 43
98 1 37 41 42 158
99 2 41 42 43 44
100 2 41 42 43 159
101 2 158 42 43 44
102 2 158 42 43 159
103 1 41 42 158 17
104 1 43 42 158 17
105 3 42 43 44 45
106 3 42 43 44 819
107 3 159 43 44 45
108 3 159 43 44 819
109 3 42 43 159 160
110 3 42 43 159 811
111 3 44 43 159 160
112 3 44 43 159 811
113 3 43 44 819 810
114 3 43 44 819 820
115 3 45 44 819 810
116 3 45 44 819 820
117 1 46 48 49 50
118 1 46 48 49 155
119 2 48 49 50 51
120 2 48 49 50 156
121 2 155 49 50 51
122 2 155 49 50 156
123 1 48 49 155 56
124 1 50 49 155 56
125 3 49 50 51 52
126 3 49 50 51 817
127 3 156 50 51 52
128 3 156 50 51 817
129 3 49 50 156 157
130 3 49 50 156 815
131 3 51 50 156 157
132 3 51 50 156 815
133 3 50 51 817 814
134 3 50 51 817 818
135 3 52 51 817 814
136 3 52 51 817 818
137 1 63 65 66 67
138 1 63 65 66 125
139 2 65 66 67 68
140 2 65 66 67 126
141 2 125 66 67 68
142 2 125 66 67 126
143 1 65 66 125 95
144 1 67 66 125 95
145 3 66 67 68 69
146 3 66 67 68 823
147 3 126 67 68 69
148 3 126 67 68 823
149 3 66 67 126 127
150 3 66 67 126 807
151 3 68 67 126 127
152 3 68 67 126 807
153 3 67 68 823 806
154 3 67 68 823 824
155 3 69 68 823 806
156 3 69 68 823 824
157 1 70 72 73 74
158 1 70 72 73 128
159 2 72 73 74 75
160 2 72 73 74 129
161 2 128 73 74 75
162 2 128 73 74 129
163 1 72 73 128 83
164 1 74 73 128 83
165 3 73 74 75 76
166 3 73 74 75 821
167 3 129 74 75 76
168 3 129 74 75 821
169 3 73 74 129 130
170 3 73 74 129 803
171 3 75 74 129 130
172 3 75 74 129 803
173 3 74 75 821 802
174 3 74 75 821 822
175 3 76 75 821 802
176 3 76 75 821 822
177 1 77 78 79 80
178 1 77 78 79 152
179 2 78 79 80 81
180 2 78 79 80 153
181 2 152 79 80 81
182 2 152 79 80 153
183 1 78 79 152 101
184 1 80 79 152 101
185 3 79 80 81 82
186 3 79 80 81 1259
187 3 153 80 81 82
188 3 153 80 81 1259
189 3 79 80 153 154
190 3 79 80 153 1251
191 3 81 80 153 154
192 3 81 80 153 1251
193 3 80 81 1259 1250
194 3 80 81 1259 1260
195 3 82 81 1259 1250
196 3 82 81 1259 1260
197 1 83 84 85 86
198 1 83 84 85 149
199 2 84 85 86 87
200 2 84 85 86 150
201 2 149 85 86 87
202 2 149 85 86 150
203 1 84 85 149 113
204 1 86 85 149 113
205 3 85 86 87 88
206 3 85 86 87 1257
207 3 150 86 87 88
208 3 150 86 87 1257
209 3 85 86 150 151
210 3 85 86 150 1255
211 3 87 86 150 151
212 3 87 86 150 1255
213 3 86 87 1257 1254
214 3 86 87 1257 1258
215 3 88 87 1257 1254
216 3 88 87 1257 1258
217 1 89 90 91 92
218 1 89 90 91 143
219 2 90 91 92 93
220 2 90 91 92 144
221 2 143 91 92 93
222 2 143 91 92 144
223 1 90 91 143 119
224 1 92 91 143 119
225 3 91 92 93 883
226 3 91 92 93 94
227 3 144 92 93 883
228 3 144 92 93 94
229 3 91 92 144 877
230 3 91 92 144 145
231 3 93 92 144 877
232 3 93 92 144 145
233 1 95 96 97 98
234 1 95 96 97 146
235 2 96 97 98 99
236 2 96 97 98 147
237 2 146 97 98 99
238 2 146 97 98 147
239 1 96 97 146 107
240 1 98 97 146 107
241 3 97 98 99 880
242 3 97 98 99 100
243 3 147 98 99 880
244 3 147 98 99 100
245 3 97 98 147 872
246 3 97 98 147 148
247 3 99 98 147 872
248 3 99 98 147 148
249 1 101 102 103 104
250 1 101 102 103 137
251 2 102 103 104 105
252 2 102 103 104 138
253 2 137 103 104 105
254 2 137 103 104 138
255 1 102 103 137 59
256 1 104 103 137 59
257 3 103 104 105 106
258 3 103 104 105 2119
259 3 138 104 105 106
260 3 138 104 105 2119
261 3 103 104 138 139
262 3 103 104 138 2115
263 3 105 104 138 139
264 3 105 104 138 2115
265 3 104 105 2119 2114
266 3 104 105 2119 2120
267 3 106 105 2119 2114
268 3 106 105 2119 2120
269 1 107 108 109 110
270 1 107 108 109 140
271 2 108 109 110 111
272 2 108 109 110 141
273 2 140 109 110 111
274 2 140 109 110 141
275 1 108 109 140 63
276 1 110 109 140 63
277 3 109 110 111 112
278 3 109 110 111 2117
279 3 141 110 111 112
280 3 141 110 111 2117
281 3 109 110 141 142
282 3 109 110 141 2111
283 3 111 110 141 142
284 3 111 110 141 2111
285 3 110 111 2117 2110
286 3 110 111 2117 2118
287 3 112 111 2117 2110
288 3 112 111 2117 2118
289 1 113 114 115 116
290 1 113 114 115 134
291 2 114 115 116 117
292 2 114 115 116 135
293 2 134 115 116 117
294 2 134 115 116 135
295 1 114 115 134 70
296 1 116 115 134 70
297 3 115 116 117 1711
298 3 115 116 117 118
299 3 135 116 117 1711
300 3 135 116 117 118
301 3 115 116 135 1700
302 3 115 116 135 136
303 3 117 116 135 1700
304 3 117 116 135 136
305 1 119 120 121 122
306 1 119 120 121 131
307 2 120 121 122 123
308 2 120 121 122 132
309 2 131 121 122 123
310 2 131 121 122 132
311 1 120 121 131 61
312 1 122 121 131 61
313 3 121 122 123 1708
314 3 121 122 123 124
315 3 132 122 123 1708
316 3 132 122 123 124
317 3 121 122 132 1705
318 3 121 122 132 133
319 3 123 122 132 1705
320 3 123 122 132 133
321 3 67 126 807 806
322 3 67 126 807 808
323 3 127 126 807 806
324 3 127 126 807 808
325 3 74 129 803 802
326 3 74 129 803 804
327 3 130 129 803 802
328 3 130 129 803 804
329 3 104 138 2115 2114
330 3 104 138 2115 2116
331 3 139 138 2115 2114
332 3 139 138 2115 2116
333 3 110 141 2111 2110
334 3 110 141 2111 2112
335 3 142 141 2111 2110
336 3 142 141 2111 2112
337 3 86 150 1255 1254
338 3 86 150 1255 1256
339 3 151 150 1255 1254
340 3 151 150 1255 1256
341 3 80 153 1251 1250
342 3 80 153 1251 1252
343 3 154 153 1251 1250
344 3 154 153 1251 1252
345 3 50 156 815 814
346 3 50 156 815 816
347 3 157 156 815 814
348 3 157 156 815 816
349 3 43 159 811 810
350 3 43 159 811 812
351 3 160 159 811 810
352 3 160 159 811 812
353 1 161 162 163 164
354 1 161 162 163 276
355 2 162 163 164 165
356 2 162 163 164 277
357 2 276 163 164 165
358 2 276 163 164 277
359 1 162 163 276 20
360 1 164 163 276 20
361 3 163 164 165 166
362 3 163 164 165 253
363 3 277 164 165 166
364 3 277 164 165 253
365 3 163 164 277 208
366 3 163 164 277 278
367 3 165 164 277 208
368 3 165 164 277 278
369 3 164 165 253 207
370 3 164 165 253 254
371 3 166 165 253 207
372 3 166 165 253 254
373 1 167 168 169 170
374 1 167 168 169 273
375 2 168 169 170 171
376 2 168 169 170 274
377 2 273 169 170 171
378 2 273 169 170 274
379 1 168 169 273 39
380 1 170 169 273 39
381 3 169 170 171 172
382 3 169 170 171 250
383 3 274 170 171 172
384 3 274 170 171 250
385 3 169 170 274 213
386 3 169 170 274 275
387 3 171 170 274 213
388 3 171 170 274 275
389 3 170 171 250 212
390 3 170 171 250 251
391 3 172 171 250 212
392 3 172 171 250 251
393 1 173 174 175 176
394 1 173 174 175 279
395 2 174 175 176 177
396 2 174 175 176 280
397 2 279 175 176 177
398 2 279 175 176 280
399 1 174 175 279 58
400 1 176 175 279 58
401 3 175 176 177 178
402 3 175 176 177 259
403 3 280 176 177 178
404 3 280 176 177 259
405 3 175 176 280 223
406 3 175 176 280 281
407 3 177 176 280 223
408 3 177 176 280 281
409 3 176 177 259 222
410 3 176 177 259 260
411 3 178 177 259 222
412 3 178 177 259 260
413 1 179 180 181 182
414 1 179 180 181 282
415 2 180 181 182 183
416 2 180 181 182 283
417 2 282 181 182 183
418 2 282 181 182 283
419 1 180 181 282 19
420 1 182 181 282 19
421 3 181 182 183 184
422 3 181 182 183 256
423 3 283 182 183 184
424 3 283 182 183 256
425 3 181 182 283 218
426 3 181 182 283 284
427 3 183 182 283 218
428 3 183 182 283 284
429 3 182 183 256 217
430 3 182 183 256 257
431 3 184 183 256 217
432 3 184 183 256 257
433 1 18 185 186 187
434 1 18 185 186 291
435 2 185 186 187 188
436 2 185 186 187 292
437 2 291 186 187 188
438 2 291 186 187 292
439 1 185 186 291 161
440 1 187 186 291 161
441 3 186 187 188 189
442 3 186 187 188 265
443 3 292 187 188 189
444 3 292 187 188 265
445 3 186 187 292 247
446 3 186 187 292 293
447 3 188 187 292 247
448 3 188 187 292 293
449 3 187 188 265 246
450 3 187 188 265 266
451 3 189 188 265 246
452 3 189 188 265 266
453 1 56 190 191 192
454 1 56 190 191 294
455 2 190 191 192 193
456 2 190 191 192 295
457 2 294 191 192 193
458 2 294 191 192 295
459 1 190 191 294 173
460 1 192 191 294 173
461 3 191 192 193 194
462 3 191 192 193 262
463 3 295 192 193 194
464 3 295 192 193 262
465 3 191 192 295 241
466 3 191 192 295 296
467 3 193 192 295 241
468 3 193 192 295 296
469 3 192 193 262 240
470 3 192 193 262 263
471 3 194 193 262 240
472 3 194 193 262 263
473 1 17 195 196 197
474 1 17 195 196 288
475 2 195 196 197 198
476 2 195 196 197 289
477 2 288 196 197 198
478 2 288 196 197 289
479 1 195 196 288 179
480 1 197 196 288 179
481 3 196 197 198 199
482 3 196 197 198 271
483 3 289 197 198 199
484 3 289 197 198 271
485 3 196 197 289 229
486 3 196 197 289 290
487 3 198 197 289 229
488 3 198 197 289 290
489 3 197 198 271 228
490 3 197 198 271 272
491 3 199 198 271 228
492 3 199 198 271 272
493 1 57 200 201 202
494 1 57 200 201 285
495 2 200 201 202 203
496 2 200 201 202 286
497 2 285 201 202 203
498 2 285 201 202 286
499 1 200 201 285 167
500 1 202 201 285 167
501 3 201 202 203 204
502 3 201 202 203 268
503 3 286 202 203 204
504 3 286 202 203 268
505 3 201 202 286 235
506 3 201 202 286 287
507 3 203 202 286 235
508 3 203 202 286 287
509 3 202 203 268 234
510 3 202 203 268 269
511 3 204 203 268 234
512 3 204 203 268 269
513 1 107 205 206 207
514 1 107 205 206 252
515 2 205 206 207 208
516 2 205 206 207 253
517 2 252 206 207 208
518 2 252 206 207 253
519 1 205 206 252 225
520 1 207 206 252 225
521 3 206 207 208 209
522 3 206 207 208 277
523 3 253 207 208 209
524 3 253 207 208 277
525 3 206 207 253 165
526 3 206 207 253 254
527 3 208 207 253 165
528 3 208 207 253 254
529 3 207 208 277 164
530 3 207 208 277 278
531 3 209 208 277 164
532 3 209 208 277 278
533 1 113 210 211 212
534 1 113 210 211 249
535 2 210 211 212 213
536 2 210 211 212 250
537 2 249 211 212 213
538 2 249 211 212 250
539 1 210 211 249 237
540 1 212 211 249 237
541 3 211 212 213 214
542 3 211 212 213 274
543 3 250 212 213 214
544 3 250 212 213 274
545 3 211 212 250 171
546 3 211 212 250 251
547 3 213 212 250 171
548 3 213 212 250 251
549 3 212 213 274 170
550 3 212 213 274 275
551 3 214 213 274 170
552 3 214 213 274 275
553 1 101 215 216 217
554 1 101 215 216 255
555 2 215 216 217 218
556 2 215 216 217 256
557 2 255 216 217 218
558 2 255 216 217 256
559 1 215 216 255 243
560 1 217 216 255 243
561 3 216 217 218 219
562 3 216 217 218 283
563 3 256 217 218 219
564 3 256 217 218 283
565 3 216 217 256 183
566 3 216 217 256 257
567 3 218 217 256 183
568 3 218 217 256 257
569 3 217 218 283 182
570 3 217 218 283 284
571 3 219 218 283 182
572 3 219 218 283 284
573 1 119 220 221 222
574 1 119 220 221 258
575 2 220 221 222 223
576 2 220 221 222 259
577 2 258 221 222 223
578 2 258 221 222 259
579 1 220 221 258 231
580 1 222 221 258 231
581 3 221 222 223 224
582 3 221 222 223 280
583 3 259 222 223 224
584 3 259 222 223 280
585 3 221 222 259 177
586 3 221 222 259 260
587 3 223 222 259 177
588 3 223 222 259 260
589 3 222 223 280 176
590 3 222 223 280 281
591 3 224 223 280 176
592 3 224 223 280 281
593 1 225 226 227 228
594 1 225 226 227 270
595 2 226 227 228 229
596 2 226 227 228 271
597 2 270 227 228 229
598 2 270 227 228 271
599 1 226 227 270 63
600 1 228 227 270 63
601 3 227 228 229 230
602 3 227 228 229 289
603 3 271 228 229 230
604 3 271 228 229 289
605 3 227 228 271 198
606 3 227 228 271 272
607 3 229 228 271 198
608 3 229 228 271 272
609 3 228 229 289 197
610 3 228 229 289 290
611 3 230 229 289 197
612 3 230 229 289 290
613 1 231 232 233 234
614 1 231 232 233 267
615 2 232 233 234 235
616 2 232 233 234 268
617 2 267 233 234 235
618 2 267 233 234 268
619 1 232 233 267 61
620 1 234 233 267 61
621 3 233 234 235 236
622 3 233 234 235 286
623 3 268 234 235 236
624 3 268 234 235 286
625 3 233 234 268 203
626 3 233 234 268 269
627 3 235 234 268 203
628 3 235 234 268 269
629 3 234 235 286 202
630 3 234 235 286 287
631 3 236 235 286 202
632 3 236 235 286 287
633 1 237 238 239 240
634 1 237 238 239 261
635 2 238 239 240 241
636 2 238 239 240 262
637 2 261 239 240 241
638 2 261 239 240 262
639 1 238 239 261 70
640 1 240 239 261 70
641 3 239 240 241 242
642 3 239 240 241 295
643 3 262 240 241 242
644 3 262 240 241 295
645 3 239 240 262 193
646 3 239 240 262 263
647 3 241 240 262 193
648 3 241 240 262 263
649 3 240 241 295 192
650 3 240 241 295 296
651 3 242 241 295 192
652 3 242 241 295 296
653 1 243 244 245 246
654 1 243 244 245 264
655 2 244 245 246 247
656 2 244 245 246 265
657 2 264 245 246 247
658 2 264 245 246 265
659 1 244 245 264 59
660 1 246 245 264 59
661 3 245 246 247 248
662 3 245 246 247 292
663 3 265 246 247 248
664 3 265 246 247 292
665 3 245 246 265 188
666 3 245 246 265 266
667 3 247 246 265 188
668 3 247 246 265 266
669 3 246 247 292 187
670 3 246 247 292 293
671 3 248 247 292 187
672 3 248 247 292 293
673 1 167 297 298 299
674 1 167 297 298 358
675 2 297 298 299 300
676 2 297 298 299 359
677 2 358 298 299 300
678 2 358 298 299 359
679 1 297 298 358 38
680 1 299 298 358 38
681 3 298 299 300 301
682 3 298 299 300 341
683 3 359 299 300 301
684 3 359 299 300 341
685 3 298 299 359 330
686 3 298 299 359 360
687 3 300 299 359 330
688 3 300 299 359 360
689 3 299 300 341 329
690 3 299 300 341 342
691 3 301 300 341 329
692 3 301 300 341 342
693 1 173 302 303 304
694 1 173 302 303 355
695 2 302 303 304 305
696 2 302 303 304 356
697 2 355 303 304 305
698 2 355 303 304 356
699 1 302 303 355 46
700 1 304 303 355 46
701 3 303 304 305 306
702 3 303 304 305 338
703 3 356 304 305 306
704 3 356 304 305 338
705 3 303 304 356 335
706 3 303 304 356 357
707 3 305 304 356 335
708 3 305 304 356 357
709 3 304 305 338 334
710 3 304 305 338 339
711 3 306 305 338 334
712 3 306 305 338 339
713 1 161 307 308 309
714 1 161 307 308 349
715 2 307 308 309 310
716 2 307 308 309 350
717 2 349 308 309 310
718 2 349 308 309 350
719 1 307 308 349 54
720 1 309 308 349 54
721 3 308 309 310 311
722 3 308 309 310 347
723 3 350 309 310 311
724 3 350 309 310 347
725 3 308 309 350 325
726 3 308 309 350 351
727 3 310 309 350 325
728 3 310 309 350 351
729 3 309 310 347 324
730 3 309 310 347 348
731 3 311 310 347 324
732 3 311 310 347 348
733 1 179 312 313 314
734 1 179 312 313 352
735 2 312 313 314 315
736 2 312 313 314 353
737 2 352 313 314 315
738 2 352 313 314 353
739 1 312 313 352 37
740 1 314 313 352 37
741 3 313 314 315 316
742 3 313 314 315 344
743 3 353 314 315 316
744 3 353 314 315 344
745 3 313 314 353 320
746 3 313 314 353 354
747 3 315 314 353 320
748 3 315 314 353 354
749 3 314 315 344 319
750 3 314 315 344 345
751 3 316 315 344 319
752 3 316 315 344 345
753 1 83 317 318 319
754 1 83 317 318 343
755 2 317 318 319 320
756 2 317 318 319 344
757 2 343 318 319 320
758 2 343 318 319 344
759 1 317 318 343 237
760 1 319 318 343 237
761 3 318 319 320 321
762 3 318 319 320 353
763 3 344 319 320 321
764 3 344 319 320 353
765 3 318 319 344 315
766 3 318 319 344 345
767 3 320 319 344 315
768 3 320 319 344 345
769 3 319 320 353 314
770 3 319 320 353 354
771 3 321 320 353 314
772 3 321 320 353 354
773 1 89 322 323 324
774 1 89 322 323 346
775 2 322 323 324 325
776 2 322 323 324 347
777 2 346 323 324 325
778 2 346 323 324 347
779 1 322 323 346 231
780 1 324 323 346 231
781 3 323 324 325 326
782 3 323 324 325 350
783 3 347 324 325 326
784 3 347 324 325 350
785 3 323 324 347 310
786 3 323 324 347 348
787 3 325 324 347 310
788 3 325 324 347 348
789 3 324 325 350 309
790 3 324 325 350 351
791 3 326 325 350 309
792 3 326 325 350 351
793 1 77 327 328 329
794 1 77 327 328 340
795 2 327 328 329 330
796 2 327 328 329 341
797 2 340 328 329 330
798 2 340 328 329 341
799 1 327 328 340 243
800 1 329 328 340 243
801 3 328 329 330 331
802 3 328 329 330 359
803 3 341 329 330 331
804 3 341 329 330 359
805 3 328 329 341 300
806 3 328 329 341 342
807 3 330 329 341 300
808 3 330 329 341 342
809 3 329 330 359 299
810 3 329 330 359 360
811 3 331 330 359 299
812 3 331 330 359 360
813 1 95 332 333 334
814 1 95 332 333 337
815 2 332 333 334 335
816 2 332 333 334 338
817 2 337 333 334 335
818 2 337 333 334 338
819 1 332 333 337 225
820 1 334 333 337 225
821 3 333 334 335 336
822 3 333 334 335 356
823 3 338 334 335 336
824 3 338 334 335 356
825 3 333 334 338 305
826 3 333 334 338 339
827 3 335 334 338 305
828 3 335 334 338 339
829 3 334 335 356 304
830 3 334 335 356 357
831 3 336 335 356 304
832 3 336 335 356 357
833 1 38 361 377 371
834 1 38 361 377 378
835 1 54 362 381 372
836 1 54 362 381 382
837 1 56 363 413 375
838 1 56 363 413 414
839 1 57 364 417 376
840 1 57 364 417 418
841 1 20 365 401 374
842 1 20 365 401 402
843 1 58 366 405 373
844 1 58 366 405 406
845 1 59 367 385 370
846 1 59 367 385 386
847 1 61 368 389 369
848 1 61 368 389 390
849 1 89 369 389 368
850 1 89 369 389 390
851 1 77 370 385 367
852 1 77 370 385 386
853 1 57 371 377 361
854 1 57 371 377 378
855 1 18 372 381 362
856 1 18 372 381 382
857 1 46 373 405 366
858 1 46 373 405 406
859 1 54 374 401 365
860 1 54 374 401 402
861 1 58 375 413 363
862 1 58 375 413 414
863 1 39 376 417 364
864 1 39 376 417 418
865 2 361 377 378 379
866 2 361 377 378 397
867 2 371 377 378 379
868 2 371 377 378 397
869 3 377 378 379 553
870 3 377 378 379 380
871 3 397 378 379 553
872 3 397 378 379 380
873 3 377 378 397 499
874 3 377 378 397 398
875 3 379 378 397 499
876 3 379 378 397 398
877 2 362 381 382 383
878 2 362 381 382 399
879 2 372 381 382 383
880 2 372 381 382 399
881 3 381 382 383 550
882 3 381 382 383 384
883 3 399 382 383 550
884 3 399 382 383 384
885 3 381 382 399 492
886 3 381 382 399 400
887 3 383 382 399 492
888 3 383 382 399 400
889 2 367 385 386 387
890 2 367 385 386 395
891 2 370 385 386 387
892 2 370 385 386 395
893 3 385 386 387 583
894 3 385 386 387 388
895 3 395 386 387 583
896 3 395 386 387 388
897 3 385 386 395 468
898 3 385 386 395 396
899 3 387 386 395 468
900 3 387 386 395 396
901 2 368 389 390 391
902 2 368 389 390 393
903 2 369 389 390 391
904 2 369 389 390 393
905 3 389 390 391 580
906 3 389 390 391 392
907 3 393 390 391 580
908 3 393 390 391 392
909 3 389 390 393 475
910 3 389 390 393 394
911 3 391 390 393 475
912 3 391 390 393 394
913 2 365 401 402 403
914 2 365 401 402 411
915 2 374 401 402 403
916 2 374 401 402 411
917 3 401 402 403 1001
918 3 401 402 403 404
919 3 411 402 403 1001
920 3 411 402 403 404
921 3 401 402 411 929
922 3 401 402 411 412
923 3 403 402 411 929
924 3 403 402 411 412
925 2 366 405 406 407
926 2 366 405 406 409
927 2 373 405 406 407
928 2 373 405 406 409
929 3 405 406 407 998
930 3 405 406 407 408
931 3 409 406 407 998
932 3 409 406 407 408
933 3 405 406 409 935
934 3 405 406 409 410
935 3 407 406 409 935
936 3 407 406 409 410
937 2 363 413 414 415
938 2 363 413 414 421
939 2 375 413 414 415
940 2 375 413 414 421
941 3 413 414 415 1837
942 3 413 414 415 416
943 3 421 414 415 1837
944 3 421 414 415 416
945 3 413 414 421 1807
946 3 413 414 421 422
947 3 415 414 421 1807
948 3 415 414 421 422
949 2 364 417 418 419
950 2 364 417 418 423
951 2 376 417 418 419
952 2 376 417 418 423
953 3 417 418 419 1834
954 3 417 418 419 420
955 3 423 418 419 1834
956 3 423 418 419 420
957 3 417 418 423 1801
958 3 417 418 423 424
959 3 419 418 423 1801
960 3 419 418 423 424
961 1 441 425 426 427
962 1 441 425 426 438
963 2 425 426 427 428
964 2 425 426 427 439
965 2 438 426 427 428
966 2 438 426 427 439
967 1 425 426 438 443
968 1 427 426 438 443
969 3 426 427 428 429
970 3 426 427 428 2255
971 3 439 427 428 429
972 3 439 427 428 2255
973 3 426 427 439 440
974 3 426 427 439 2237
975 3 428 427 439 440
976 3 428 427 439 2237
977 3 427 428 2255 2236
978 3 427 428 2255 2256
979 3 429 428 2255 2236
980 3 429 428 2255 2256
981 1 442 430 431 432
982 1 442 430 431 435
983 2 430 431 432 433
984 2 430 431 432 436
985 2 435 431 432 433
986 2 435 431 432 436
987 1 430 431 435 444
988 1 432 431 435 444
989 3 431 432 433 434
990 3 431 432 433 2252
991 3 436 432 433 434
992 3 436 432 433 2252
993 3 431 432 436 437
994 3 431 432 436 2243
995 3 433 432 436 437
996 3 433 432 436 2243
997 3 432 433 2252 2242
998 3 432 433 2252 2253
999 3 434 433 2252 2242
1000 3 434 433 2252 2253
1001 3 432 436 2243 2242
1002 3 432 436 2243 2244
1003 3 437 436 2243 2242
1004 3 437 436 2243 2244
1005 3 427 439 2237 2236
1006 3 427 439 2237 2238
1007 3 440 439 2237 2236
1008 3 440 439 2237 2238
1009 1 443 445 446 447
1010 1 443 445 446 455
1011 2 445 446 447 448
1012 2 445 446 447 456
1013 2 455 446 447 448
1014 2 455 446 447 456
1015 1 445 446 455 461
1016 1 447 446 455 461
1017 3 446 447 448 449
1018 3 446 447 448 1419
1019 3 456 447 448 449
1020 3 456 447 448 1419
1021 3 446 447 456 457
1022 3 446 447 456 1371
1023 3 448 447 456 457
1024 3 448 447 456 1371
1025 3 447 448 1419 1370
1026 3 447 448 1419 1420
1027 3 449 448 1419 1370
1028 3 449 448 1419 1420
1029 1 463 450 451 452
1030 1 463 450 451 458
1031 2 450 451 452 453
1032 2 450 451 452 459
1033 2 458 451 452 453
1034 2 458 451 452 459
1035 1 450 451 458 462
1036 1 452 451 458 462
1037 3 451 452 453 454
1038 3 451 452 453 1416
1039 3 459 452 453 454
1040 3 459 452 453 1416
1041 3 451 452 459 460
1042 3 451 452 459 1365
1043 3 453 452 459 460
1044 3 453 452 459 1365
1045 3 452 453 1416 1364
1046 3 452 453 1416 1417
1047 3 454 453 1416 1364
1048 3 454 453 1416 1417
1049 3 447 456 1371 1370
1050 3 447 456 1371 1372
1051 3 457 456 1371 1370
1052 3 457 456 1371 1372
1053 3 452 459 1365 1364
1054 3 452 459 1365 1366
1055 3 460 459 1365 1364
1056 3 460 459 1365 1366
1057 1 461 465 466 467
1058 1 461 465 466 582
1059 2 465 466 467 468
1060 2 465 466 467 583
1061 2 582 466 467 468
1062 2 582 466 467 583
1063 1 465 466 582 441
1064 1 467 466 582 441
1065 3 466 467 468 469
1066 3 466 467 468 395
1067 3 583 467 468 469
1068 3 583 467 468 395
1069 3 466 467 583 584
1070 3 466 467 583 387
1071 3 468 467 583 584
1072 3 468 467 583 387
1073 3 467 468 395 386
1074 3 467 468 395 396
1075 3 469 468 395 386
1076 3 469 468 395 396
1077 1 470 472 473 474
1078 1 470 472 473 579
1079 2 472 473 474 475
1080 2 472 473 474 580
1081 2 579 473 474 475
1082 2 579 473 474 580
1083 1 472 473 579 480
1084 1 474 473 579 480
1085 3 473 474 475 476
1086 3 473 474 475 393
1087 3 580 474 475 476
1088 3 580 474 475 393
1089 3 473 474 580 581
1090 3 473 474 580 391
1091 3 475 474 580 581
1092 3 475 474 580 391
1093 3 474 475 393 390
1094 3 474 475 393 394
1095 3 476 475 393 390
1096 3 476 475 393 394
1097 1 487 489 490 491
1098 1 487 489 490 549
1099 2 489 490 491 492
1100 2 489 490 491 550
1101 2 549 490 491 492
1102 2 549 490 491 550
1103 1 489 490 549 519
1104 1 491 490 549 519
1105 3 490 491 492 493
1106 3 490 491 492 399
1107 3 550 491 492 493
1108 3 550 491 492 399
1109 3 490 491 550 551
1110 3 490 491 550 383
1111 3 492 491 550 551
1112 3 492 491 550 383
1113 3 491 492 399 382
1114 3 491 492 399 400
1115 3 493 492 399 382
1116 3 493 492 399 400
1117 1 494 496 497 498
1118 1 494 496 497 552
1119 2 496 497 498 499
1120 2 496 497 498 553
1121 2 552 497 498 499
1122 2 552 497 498 553
1123 1 496 497 552 507
1124 1 498 497 552 507
1125 3 497 498 499 500
1126 3 497 498 499 397
1127 3 553 498 499 500
1128 3 553 498 499 397
1129 3 497 498 553 554
1130 3 497 498 553 379
1131 3 499 498 553 554
1132 3 499 498 553 379
1133 3 498 499 397 378
1134 3 498 499 397 398
1135 3 500 499 397 378
1136 3 500 499 397 398
1137 1 501 502 503 504
1138 1 501 502 503 576
1139 2 502 503 504 505
1140 2 502 503 504 577
1141 2 576 503 504 505
1142 2 576 503 504 577
1143 1 502 503 576 525
1144 1 504 503 576 525
1145 3 503 504 505 506
1146 3 503 504 505 1683
1147 3 577 504 505 506
1148 3 577 504 505 1683
1149 3 503 504 577 578
1150 3 503 504 577 1675
1151 3 505 504 577 578
1152 3 505 504 577 1675
1153 3 504 505 1683 1674
1154 3 504 505 1683 1684
1155 3 506 505 1683 1674
1156 3 506 505 1683 1684
1157 1 507 508 509 510
1158 1 507 508 509 573
1159 2 508 509 510 511
1160 2 508 509 510 574
1161 2 573 509 510 511
1162 2 573 509 510 574
1163 1 508 509 573 537
1164 1 510 509 573 537
1165 3 509 510 511 512
1166 3 509 510 511 1681
1167 3 574 510 511 512
1168 3 574 510 511 1681
1169 3 509 510 574 575
1170 3 509 510 574 1679
1171 3 511 510 574 575
1172 3 511 510 574 1679
1173 3 510 511 1681 1678
1174 3 510 511 1681 1682
1175 3 512 511 1681 1678
1176 3 512 511 1681 1682
1177 1 513 514 515 516
1178 1 513 514 515 567
1179 2 514 515 516 517
1180 2 514 515 516 568
1181 2 567 515 516 517
1182 2 567 515 516 568
1183 1 514 515 567 543
1184 1 516 515 567 543
1185 3 515 516 517 1307
1186 3 515 516 517 518
1187 3 568 516 517 1307
1188 3 568 516 517 518
1189 3 515 516 568 1301
1190 3 515 516 568 569
1191 3 517 516 568 1301
1192 3 517 516 568 569
1193 1 519 520 521 522
1194 1 519 520 521 570
1195 2 520 521 522 523
1196 2 520 521 522 571
1197 2 570 521 522 523
1198 2 570 521 522 571
1199 1 520 521 570 531
1200 1 522 521 570 531
1201 3 521 522 523 1304
1202 3 521 522 523 524
1203 3 571 522 523 1304
1204 3 571 522 523 524
1205 3 521 522 571 1296
1206 3 521 522 571 572
1207 3 523 522 571 1296
1208 3 523 522 571 572
1209 1 525 526 527 528
1210 1 525 526 527 561
1211 2 526 527 528 529
1212 2 526 527 528 562
1213 2 561 527 528 529
1214 2 561 527 528 562
1215 1 526 527 561 483
1216 1 528 527 561 483
1217 3 527 528 529 530
1218 3 527 528 529 2543
1219 3 562 528 529 530
1220 3 562 528 529 2543
1221 3 527 528 562 563
1222 3 527 528 562 2539
1223 3 529 528 562 563
1224 3 529 528 562 2539
1225 3 528 529 2543 2538
1226 3 528 529 2543 2544
1227 3 530 529 2543 2538
1228 3 530 529 2543 2544
1229 1 531 532 533 534
1230 1 531 532 533 564
1231 2 532 533 534 535
1232 2 532 533 534 565
1233 2 564 533 534 535
1234 2 564 533 534 565
1235 1 532 533 564 487
1236 1 534 533 564 487
1237 3 533 534 535 536
1238 3 533 534 535 2541
1239 3 565 534 535 536
1240 3 565 534 535 2541
1241 3 533 534 565 566
1242 3 533 534 565 2535
1243 3 535 534 565 566
1244 3 535 534 565 2535
1245 3 534 535 2541 2534
1246 3 534 535 2541 2542
1247 3 536 535 2541 2534
1248 3 536 535 2541 2542
1249 1 537 538 539 540
1250 1 537 538 539 558
1251 2 538 539 540 541
1252 2 538 539 540 559
1253 2 558 539 540 541
1254 2 558 539 540 559
1255 1 538 539 558 494
1256 1 540 539 558 494
1257 3 539 540 541 2135
1258 3 539 540 541 542
1259 3 559 540 541 2135
1260 3 559 540 541 542
1261 3 539 540 559 2124
1262 3 539 540 559 560
1263 3 541 540 559 2124
1264 3 541 540 559 560
1265 1 543 544 545 546
1266 1 543 544 545 555
1267 2 544 545 546 547
1268 2 544 545 546 556
1269 2 555 545 546 547
1270 2 555 545 546 556
1271 1 544 545 555 485
1272 1 546 545 555 485
1273 3 545 546 547 2132
1274 3 545 546 547 548
1275 3 556 546 547 2132
1276 3 556 546 547 548
1277 3 545 546 556 2129
1278 3 545 546 556 557
1279 3 547 546 556 2129
1280 3 547 546 556 557
1281 3 491 550 383 382
1282 3 491 550 383 384
1283 3 551 550 383 382
1284 3 551 550 383 384
1285 3 498 553 379 378
1286 3 498 553 379 380
1287 3 554 553 379 378
1288 3 554 553 379 380
1289 3 528 562 2539 2538
1290 3 528 562 2539 2540
1291 3 563 562 2539 2538
1292 3 563 562 2539 2540
1293 3 534 565 2535 2534
1294 3 534 565 2535 2536
1295 3 566 565 2535 2534
1296 3 566 565 2535 2536
1297 3 510 574 1679 1678
1298 3 510 574 1679 1680
1299 3 575 574 1679 1678
1300 3 575 574 1679 1680
1301 3 504 577 1675 1674
1302 3 504 577 1675 1676
1303 3 578 577 1675 1674
1304 3 578 577 1675 1676
1305 3 474 580 391 390
1306 3 474 580 391 392
1307 3 581 580 391 390
1308 3 581 580 391 392
1309 3 467 583 387 386
1310 3 467 583 387 388
1311 3 584 583 387 386
1312 3 584 583 387 388
1313 1 585 586 587 588
1314 1 585 586 587 700
1315 2 586 587 588 589
1316 2 586 587 588 701
1317 2 700 587 588 589
1318 2 700 587 588 701
1319 1 586 587 700 444
1320 1 588 587 700 444
1321 3 587 588 589 590
1322 3 587 588 589 677
1323 3 701 588 589 590
1324 3 701 588 589 677
1325 3 587 588 701 632
1326 3 587 588 701 702
1327 3 589 588 701 632
1328 3 589 588 701 702
1329 3 588 589 677 631
1330 3 588 589 677 678
1331 3 590 589 677 631
1332 3 590 589 677 678
1333 1 591 592 593 594
1334 1 591 592 593 697
1335 2 592 593 594 595
1336 2 592 593 594 698
1337 2 697 593 594 595
1338 2 697 593 594 698
1339 1 592 593 697 463
1340 1 594 593 697 463
1341 3 593 594 595 596
1342 3 593 594 595 674
1343 3 698 594 595 596
1344 3 698 594 595 674
1345 3 593 594 698 637
1346 3 593 594 698 699
1347 3 595 594 698 637
1348 3 595 594 698 699
1349 3 594 595 674 636
1350 3 594 595 674 675
1351 3 596 595 674 636
1352 3 596 595 674 675
1353 1 597 598 599 600
1354 1 597 598 599 703
1355 2 598 599 600 601
1356 2 598 599 600 704
1357 2 703 599 600 601
1358 2 703 599 600 704
1359 1 598 599 703 482
1360 1 600 599 703 482
1361 3 599 600 601 602
1362 3 599 600 601 683
1363 3 704 600 601 602
1364 3 704 600 601 683
1365 3 599 600 704 647
1366 3 599 600 704 705
1367 3 601 600 704 647
1368 3 601 600 704 705
1369 3 600 601 683 646
1370 3 600 601 683 684
1371 3 602 601 683 646
1372 3 602 601 683 684
1373 1 603 604 605 606
1374 1 603 604 605 706
1375 2 604 605 606 607
1376 2 604 605 606 707
1377 2 706 605 606 607
1378 2 706 605 606 707
1379 1 604 605 706 443
1380 1 606 605 706 443
1381 3 605 606 607 608
1382 3 605 606 607 680
1383 3 707 606 607 608
1384 3 707 606 607 680
1385 3 605 606 707 642
1386 3 605 606 707 708
1387 3 607 606 707 642
1388 3 607 606 707 708
1389 3 606 607 680 641
1390 3 606 607 680 681
1391 3 608 607 680 641
1392 3 608 607 680 681
1393 1 442 609 610 611
1394 1 442 609 610 715
1395 2 609 610 611 612
1396 2 609 610 611 716
1397 2 715 610 611 612
1398 2 715 610 611 716
1399 1 609 610 715 585
1400 1 611 610 715 585
1401 3 610 611 612 613
1402 3 610 611 612 689
1403 3 716 611 612 613
1404 3 716 611 612 689
1405 3 610 611 716 671
1406 3 610 611 716 717
1407 3 612 611 716 671
1408 3 612 611 716 717
1409 3 611 612 689 670
1410 3 611 612 689 690
1411 3 613 612 689 670
1412 3 613 612 689 690
1413 1 480 614 615 616
1414 1 480 614 615 718
1415 2 614 615 616 617
1416 2 614 615 616 719
1417 2 718 615 616 617
1418 2 718 615 616 719
1419 1 614 615 718 597
1420 1 616 615 718 597
1421 3 615 616 617 618
1422 3 615 616 617 686
1423 3 719 616 617 618
1424 3 719 616 617 686
1425 3 615 616 719 665
1426 3 615 616 719 720
1427 3 617 616 719 665
1428 3 617 616 719 720
1429 3 616 617 686 664
1430 3 616 617 686 687
1431 3 618 617 686 664
1432 3 618 617 686 687
1433 1 441 619 620 621
1434 1 441 619 620 712
1435 2 619 620 621 622
1436 2 619 620 621 713
1437 2 712 620 621 622
1438 2 712 620 621 713
1439 1 619 620 712 603
1440 1 621 620 712 603
1441 3 620 621 622 623
1442 3 620 621 622 695
1443 3 713 621 622 623
1444 3 713 621 622 695
1445 3 620 621 713 653
1446 3 620 621 713 714
1447 3 622 621 713 653
1448 3 622 621 713 714
1449 3 621 622 695 652
1450 3 621 622 695 696
1451 3 623 622 695 652
1452 3 623 622 695 696
1453 1 481 624 625 626
1454 1 481 624 625 709
1455 2 624 625 626 627
1456 2 624 625 626 710
1457 2 709 625 626 627
1458 2 709 625 626 710
1459 1 624 625 709 591
1460 1 626 625 709 591
1461 3 625 626 627 628
1462 3 625 626 627 692
1463 3 710 626 627 628
1464 3 710 626 627 692
1465 3 625 626 710 659
1466 3 625 626 710 711
1467 3 627 626 710 659
1468 3 627 626 710 711
1469 3 626 627 692 658
1470 3 626 627 692 693
1471 3 628 627 692 658
1472 3 628 627 692 693
1473 1 531 629 630 631
1474 1 531 629 630 676
1475 2 629 630 631 632
1476 2 629 630 631 677
1477 2 676 630 631 632
1478 2 676 630 631 677
1479 1 629 630 676 649
1480 1 631 630 676 649
1481 3 630 631 632 633
1482 3 630 631 632 701
1483 3 677 631 632 633
1484 3 677 631 632 701
1485 3 630 631 677 589
1486 3 630 631 677 678
1487 3 632 631 677 589
1488 3 632 631 677 678
1489 3 631 632 701 588
1490 3 631 632 701 702
1491 3 633 632 701 588
1492 3 633 632 701 702
1493 1 537 634 635 636
1494 1 537 634 635 673
1495 2 634 635 636 637
1496 2 634 635 636 674
1497 2 673 635 636 637
1498 2 673 635 636 674
1499 1 634 635 673 661
1500 1 636 635 673 661
1501 3 635 636 637 638
1502 3 635 636 637 698
1503 3 674 636 637 638
1504 3 674 636 637 698
1505 3 635 636 674 595
1506 3 635 636 674 675
1507 3 637 636 674 595
1508 3 637 636 674 675
1509 3 636 637 698 594
1510 3 636 637 698 699
1511 3 638 637 698 594
1512 3 638 637 698 699
1513 1 525 639 640 641
1514 1 525 639 640 679
1515 2 639 640 641 642
1516 2 639 640 641 680
1517 2 679 640 641 642
1518 2 679 640 641 680
1519 1 639 640 679 667
1520 1 641 640 679 667
1521 3 640 641 642 643
1522 3 640 641 642 707
1523 3 680 641 642 643
1524 3 680 641 642 707
1525 3 640 641 680 607
1526 3 640 641 680 681
1527 3 642 641 680 607
1528 3 642 641 680 681
1529 3 641 642 707 606
1530 3 641 642 707 708
1531 3 643 642 707 606
1532 3 643 642 707 708
1533 1 543 644 645 646
1534 1 543 644 645 682
1535 2 644 645 646 647
1536 2 644 645 646 683
1537 2 682 645 646 647
1538 2 682 645 646 683
1539 1 644 645 682 655
1540 1 646 645 682 655
1541 3 645 646 647 648
1542 3 645 646 647 704
1543 3 683 646 647 648
1544 3 683 646 647 704
1545 3 645 646 683 601
1546 3 645 646 683 684
1547 3 647 646 683 601
1548 3 647 646 683 684
1549 3 646 647 704 600
1550 3 646 647 704 705
1551 3 648 647 704 600
1552 3 648 647 704 705
1553 1 649 650 651 652
1554 1 649 650 651 694
1555 2 650 651 652 653
1556 2 650 651 652 695
1557 2 694 651 652 653
1558 2 694 651 652 695
1559 1 650 651 694 487
1560 1 652 651 694 487
1561 3 651 652 653 654
1562 3 651 652 653 713
1563 3 695 652 653 654
1564 3 695 652 653 713
1565 3 651 652 695 622
1566 3 651 652 695 696
1567 3 653 652 695 622
1568 3 653 652 695 696
1569 3 652 653 713 621
1570 3 652 653 713 714
1571 3 654 653 713 621
1572 3 654 653 713 714
1573 1 655 656 657 658
1574 1 655 656 657 691
1575 2 656 657 658 659
1576 2 656 657 658 692
1577 2 691 657 658 659
1578 2 691 657 658 692
1579 1 656 657 691 485
1580 1 658 657 691 485
1581 3 657 658 659 660
1582 3 657 658 659 710
1583 3 692 658 659 660
1584 3 692 658 659 710
1585 3 657 658 692 627
1586 3 657 658 692 693
1587 3 659 658 692 627
1588 3 659 658 692 693
1589 3 658 659 710 626
1590 3 658 659 710 711
1591 3 660 659 710 626
1592 3 660 659 710 711
1593 1 661 662 663 664
1594 1 661 662 663 685
1595 2 662 663 664 665
1596 2 662 663 664 686
1597 2 685 663 664 665
1598 2 685 663 664 686
1599 1 662 663 685 494
1600 1 664 663 685 494
1601 3 663 664 665 666
1602 3 663 664 665 719
1603 3 686 664 665 666
1604 3 686 664 665 719
1605 3 663 664 686 617
1606 3 663 664 686 687
1607 3 665 664 686 617
1608 3 665 664 686 687
1609 3 664 665 719 616
1610 3 664 665 719 720
1611 3 666 665 719 616
1612 3 666 665 719 720
1613 1 667 668 669 670
1614 1 667 668 669 688
1615 2 668 669 670 671
1616 2 668 669 670 689
1617 2 688 669 670 671
1618 2 688 669 670 689
1619 1 668 669 688 483
1620 1 670 669 688 483
1621 3 669 670 671 672
1622 3 669 670 671 716
1623 3 689 670 671 672
1624 3 689 670 671 716
1625 3 669 670 689 612
1626 3 669 670 689 690
1627 3 671 670 689 612
1628 3 671 670 689 690
1629 3 670 671 716 611
1630 3 670 671 716 717
1631 3 672 671 716 611
1632 3 672 671 716 717
1633 1 591 721 722 723
1634 1 591 721 722 782
1635 2 721 722 723 724
1636 2 721 722 723 783
1637 2 782 722 723 724
1638 2 782 722 723 783
1639 1 721 722 782 462
1640 1 723 722 782 462
1641 3 722 723 724 725
1642 3 722 723 724 765
1643 3 783 723 724 725
1644 3 783 723 724 765
1645 3 722 723 783 754
1646 3 722 723 783 784
1647 3 724 723 783 754
1648 3 724 723 783 784
1649 3 723 724 765 753
1650 3 723 724 765 766
1651 3 725 724 765 753
1652 3 725 724 765 766
1653 1 597 726 727 728
1654 1 597 726 727 779
1655 2 726 727 728 729
1656 2 726 727 728 780
1657 2 779 727 728 729
1658 2 779 727 728 780
1659 1 726 727 779 470
1660 1 728 727 779 470
1661 3 727 728 729 730
1662 3 727 728 729 762
1663 3 780 728 729 730
1664 3 780 728 729 762
1665 3 727 728 780 759
1666 3 727 728 780 781
1667 3 729 728 780 759
1668 3 729 728 780 781
1669 3 728 729 762 758
1670 3 728 729 762 763
1671 3 730 729 762 758
1672 3 730 729 762 763
1673 1 585 731 732 733
1674 1 585 731 732 773
1675 2 731 732 733 734
1676 2 731 732 733 774
1677 2 773 732 733 734
1678 2 773 732 733 774
1679 1 731 732 773 478
1680 1 733 732 773 478
1681 3 732 733 734 735
1682 3 732 733 734 771
1683 3 774 733 734 735
1684 3 774 733 734 771
1685 3 732 733 774 749
1686 3 732 733 774 775
1687 3 734 733 774 749
1688 3 734 733 774 775
1689 3 733 734 771 748
1690 3 733 734 771 772
1691 3 735 734 771 748
1692 3 735 734 771 772
1693 1 603 736 737 738
1694 1 603 736 737 776
1695 2 736 737 738 739
1696 2 736 737 738 777
1697 2 776 737 738 739
1698 2 776 737 738 777
1699 1 736 737 776 461
1700 1 738 737 776 461
1701 3 737 738 739 740
1702 3 737 738 739 768
1703 3 777 738 739 740
1704 3 777 738 739 768
1705 3 737 738 777 744
1706 3 737 738 777 778
1707 3 739 738 777 744
1708 3 739 738 777 778
1709 3 738 739 768 743
1710 3 738 739 768 769
1711 3 740 739 768 743
1712 3 740 739 768 769
1713 1 507 741 742 743
1714 1 507 741 742 767
1715 2 741 742 743 744
1716 2 741 742 743 768
1717 2 767 742 743 744
1718 2 767 742 743 768
1719 1 741 742 767 661
1720 1 743 742 767 661
1721 3 742 743 744 745
1722 3 742 743 744 777
1723 3 768 743 744 745
1724 3 768 743 744 777
1725 3 742 743 768 739
1726 3 742 743 768 769
1727 3 744 743 768 739
1728 3 744 743 768 769
1729 3 743 744 777 738
1730 3 743 744 777 778
1731 3 745 744 777 738
1732 3 745 744 777 778
1733 1 513 746 747 748
1734 1 513 746 747 770
1735 2 746 747 748 749
1736 2 746 747 748 771
1737 2 770 747 748 749
1738 2 770 747 748 771
1739 1 746 747 770 655
1740 1 748 747 770 655
1741 3 747 748 749 750
1742 3 747 748 749 774
1743 3 771 748 749 750
1744 3 771 748 749 774
1745 3 747 748 771 734
1746 3 747 748 771 772
1747 3 749 748 771 734
1748 3 749 748 771 772
1749 3 748 749 774 733
1750 3 748 749 774 775
1751 3 750 749 774 733
1752 3 750 749 774 775
1753 1 501 751 752 753
1754 1 501 751 752 764
1755 2 751 752 753 754
1756 2 751 752 753 765
1757 2 764 752 753 754
1758 2 764 752 753 765
1759 1 751 752 764 667
1760 1 753 752 764 667
1761 3 752 753 754 755
1762 3 752 753 754 783
1763 3 765 753 754 755
1764 3 765 753 754 783
1765 3 752 753 765 724
1766 3 752 753 765 766
1767 3 754 753 765 724
1768 3 754 753 765 766
1769 3 753 754 783 723
1770 3 753 754 783 784
1771 3 755 754 783 723
1772 3 755 754 783 784
1773 1 519 756 757 758
1774 1 519 756 757 761
1775 2 756 757 758 759
1776 2 756 757 758 762
1777 2 761 757 758 759
1778 2 761 757 758 762
1779 1 756 757 761 649
1780 1 758 757 761 649
1781 3 757 758 759 760
1782 3 757 758 759 780
1783 3 762 758 759 760
1784 3 762 758 759 780
1785 3 757 758 762 729
1786 3 757 758 762 763
1787 3 759 758 762 729
1788 3 759 758 762 763
1789 3 758 759 780 728
1790 3 758 759 780 781
1791 3 760 759 780 728
1792 3 760 759 780 781
1793 1 462 785 801 795
1794 1 462 785 801 802
1795 1 478 786 805 796
1796 1 478 786 805 806
1797 1 480 787 837 799
1798 1 480 787 837 838
1799 1 481 788 841 800
1800 1 481 788 841 842
1801 1 444 789 825 798
1802 1 444 789 825 826
1803 1 482 790 829 797
1804 1 482 790 829 830
1805 1 483 791 809 794
1806 1 483 791 809 810
1807 1 485 792 813 793
1808 1 485 792 813 814
1809 1 513 793 813 792
1810 1 513 793 813 814
1811 1 501 794 809 791
1812 1 501 794 809 810
1813 1 481 795 801 785
1814 1 481 795 801 802
1815 1 442 796 805 786
1816 1 442 796 805 806
1817 1 470 797 829 790
1818 1 470 797 829 830
1819 1 478 798 825 789
1820 1 478 798 825 826
1821 1 482 799 837 787
1822 1 482 799 837 838
1823 1 463 800 841 788
1824 1 463 800 841 842
1825 2 785 801 802 803
1826 2 785 801 802 821
1827 2 795 801 802 803
1828 2 795 801 802 821
1829 3 801 802 803 129
1830 3 801 802 803 804
1831 3 821 802 803 129
1832 3 821 802 803 804
1833 3 801 802 821 75
1834 3 801 802 821 822
1835 3 803 802 821 75
1836 3 803 802 821 822
1837 2 786 805 806 807
1838 2 786 805 806 823
1839 2 796 805 806 807
1840 2 796 805 806 823
1841 3 805 806 807 126
1842 3 805 806 807 808
1843 3 823 806 807 126
1844 3 823 806 807 808
1845 3 805 806 823 68
1846 3 805 806 823 824
1847 3 807 806 823 68
1848 3 807 806 823 824
1849 2 791 809 810 811
1850 2 791 809 810 819
1851 2 794 809 810 811
1852 2 794 809 810 819
1853 3 809 810 811 159
1854 3 809 810 811 812
1855 3 819 810 811 159
1856 3 819 810 811 812
1857 3 809 810 819 44
1858 3 809 810 819 820
1859 3 811 810 819 44
1860 3 811 810 819 820
1861 2 792 813 814 815
1862 2 792 813 814 817
1863 2 793 813 814 815
1864 2 793 813 814 817
1865 3 813 814 815 156
1866 3 813 814 815 816
1867 3 817 814 815 156
1868 3 817 814 815 816
1869 3 813 814 817 51
1870 3 813 814 817 818
1871 3 815 814 817 51
1872 3 815 814 817 818
1873 2 789 825 826 827
1874 2 789 825 826 835
1875 2 798 825 826 827
1876 2 798 825 826 835
1877 3 825 826 827 1425
1878 3 825 826 827 828
1879 3 835 826 827 1425
1880 3 835 826 827 828
1881 3 825 826 835 1353
1882 3 825 826 835 836
1883 3 827 826 835 1353
1884 3 827 826 835 836
1885 2 790 829 830 831
1886 2 790 829 830 833
1887 2 797 829 830 831
1888 2 797 829 830 833
1889 3 829 830 831 1422
1890 3 829 830 831 832
1891 3 833 830 831 1422
1892 3 833 830 831 832
1893 3 829 830 833 1359
1894 3 829 830 833 834
1895 3 831 830 833 1359
1896 3 831 830 833 834
1897 2 787 837 838 839
1898 2 787 837 838 845
1899 2 799 837 838 839
1900 2 799 837 838 845
1901 3 837 838 839 2261
1902 3 837 838 839 840
1903 3 845 838 839 2261
1904 3 845 838 839 840
1905 3 837 838 845 2231
1906 3 837 838 845 846
1907 3 839 838 845 2231
1908 3 839 838 845 846
1909 2 788 841 842 843
1910 2 788 841 842 847
1911 2 800 841 842 843
1912 2 800 841 842 847
1913 3 841 842 843 2258
1914 3 841 842 843 844
1915 3 847 842 843 2258
1916 3 847 842 843 844
1917 3 841 842 847 2225
1918 3 841 842 847 848
1919 3 843 842 847 2225
1920 3 843 842 847 848
1921 1 865 849 850 851
1922 1 865 849 850 862
1923 2 849 850 851 852
1924 2 849 850 851 863
1925 2 862 850 851 852
1926 2 862 850 851 863
1927 1 849 850 862 867
1928 1 851 850 862 867
1929 3 850 851 852 853
1930 3 850 851 852 2679
1931 3 863 851 852 853
1932 3 863 851 852 2679
1933 3 850 851 863 864
1934 3 850 851 863 2661
1935 3 852 851 863 864
1936 3 852 851 863 2661
1937 3 851 852 2679 2660
1938 3 851 852 2679 2680
1939 3 853 852 2679 2660
1940 3 853 852 2679 2680
1941 1 866 854 855 856
1942 1 866 854 855 859
1943 2 854 855 856 857
1944 2 854 855 856 860
1945 2 859 855 856 857
1946 2 859 855 856 860
1947 1 854 855 859 868
1948 1 856 855 859 868
1949 3 855 856 857 858
1950 3 855 856 857 2676
1951 3 860 856 857 858
1952 3 860 856 857 2676
1953 3 855 856 860 861
1954 3 855 856 860 2667
1955 3 857 856 860 861
1956 3 857 856 860 2667
1957 3 856 857 2676 2666
1958 3 856 857 2676 2677
1959 3 858 857 2676 2666
1960 3 858 857 2676 2677
1961 3 856 860 2667 2666
1962 3 856 860 2667 2668
1963 3 861 860 2667 2666
1964 3 861 860 2667 2668
1965 3 851 863 2661 2660
1966 3 851 863 2661 2662
1967 3 864 863 2661 2660
1968 3 864 863 2661 2662
1969 1 867 869 870 871
1970 1 867 869 870 879
1971 2 869 870 871 872
1972 2 869 870 871 880
1973 2 879 870 871 872
1974 2 879 870 871 880
1975 1 869 870 879 885
1976 1 871 870 879 885
1977 3 870 871 872 873
1978 3 870 871 872 147
1979 3 880 871 872 873
1980 3 880 871 872 147
1981 3 870 871 880 881
1982 3 870 871 880 99
1983 3 872 871 880 881
1984 3 872 871 880 99
1985 3 871 872 147 98
1986 3 871 872 147 148
1987 3 873 872 147 98
1988 3 873 872 147 148
1989 1 887 874 875 876
1990 1 887 874 875 882
1991 2 874 875 876 877
1992 2 874 875 876 883
1993 2 882 875 876 877
1994 2 882 875 876 883
1995 1 874 875 882 886
1996 1 876 875 882 886
1997 3 875 876 877 878
1998 3 875 876 877 144
1999 3 883 876 877 878
2000 3 883 876 877 144
2001 3 875 876 883 884
2002 3 875 876 883 93
2003 3 877 876 883 884
2004 3 877 876 883 93
2005 3 876 877 144 92
2006 3 876 877 144 145
2007 3 878 877 144 92
2008 3 878 877 144 145
2009 3 871 880 99 98
2010 3 871 880 99 100
2011 3 881 880 99 98
2012 3 881 880 99 100
2013 3 876 883 93 92
2014 3 876 883 93 94
2015 3 884 883 93 92
2016 3 884 883 93 94
2017 1 885 889 890 891
2018 1 885 889 890 1006
2019 2 889 890 891 892
2020 2 889 890 891 1007
2021 2 1006 890 891 892
2022 2 1006 890 891 1007
2023 1 889 890 1006 865
2024 1 891 890 1006 865
2025 3 890 891 892 893
2026 3 890 891 892 1667
2027 3 1007 891 892 893
2028 3 1007 891 892 1667
2029 3 890 891 1007 1008
2030 3 890 891 1007 1659
2031 3 892 891 1007 1008
2032 3 892 891 1007 1659
2033 3 891 892 1667 1658
2034 3 891 892 1667 1668
2035 3 893 892 1667 1658
2036 3 893 892 1667 1668
2037 1 894 896 897 898
2038 1 894 896 897 1003
2039 2 896 897 898 899
2040 2 896 897 898 1004
2041 2 1003 897 898 899
2042 2 1003 897 898 1004
2043 1 896 897 1003 904
2044 1 898 897 1003 904
2045 3 897 898 899 900
2046 3 897 898 899 1665
2047 3 1004 898 899 900
2048 3 1004 898 899 1665
2049 3 897 898 1004 1005
2050 3 897 898 1004 1663
2051 3 899 898 1004 1005
2052 3 899 898 1004 1663
2053 3 898 899 1665 1662
2054 3 898 899 1665 1666
2055 3 900 899 1665 1662
2056 3 900 899 1665 1666
2057 1 911 913 914 915
2058 1 911 913 914 973
2059 2 913 914 915 916
2060 2 913 914 915 974
2061 2 973 914 915 916
2062 2 973 914 915 974
2063 1 913 914 973 943
2064 1 915 914 973 943
2065 3 914 915 916 917
2066 3 914 915 916 1671
2067 3 974 915 916 917
2068 3 974 915 916 1671
2069 3 914 915 974 975
2070 3 914 915 974 1655
2071 3 916 915 974 975
2072 3 916 915 974 1655
2073 3 915 916 1671 1654
2074 3 915 916 1671 1672
2075 3 917 916 1671 1654
2076 3 917 916 1671 1672
2077 1 918 920 921 922
2078 1 918 920 921 976
2079 2 920 921 922 923
2080 2 920 921 922 977
2081 2 976 921 922 923
2082 2 976 921 922 977
2083 1 920 921 976 931
2084 1 922 921 976 931
2085 3 921 922 923 924
2086 3 921 922 923 1669
2087 3 977 922 923 924
2088 3 977 922 923 1669
2089 3 921 922 977 978
2090 3 921 922 977 1651
2091 3 923 922 977 978
2092 3 923 922 977 1651
2093 3 922 923 1669 1650
2094 3 922 923 1669 1670
2095 3 924 923 1669 1650
2096 3 924 923 1669 1670
2097 1 925 926 927 928
2098 1 925 926 927 1000
2099 2 926 927 928 929
2100 2 926 927 928 1001
2101 2 1000 927 928 929
2102 2 1000 927 928 1001
2103 1 926 927 1000 949
2104 1 928 927 1000 949
2105 3 927 928 929 930
2106 3 927 928 929 411
2107 3 1001 928 929 930
2108 3 1001 928 929 411
2109 3 927 928 1001 1002
2110 3 927 928 1001 403
2111 3 929 928 1001 1002
2112 3 929 928 1001 403
2113 3 928 929 411 402
2114 3 928 929 411 412
2115 3 930 929 411 402
2116 3 930 929 411 412
2117 1 931 932 933 934
2118 1 931 932 933 997
2119 2 932 933 934 935
2120 2 932 933 934 998
2121 2 997 933 934 935
2122 2 997 933 934 998
2123 1 932 933 997 961
2124 1 934 933 997 961
2125 3 933 934 935 936
2126 3 933 934 935 409
2127 3 998 934 935 936
2128 3 998 934 935 409
2129 3 933 934 998 999
2130 3 933 934 998 407
2131 3 935 934 998 999
2132 3 935 934 998 407
2133 3 934 935 409 406
2134 3 934 935 409 410
2135 3 936 935 409 406
2136 3 936 935 409 410
2137 1 937 938 939 940
2138 1 937 938 939 991
2139 2 938 939 940 941
2140 2 938 939 940 992
2141 2 991 939 940 941
2142 2 991 939 940 992
2143 1 938 939 991 967
2144 1 940 939 991 967
2145 3 939 940 941 35
2146 3 939 940 941 942
2147 3 992 940 941 35
2148 3 992 940 941 942
2149 3 939 940 992 29
2150 3 939 940 992 993
2151 3 941 940 992 29
2152 3 941 940 992 993
2153 1 943 944 945 946
2154 1 943 944 945 994
2155 2 944 945 946 947
2156 2 944 945 946 995
2157 2 994 945 946 947
2158 2 994 945 946 995
2159 1 944 945 994 955
2160 1 946 945 994 955
2161 3 945 946 947 32
2162 3 945 946 947 948
2163 3 995 946 947 32
2164 3 995 946 947 948
2165 3 945 946 995 24
2166 3 945 946 995 996
2167 3 947 946 995 24
2168 3 947 946 995 996
2169 1 949 950 951 952
2170 1 949 950 951 985
2171 2 950 951 952 953
2172 2 950 951 952 986
2173 2 985 951 952 953
2174 2 985 951 952 986
2175 1 950 951 985 907
2176 1 952 951 985 907
2177 3 951 952 953 954
2178 3 951 952 953 2967
2179 3 986 952 953 954
2180 3 986 952 953 2967
2181 3 951 952 986 987
2182 3 951 952 986 2963
2183 3 953 952 986 987
2184 3 953 952 986 2963
2185 3 952 953 2967 2962
2186 3 952 953 2967 2968
2187 3 954 953 2967 2962
2188 3 954 953 2967 2968
2189 1 955 956 957 958
2190 1 955 956 957 988
2191 2 956 957 958 959
2192 2 956 957 958 989
2193 2 988 957 958 959
2194 2 988 957 958 989
2195 1 956 957 988 911
2196 1 958 957 988 911
2197 3 957 958 959 960
2198 3 957 958 959 2965
2199 3 989 958 959 960
2200 3 989 958 959 2965
2201 3 957 958 989 990
2202 3 957 958 989 2959
2203 3 959 958 989 990
2204 3 959 958 989 2959
2205 3 958 959 2965 2958
2206 3 958 959 2965 2966
2207 3 960 959 2965 2958
2208 3 960 959 2965 2966
2209 1 961 962 963 964
2210 1 961 962 963 982
2211 2 962 963 964 965
2212 2 962 963 964 983
2213 2 982 963 964 965
2214 2 982 963 964 983
2215 1 962 963 982 918
2216 1 964 963 982 918
2217 3 963 964 965 2559
2218 3 963 964 965 966
2219 3 983 964 965 2559
2220 3 983 964 965 966
2221 3 963 964 983 2548
2222 3 963 964 983 984
2223 3 965 964 983 2548
2224 3 965 964 983 984
2225 1 967 968 969 970
2226 1 967 968 969 979
2227 2 968 969 970 971
2228 2 968 969 970 980
2229 2 979 969 970 971
2230 2 979 969 970 980
2231 1 968 969 979 909
2232 1 970 969 979 909
2233 3 969 970 971 2556
2234 3 969 970 971 972
2235 3 980 970 971 2556
2236 3 980 970 971 972
2237 3 969 970 980 2553
2238 3 969 970 980 981
2239 3 971 970 980 2553
2240 3 971 970 980 981
2241 3 915 974 1655 1654
2242 3 915 974 1655 1656
2243 3 975 974 1655 1654
2244 3 975 974 1655 1656
2245 3 922 977 1651 1650
2246 3 922 977 1651 1652
2247 3 978 977 1651 1650
2248 3 978 977 1651 1652
2249 3 952 986 2963 2962
2250 3 952 986 2963 2964
2251 3 987 986 2963 2962
2252 3 987 986 2963 2964
2253 3 958 989 2959 2958
2254 3 958 989 2959 2960
2255 3 990 989 2959 2958
2256 3 990 989 2959 2960
2257 3 934 998 407 406
2258 3 934 998 407 408
2259 3 999 998 407 406
2260 3 999 998 407 408
2261 3 928 1001 403 402
2262 3 928 1001 403 404
2263 3 1002 1001 403 402
2264 3 1002 1001 403 404
2265 3 898 1004 1663 1662
2266 3 898 1004 1663 1664
2267 3 1005 1004 1663 1662
2268 3 1005 1004 1663 1664
2269 3 891 1007 1659 1658
2270 3 891 1007 1659 1660
2271 3 1008 1007 1659 1658
2272 3 1008 1007 1659 1660
2273 1 1009 1010 1011 1012
2274 1 1009 1010 1011 1124
2275 2 1010 1011 1012 1013
2276 2 1010 1011 1012 1125
2277 2 1124 1011 1012 1013
2278 2 1124 1011 1012 1125
2279 1 1010 1011 1124 868
2280 1 1012 1011 1124 868
2281 3 1011 1012 1013 1014
2282 3 1011 1012 1013 1101
2283 3 1125 1012 1013 1014
2284 3 1125 1012 1013 1101
2285 3 1011 1012 1125 1056
2286 3 1011 1012 1125 1126
2287 3 1013 1012 1125 1056
2288 3 1013 1012 1125 1126
2289 3 1012 1013 1101 1055
2290 3 1012 1013 1101 1102
2291 3 1014 1013 1101 1055
2292 3 1014 1013 1101 1102
2293 1 1015 1016 1017 1018
2294 1 1015 1016 1017 1121
2295 2 1016 1017 1018 1019
2296 2 1016 1017 1018 1122
2297 2 1121 1017 1018 1019
2298 2 1121 1017 1018 1122
2299 1 1016 1017 1121 887
2300 1 1018 1017 1121 887
2301 3 1017 1018 1019 1020
2302 3 1017 1018 1019 1098
2303 3 1122 1018 1019 1020
2304 3 1122 1018 1019 1098
2305 3 1017 1018 1122 1061
2306 3 1017 1018 1122 1123
2307 3 1019 1018 1122 1061
2308 3 1019 1018 1122 1123
2309 3 1018 1019 1098 1060
2310 3 1018 1019 1098 1099
2311 3 1020 1019 1098 1060
2312 3 1020 1019 1098 1099
2313 1 1021 1022 1023 1024
2314 1 1021 1022 1023 1127
2315 2 1022 1023 1024 1025
2316 2 1022 1023 1024 1128
2317 2 1127 1023 1024 1025
2318 2 1127 1023 1024 1128
2319 1 1022 1023 1127 906
2320 1 1024 1023 1127 906
2321 3 1023 1024 1025 1026
2322 3 1023 1024 1025 1107
2323 3 1128 1024 1025 1026
2324 3 1128 1024 1025 1107
2325 3 1023 1024 1128 1071
2326 3 1023 1024 1128 1129
2327 3 1025 1024 1128 1071
2328 3 1025 1024 1128 1129
2329 3 1024 1025 1107 1070
2330 3 1024 1025 1107 1108
2331 3 1026 1025 1107 1070
2332 3 1026 1025 1107 1108
2333 1 1027 1028 1029 1030
2334 1 1027 1028 1029 1130
2335 2 1028 1029 1030 1031
2336 2 1028 1029 1030 1131
2337 2 1130 1029 1030 1031
2338 2 1130 1029 1030 1131
2339 1 1028 1029 1130 867
2340 1 1030 1029 1130 867
2341 3 1029 1030 1031 1032
2342 3 1029 1030 1031 1104
2343 3 1131 1030 1031 1032
2344 3 1131 1030 1031 1104
2345 3 1029 1030 1131 1066
2346 3 1029 1030 1131 1132
2347 3 1031 1030 1131 1066
2348 3 1031 1030 1131 1132
2349 3 1030 1031 1104 1065
2350 3 1030 1031 1104 1105
2351 3 1032 1031 1104 1065
2352 3 1032 1031 1104 1105
2353 1 866 1033 1034 1035
2354 1 866 1033 1034 1139
2355 2 1033 1034 1035 1036
2356 2 1033 1034 1035 1140
2357 2 1139 1034 1035 1036
2358 2 1139 1034 1035 1140
2359 1 1033 1034 1139 1009
2360 1 1035 1034 1139 1009
2361 3 1034 1035 1036 1037
2362 3 1034 1035 1036 1113
2363 3 1140 1035 1036 1037
2364 3 1140 1035 1036 1113
2365 3 1034 1035 1140 1095
2366 3 1034 1035 1140 1141
2367 3 1036 1035 1140 1095
2368 3 1036 1035 1140 1141
2369 3 1035 1036 1113 1094
2370 3 1035 1036 1113 1114
2371 3 1037 1036 1113 1094
2372 3 1037 1036 1113 1114
2373 1 904 1038 1039 1040
2374 1 904 1038 1039 1142
2375 2 1038 1039 1040 1041
2376 2 1038 1039 1040 1143
2377 2 1142 1039 1040 1041
2378 2 1142 1039 1040 1143
2379 1 1038 1039 1142 1021
2380 1 1040 1039 1142 1021
2381 3 1039 1040 1041 1042
2382 3 1039 1040 1041 1110
2383 3 1143 1040 1041 1042
2384 3 1143 1040 1041 1110
2385 3 1039 1040 1143 1089
2386 3 1039 1040 1143 1144
2387 3 1041 1040 1143 1089
2388 3 1041 1040 1143 1144
2389 3 1040 1041 1110 1088
2390 3 1040 1041 1110 1111
2391 3 1042 1041 1110 1088
2392 3 1042 1041 1110 1111
2393 1 865 1043 1044 1045
2394 1 865 1043 1044 1136
2395 2 1043 1044 1045 1046
2396 2 1043 1044 1045 1137
2397 2 1136 1044 1045 1046
2398 2 1136 1044 1045 1137
2399 1 1043 1044 1136 1027
2400 1 1045 1044 1136 1027
2401 3 1044 1045 1046 1047
2402 3 1044 1045 1046 1119
2403 3 1137 1045 1046 1047
2404 3 1137 1045 1046 1119
2405 3 1044 1045 1137 1077
2406 3 1044 1045 1137 1138
2407 3 1046 1045 1137 1077
2408 3 1046 1045 1137 1138
2409 3 1045 1046 1119 1076
2410 3 1045 1046 1119 1120
2411 3 1047 1046 1119 1076
2412 3 1047 1046 1119 1120
2413 1 905 1048 1049 1050
2414 1 905 1048 1049 1133
2415 2 1048 1049 1050 1051
2416 2 1048 1049 1050 1134
2417 2 1133 1049 1050 1051
2418 2 1133 1049 1050 1134
2419 1 1048 1049 1133 1015
2420 1 1050 1049 1133 1015
2421 3 1049 1050 1051 1052
2422 3 1049 1050 1051 1116
2423 3 1134 1050 1051 1052
2424 3 1134 1050 1051 1116
2425 3 1049 1050 1134 1083
2426 3 1049 1050 1134 1135
2427 3 1051 1050 1134 1083
2428 3 1051 1050 1134 1135
2429 3 1050 1051 1116 1082
2430 3 1050 1051 1116 1117
2431 3 1052 1051 1116 1082
2432 3 1052 1051 1116 1117
2433 1 955 1053 1054 1055
2434 1 955 1053 1054 1100
2435 2 1053 1054 1055 1056
2436 2 1053 1054 1055 1101
2437 2 1100 1054 1055 1056
2438 2 1100 1054 1055 1101
2439 1 1053 1054 1100 1073
2440 1 1055 1054 1100 1073
2441 3 1054 1055 1056 1057
2442 3 1054 1055 1056 1125
2443 3 1101 1055 1056 1057
2444 3 1101 1055 1056 1125
2445 3 1054 1055 1101 1013
2446 3 1054 1055 1101 1102
2447 3 1056 1055 1101 1013
2448 3 1056 1055 1101 1102
2449 3 1055 1056 1125 1012
2450 3 1055 1056 1125 1126
2451 3 1057 1056 1125 1012
2452 3 1057 1056 1125 1126
2453 1 961 1058 1059 1060
2454 1 961 1058 1059 1097
2455 2 1058 1059 1060 1061
2456 2 1058 1059 1060 1098
2457 2 1097 1059 1060 1061
2458 2 1097 1059 1060 1098
2459 1 1058 1059 1097 1085
2460 1 1060 1059 1097 1085
2461 3 1059 1060 1061 1062
2462 3 1059 1060 1061 1122
2463 3 1098 1060 1061 1062
2464 3 1098 1060 1061 1122
2465 3 1059 1060 1098 1019
2466 3 1059 1060 1098 1099
2467 3 1061 1060 1098 1019
2468 3 1061 1060 1098 1099
2469 3 1060 1061 1122 1018
2470 3 1060 1061 1122 1123
2471 3 1062 1061 1122 1018
2472 3 1062 1061 1122 1123
2473 1 949 1063 1064 1065
2474 1 949 1063 1064 1103
2475 2 1063 1064 1065 1066
2476 2 1063 1064 1065 1104
2477 2 1103 1064 1065 1066
2478 2 1103 1064 1065 1104
2479 1 1063 1064 1103 1091
2480 1 1065 1064 1103 1091
2481 3 1064 1065 1066 1067
2482 3 1064 1065 1066 1131
2483 3 1104 1065 1066 1067
2484 3 1104 1065 1066 1131
2485 3 1064 1065 1104 1031
2486 3 1064 1065 1104 1105
2487 3 1066 1065 1104 1031
2488 3 1066 1065 1104 1105
2489 3 1065 1066 1131 1030
2490 3 1065 1066 1131 1132
2491 3 1067 1066 1131 1030
2492 3 1067 1066 1131 1132
2493 1 967 1068 1069 1070
2494 1 967 1068 1069 1106
2495 2 1068 1069 1070 1071
2496 2 1068 1069 1070 1107
2497 2 1106 1069 1070 1071
2498 2 1106 1069 1070 1107
2499 1 1068 1069 1106 1079
2500 1 1070 1069 1106 1079
2501 3 1069 1070 1071 1072
2502 3 1069 1070 1071 1128
2503 3 1107 1070 1071 1072
2504 3 1107 1070 1071 1128
2505 3 1069 1070 1107 1025
2506 3 1069 1070 1107 1108
2507 3 1071 1070 1107 1025
2508 3 1071 1070 1107 1108
2509 3 1070 1071 1128 1024
2510 3 1070 1071 1128 1129
2511 3 1072 1071 1128 1024
2512 3 1072 1071 1128 1129
2513 1 1073 1074 1075 1076
2514 1 1073 1074 1075 1118
2515 2 1074 1075 1076 1077
2516 2 1074 1075 1076 1119
2517 2 1118 1075 1076 1077
2518 2 1118 1075 1076 1119
2519 1 1074 1075 1118 911
2520 1 1076 1075 1118 911
2521 3 1075 1076 1077 1078
2522 3 1075 1076 1077 1137
2523 3 1119 1076 1077 1078
2524 3 1119 1076 1077 1137
2525 3 1075 1076 1119 1046
2526 3 1075 1076 1119 1120
2527 3 1077 1076 1119 1046
2528 3 1077 1076 1119 1120
2529 3 1076 1077 1137 1045
2530 3 1076 1077 1137 1138
2531 3 1078 1077 1137 1045
2532 3 1078 1077 1137 1138
2533 1 1079 1080 1081 1082
2534 1 1079 1080 1081 1115
2535 2 1080 1081 1082 1083
2536 2 1080 1081 1082 1116
2537 2 1115 1081 1082 1083
2538 2 1115 1081 1082 1116
2539 1 1080 1081 1115 909
2540 1 1082 1081 1115 909
2541 3 1081 1082 1083 1084
2542 3 1081 1082 1083 1134
2543 3 1116 1082 1083 1084
2544 3 1116 1082 1083 1134
2545 3 1081 1082 1116 1051
2546 3 1081 1082 1116 1117
2547 3 1083 1082 1116 1051
2548 3 1083 1082 1116 1117
2549 3 1082 1083 1134 1050
2550 3 1082 1083 1134 1135
2551 3 1084 1083 1134 1050
2552 3 1084 1083 1134 1135
2553 1 1085 1086 1087 1088
2554 1 1085 1086 1087 1109
2555 2 1086 1087 1088 1089
2556 2 1086 1087 1088 1110
2557 2 1109 1087 1088 1089
2558 2 1109 1087 1088 1110
2559 1 1086 1087 1109 918
2560 1 1088 1087 1109 918
2561 3 1087 1088 1089 1090
2562 3 1087 1088 1089 1143
2563 3 1110 1088 1089 1090
2564 3 1110 1088 1089 1143
2565 3 1087 1088 1110 1041
2566 3 1087 1088 1110 1111
2567 3 1089 1088 1110 1041
2568 3 1089 1088 1110 1111
2569 3 1088 1089 1143 1040
2570 3 1088 1089 1143 1144
2571 3 1090 1089 1143 1040
2572 3 1090 1089 1143 1144
2573 1 1091 1092 1093 1094
2574 1 1091 1092 1093 1112
2575 2 1092 1093 1094 1095
2576 2 1092 1093 1094 1113
2577 2 1112 1093 1094 1095
2578 2 1112 1093 1094 1113
2579 1 1092 1093 1112 907
2580 1 1094 1093 1112 907
2581 3 1093 1094 1095 1096
2582 3 1093 1094 1095 1140
2583 3 1113 1094 1095 1096
2584 3 1113 1094 1095 1140
2585 3 1093 1094 1113 1036
2586 3 1093 1094 1113 1114
2587 3 1095 1094 1113 1036
2588 3 1095 1094 1113 1114
2589 3 1094 1095 1140 1035
2590 3 1094 1095 1140 1141
2591 3 1096 1095 1140 1035
2592 3 1096 1095 1140 1141
2593 1 1015 1145 1146 1147
2594 1 1015 1145 1146 1206
2595 2 1145 1146 1147 1148
2596 2 1145 1146 1147 1207
2597 2 1206 1146 1147 1148
2598 2 1206 1146 1147 1207
2599 1 1145 1146 1206 886
2600 1 1147 1146 1206 886
2601 3 1146 1147 1148 1149
2602 3 1146 1147 1148 1189
2603 3 1207 1147 1148 1149
2604 3 1207 1147 1148 1189
2605 3 1146 1147 1207 1178
2606 3 1146 1147 1207 1208
2607 3 1148 1147 1207 1178
2608 3 1148 1147 1207 1208
2609 3 1147 1148 1189 1177
2610 3 1147 1148 1189 1190
2611 3 1149 1148 1189 1177
2612 3 1149 1148 1189 1190
2613 1 1021 1150 1151 1152
2614 1 1021 1150 1151 1203
2615 2 1150 1151 1152 1153
2616 2 1150 1151 1152 1204
2617 2 1203 1151 1152 1153
2618 2 1203 1151 1152 1204
2619 1 1150 1151 1203 894
2620 1 1152 1151 1203 894
2621 3 1151 1152 1153 1154
2622 3 1151 1152 1153 1186
2623 3 1204 1152 1153 1154
2624 3 1204 1152 1153 1186
2625 3 1151 1152 1204 1183
2626 3 1151 1152 1204 1205
2627 3 1153 1152 1204 1183
2628 3 1153 1152 1204 1205
2629 3 1152 1153 1186 1182
2630 3 1152 1153 1186 1187
2631 3 1154 1153 1186 1182
2632 3 1154 1153 1186 1187
2633 1 1009 1155 1156 1157
2634 1 1009 1155 1156 1197
2635 2 1155 1156 1157 1158
2636 2 1155 1156 1157 1198
2637 2 1197 1156 1157 1158
2638 2 1197 1156 1157 1198
2639 1 1155 1156 1197 902
2640 1 1157 1156 1197 902
2641 3 1156 1157 1158 1159
2642 3 1156 1157 1158 1195
2643 3 1198 1157 1158 1159
2644 3 1198 1157 1158 1195
2645 3 1156 1157 1198 1173
2646 3 1156 1157 1198 1199
2647 3 1158 1157 1198 1173
2648 3 1158 1157 1198 1199
2649 3 1157 1158 1195 1172
2650 3 1157 1158 1195 1196
2651 3 1159 1158 1195 1172
2652 3 1159 1158 1195 1196
2653 1 1027 1160 1161 1162
2654 1 1027 1160 1161 1200
2655 2 1160 1161 1162 1163
2656 2 1160 1161 1162 1201
2657 2 1200 1161 1162 1163
2658 2 1200 1161 1162 1201
2659 1 1160 1161 1200 885
2660 1 1162 1161 1200 885
2661 3 1161 1162 1163 1164
2662 3 1161 1162 1163 1192
2663 3 1201 1162 1163 1164
2664 3 1201 1162 1163 1192
2665 3 1161 1162 1201 1168
2666 3 1161 1162 1201 1202
2667 3 1163 1162 1201 1168
2668 3 1163 1162 1201 1202
2669 3 1162 1163 1192 1167
2670 3 1162 1163 1192 1193
2671 3 1164 1163 1192 1167
2672 3 1164 1163 1192 1193
2673 1 931 1165 1166 1167
2674 1 931 1165 1166 1191
2675 2 1165 1166 1167 1168
2676 2 1165 1166 1167 1192
2677 2 1191 1166 1167 1168
2678 2 1191 1166 1167 1192
2679 1 1165 1166 1191 1085
2680 1 1167 1166 1191 1085
2681 3 1166 1167 1168 1169
2682 3 1166 1167 1168 1201
2683 3 1192 1167 1168 1169
2684 3 1192 1167 1168 1201
2685 3 1166 1167 1192 1163
2686 3 1166 1167 1192 1193
2687 3 1168 1167 1192 1163
2688 3 1168 1167 1192 1193
2689 3 1167 1168 1201 1162
2690 3 1167 1168 1201 1202
2691 3 1169 1168 1201 1162
2692 3 1169 1168 1201 1202
2693 1 937 1170 1171 1172
2694 1 937 1170 1171 1194
2695 2 1170 1171 1172 1173
2696 2 1170 1171 1172 1195
2697 2 1194 1171 1172 1173
2698 2 1194 1171 1172 1195
2699 1 1170 1171 1194 1079
2700 1 1172 1171 1194 1079
2701 3 1171 1172 1173 1174
2702 3 1171 1172 1173 1198
2703 3 1195 1172 1173 1174
2704 3 1195 1172 1173 1198
2705 3 1171 1172 1195 1158
2706 3 1171 1172 1195 1196
2707 3 1173 1172 1195 1158
2708 3 1173 1172 1195 1196
2709 3 1172 1173 1198 1157
2710 3 1172 1173 1198 1199
2711 3 1174 1173 1198 1157
2712 3 1174 1173 1198 1199
2713 1 925 1175 1176 1177
2714 1 925 1175 1176 1188
2715 2 1175 1176 1177 1178
2716 2 1175 1176 1177 1189
2717 2 1188 1176 1177 1178
2718 2 1188 1176 1177 1189
2719 1 1175 1176 1188 1091
2720 1 1177 1176 1188 1091
2721 3 1176 1177 1178 1179
2722 3 1176 1177 1178 1207
2723 3 1189 1177 1178 1179
2724 3 1189 1177 1178 1207
2725 3 1176 1177 1189 1148
2726 3 1176 1177 1189 1190
2727 3 1178 1177 1189 1148
2728 3 1178 1177 1189 1190
2729 3 1177 1178 1207 1147
2730 3 1177 1178 1207 1208
2731 3 1179 1178 1207 1147
2732 3 1179 1178 1207 1208
2733 1 943 1180 1181 1182
2734 1 943 1180 1181 1185
2735 2 1180 1181 1182 1183
2736 2 1180 1181 1182 1186
2737 2 1185 1181 1182 1183
2738 2 1185 1181 1182 1186
2739 1 1180 1181 1185 1073
2740 1 1182 1181 1185 1073
2741 3 1181 1182 1183 1184
2742 3 1181 1182 1183 1204
2743 3 1186 1182 1183 1184
2744 3 1186 1182 1183 1204
2745 3 1181 1182 1186 1153
2746 3 1181 1182 1186 1187
2747 3 1183 1182 1186 1153
2748 3 1183 1182 1186 1187
2749 3 1182 1183 1204 1152
2750 3 1182 1183 1204 1205
2751 3 1184 1183 1204 1152
2752 3 1184 1183 1204 1205
2753 1 886 1209 1225 1219
2754 1 886 1209 1225 1226
2755 1 902 1210 1229 1220
2756 1 902 1210 1229 1230
2757 1 904 1211 1261 1223
2758 1 904 1211 1261 1262
2759 1 905 1212 1265 1224
2760 1 905 1212 1265 1266
2761 1 868 1213 1249 1222
2762 1 868 1213 1249 1250
2763 1 906 1214 1253 1221
2764 1 906 1214 1253 1254
2765 1 907 1215 1233 1218
2766 1 907 1215 1233 1234
2767 1 909 1216 1237 1217
2768 1 909 1216 1237 1238
2769 1 937 1217 1237 1216
2770 1 937 1217 1237 1238
2771 1 925 1218 1233 1215
2772 1 925 1218 1233 1234
2773 1 905 1219 1225 1209
2774 1 905 1219 1225 1226
2775 1 866 1220 1229 1210
2776 1 866 1220 1229 1230
2777 1 894 1221 1253 1214
2778 1 894 1221 1253 1254
2779 1 902 1222 1249 1213
2780 1 902 1222 1249 1250
2781 1 906 1223 1261 1211
2782 1 906 1223 1261 1262
2783 1 887 1224 1265 1212
2784 1 887 1224 1265 1266
2785 2 1209 1225 1226 1227
2786 2 1209 1225 1226 1245
2787 2 1219 1225 1226 1227
2788 2 1219 1225 1226 1245
2789 3 1225 1226 1227 1401
2790 3 1225 1226 1227 1228
2791 3 1245 1226 1227 1401
2792 3 1245 1226 1227 1228
2793 3 1225 1226 1245 1347
2794 3 1225 1226 1245 1246
2795 3 1227 1226 1245 1347
2796 3 1227 1226 1245 1246
2797 2 1210 1229 1230 1231
2798 2 1210 1229 1230 1247
2799 2 1220 1229 1230 1231
2800 2 1220 1229 1230 1247
2801 3 1229 1230 1231 1398
2802 3 1229 1230 1231 1232
2803 3 1247 1230 1231 1398
2804 3 1247 1230 1231 1232
2805 3 1229 1230 1247 1340
2806 3 1229 1230 1247 1248
2807 3 1231 1230 1247 1340
2808 3 1231 1230 1247 1248
2809 2 1215 1233 1234 1235
2810 2 1215 1233 1234 1243
2811 2 1218 1233 1234 1235
2812 2 1218 1233 1234 1243
2813 3 1233 1234 1235 1431
2814 3 1233 1234 1235 1236
2815 3 1243 1234 1235 1431
2816 3 1243 1234 1235 1236
2817 3 1233 1234 1243 1316
2818 3 1233 1234 1243 1244
2819 3 1235 1234 1243 1316
2820 3 1235 1234 1243 1244
2821 2 1216 1237 1238 1239
2822 2 1216 1237 1238 1241
2823 2 1217 1237 1238 1239
2824 2 1217 1237 1238 1241
2825 3 1237 1238 1239 1428
2826 3 1237 1238 1239 1240
2827 3 1241 1238 1239 1428
2828 3 1241 1238 1239 1240
2829 3 1237 1238 1241 1323
2830 3 1237 1238 1241 1242
2831 3 1239 1238 1241 1323
2832 3 1239 1238 1241 1242
2833 2 1213 1249 1250 1251
2834 2 1213 1249 1250 1259
2835 2 1222 1249 1250 1251
2836 2 1222 1249 1250 1259
2837 3 1249 1250 1251 153
2838 3 1249 1250 1251 1252
2839 3 1259 1250 1251 153
2840 3 1259 1250 1251 1252
2841 3 1249 1250 1259 81
2842 3 1249 1250 1259 1260
2843 3 1251 1250 1259 81
2844 3 1251 1250 1259 1260
2845 2 1214 1253 1254 1255
2846 2 1214 1253 1254 1257
2847 2 1221 1253 1254 1255
2848 2 1221 1253 1254 1257
2849 3 1253 1254 1255 150
2850 3 1253 1254 1255 1256
2851 3 1257 1254 1255 150
2852 3 1257 1254 1255 1256
2853 3 1253 1254 1257 87
2854 3 1253 1254 1257 1258
2855 3 1255 1254 1257 87
2856 3 1255 1254 1257 1258
2857 2 1211 1261 1262 1263
2858 2 1211 1261 1262 1269
2859 2 1223 1261 1262 1263
2860 2 1223 1261 1262 1269
2861 3 1261 1262 1263 2685
2862 3 1261 1262 1263 1264
2863 3 1269 1262 1263 2685
2864 3 1269 1262 1263 1264
2865 3 1261 1262 1269 2655
2866 3 1261 1262 1269 1270
2867 3 1263 1262 1269 2655
2868 3 1263 1262 1269 1270
2869 2 1212 1265 1266 1267
2870 2 1212 1265 1266 1271
2871 2 1224 1265 1266 1267
2872 2 1224 1265 1266 1271
2873 3 1265 1266 1267 2682
2874 3 1265 1266 1267 1268
2875 3 1271 1266 1267 2682
2876 3 1271 1266 1267 1268
2877 3 1265 1266 1271 2649
2878 3 1265 1266 1271 1272
2879 3 1267 1266 1271 2649
2880 3 1267 1266 1271 1272
2881 1 1289 1273 1274 1275
2882 1 1289 1273 1274 1286
2883 2 1273 1274 1275 1276
2884 2 1273 1274 1275 1287
2885 2 1286 1274 1275 1276
2886 2 1286 1274 1275 1287
2887 1 1273 1274 1286 1291
2888 1 1275 1274 1286 1291
2889 3 1274 1275 1276 1277
2890 3 1274 1275 1276 3103
2891 3 1287 1275 1276 1277
2892 3 1287 1275 1276 3103
2893 3 1274 1275 1287 1288
2894 3 1274 1275 1287 3085
2895 3 1276 1275 1287 1288
2896 3 1276 1275 1287 3085
2897 3 1275 1276 3103 3084
2898 3 1275 1276 3103 3104
2899 3 1277 1276 3103 3084
2900 3 1277 1276 3103 3104
2901 1 1290 1278 1279 1280
2902 1 1290 1278 1279 1283
2903 2 1278 1279 1280 1281
2904 2 1278 1279 1280 1284
2905 2 1283 1279 1280 1281
2906 2 1283 1279 1280 1284
2907 1 1278 1279 1283 1292
2908 1 1280 1279 1283 1292
2909 3 1279 1280 1281 1282
2910 3 1279 1280 1281 3100
2911 3 1284 1280 1281 1282
2912 3 1284 1280 1281 3100
2913 3 1279 1280 1284 1285
2914 3 1279 1280 1284 3091
2915 3 1281 1280 1284 1285
2916 3 1281 1280 1284 3091
2917 3 1280 1281 3100 3090
2918 3 1280 1281 3100 3101
2919 3 1282 1281 3100 3090
2920 3 1282 1281 3100 3101
2921 3 1280 1284 3091 3090
2922 3 1280 1284 3091 3092
2923 3 1285 1284 3091 3090
2924 3 1285 1284 3091 3092
2925 3 1275 1287 3085 3084
2926 3 1275 1287 3085 3086
2927 3 1288 1287 3085 3084
2928 3 1288 1287 3085 3086
2929 1 1291 1293 1294 1295
2930 1 1291 1293 1294 1303
2931 2 1293 1294 1295 1296
2932 2 1293 1294 1295 1304
2933 2 1303 1294 1295 1296
2934 2 1303 1294 1295 1304
2935 1 1293 1294 1303 1309
2936 1 1295 1294 1303 1309
2937 3 1294 1295 1296 1297
2938 3 1294 1295 1296 571
2939 3 1304 1295 1296 1297
2940 3 1304 1295 1296 571
2941 3 1294 1295 1304 1305
2942 3 1294 1295 1304 523
2943 3 1296 1295 1304 1305
2944 3 1296 1295 1304 523
2945 3 1295 1296 571 522
2946 3 1295 1296 571 572
2947 3 1297 1296 571 522
2948 3 1297 1296 571 572
2949 1 1311 1298 1299 1300
2950 1 1311 1298 1299 1306
2951 2 1298 1299 1300 1301
2952 2 1298 1299 1300 1307
2953 2 1306 1299 1300 1301
2954 2 1306 1299 1300 1307
2955 1 1298 1299 1306 1310
2956 1 1300 1299 1306 1310
2957 3 1299 1300 1301 1302
2958 3 1299 1300 1301 568
2959 3 1307 1300 1301 1302
2960 3 1307 1300 1301 568
2961 3 1299 1300 1307 1308
2962 3 1299 1300 1307 517
2963 3 1301 1300 1307 1308
2964 3 1301 1300 1307 517
2965 3 1300 1301 568 516
2966 3 1300 1301 568 569
2967 3 1302 1301 568 516
2968 3 1302 1301 568 569
2969 3 1295 1304 523 522
2970 3 1295 1304 523 524
2971 3 1305 1304 523 522
2972 3 1305 1304 523 524
2973 3 1300 1307 517 516
2974 3 1300 1307 517 518
2975 3 1308 1307 517 516
2976 3 1308 1307 517 518
2977 1 1309 1313 1314 1315
2978 1 1309 1313 1314 1430
2979 2 1313 1314 1315 1316
2980 2 1313 1314 1315 1431
2981 2 1430 1314 1315 1316
2982 2 1430 1314 1315 1431
2983 1 1313 1314 1430 1289
2984 1 1315 1314 1430 1289
2985 3 1314 1315 1316 1317
2986 3 1314 1315 1316 1243
2987 3 1431 1315 1316 1317
2988 3 1431 1315 1316 1243
2989 3 1314 1315 1431 1432
2990 3 1314 1315 1431 1235
2991 3 1316 1315 1431 1432
2992 3 1316 1315 1431 1235
2993 3 1315 1316 1243 1234
2994 3 1315 1316 1243 1244
2995 3 1317 1316 1243 1234
2996 3 1317 1316 1243 1244
2997 1 1318 1320 1321 1322
2998 1 1318 1320 1321 1427
2999 2 1320 1321 1322 1323
3000 2 1320 1321 1322 1428
3001 2 1427 1321 1322 1323
3002 2 1427 1321 1322 1428
3003 1 1320 1321 1427 1328
3004 1 1322 1321 1427 1328
3005 3 1321 1322 1323 1324
3006 3 1321 1322 1323 1241
3007 3 1428 1322 1323 1324
3008 3 1428 1322 1323 1241
3009 3 1321 1322 1428 1429
3010 3 1321 1322 1428 1239
3011 3 1323 1322 1428 1429
3012 3 1323 1322 1428 1239
3013 3 1322 1323 1241 1238
3014 3 1322 1323 1241 1242
3015 3 1324 1323 1241 1238
3016 3 1324 1323 1241 1242
3017 1 1335 1337 1338 1339
3018 1 1335 1337 1338 1397
3019 2 1337 1338 1339 1340
3020 2 1337 1338 1339 1398
3021 2 1397 1338 1339 1340
3022 2 1397 1338 1339 1398
3023 1 1337 1338 1397 1367
3024 1 1339 1338 1397 1367
3025 3 1338 1339 1340 1341
3026 3 1338 1339 1340 1247
3027 3 1398 1339 1340 1341
3028 3 1398 1339 1340 1247
3029 3 1338 1339 1398 1399
3030 3 1338 1339 1398 1231
3031 3 1340 1339 1398 1399
3032 3 1340 1339 1398 1231
3033 3 1339 1340 1247 1230
3034 3 1339 1340 1247 1248
3035 3 1341 1340 1247 1230
3036 3 1341 1340 1247 1248
3037 1 1342 1344 1345 1346
3038 1 1342 1344 1345 1400
3039 2 1344 1345 1346 1347
3040 2 1344 1345 1346 1401
3041 2 1400 1345 1346 1347
3042 2 1400 1345 1346 1401
3043 1 1344 1345 1400 1355
3044 1 1346 1345 1400 1355
3045 3 1345 1346 1347 1348
3046 3 1345 1346 1347 1245
3047 3 1401 1346 1347 1348
3048 3 1401 1346 1347 1245
3049 3 1345 1346 1401 1402
3050 3 1345 1346 1401 1227
3051 3 1347 1346 1401 1402
3052 3 1347 1346 1401 1227
3053 3 1346 1347 1245 1226
3054 3 1346 1347 1245 1246
3055 3 1348 1347 1245 1226
3056 3 1348 1347 1245 1246
3057 1 1349 1350 1351 1352
3058 1 1349 1350 1351 1424
3059 2 1350 1351 1352 1353
3060 2 1350 1351 1352 1425
3061 2 1424 1351 1352 1353
3062 2 1424 1351 1352 1425
3063 1 1350 1351 1424 1373
3064 1 1352 1351 1424 1373
3065 3 1351 1352 1353 1354
3066 3 1351 1352 1353 835
3067 3 1425 1352 1353 1354
3068 3 1425 1352 1353 835
3069 3 1351 1352 1425 1426
3070 3 1351 1352 1425 827
3071 3 1353 1352 1425 1426
3072 3 1353 1352 1425 827
3073 3 1352 1353 835 826
3074 3 1352 1353 835 836
3075 3 1354 1353 835 826
3076 3 1354 1353 835 836
3077 1 1355 1356 1357 1358
3078 1 1355 1356 1357 1421
3079 2 1356 1357 1358 1359
3080 2 1356 1357 1358 1422
3081 2 1421 1357 1358 1359
3082 2 1421 1357 1358 1422
3083 1 1356 1357 1421 1385
3084 1 1358 1357 1421 1385
3085 3 1357 1358 1359 1360
3086 3 1357 1358 1359 833
3087 3 1422 1358 1359 1360
3088 3 1422 1358 1359 833
3089 3 1357 1358 1422 1423
3090 3 1357 1358 1422 831
3091 3 1359 1358 1422 1423
3092 3 1359 1358 1422 831
3093 3 1358 1359 833 830
3094 3 1358 1359 833 834
3095 3 1360 1359 833 830
3096 3 1360 1359 833 834
3097 1 1361 1362 1363 1364
3098 1 1361 1362 1363 1415
3099 2 1362 1363 1364 1365
3100 2 1362 1363 1364 1416
3101 2 1415 1363 1364 1365
3102 2 1415 1363 1364 1416
3103 1 1362 1363 1415 1391
3104 1 1364 1363 1415 1391
3105 3 1363 1364 1365 459
3106 3 1363 1364 1365 1366
3107 3 1416 1364 1365 459
3108 3 1416 1364 1365 1366
3109 3 1363 1364 1416 453
3110 3 1363 1364 1416 1417
3111 3 1365 1364 1416 453
3112 3 1365 1364 1416 1417
3113 1 1367 1368 1369 1370
3114 1 1367 1368 1369 1418
3115 2 1368 1369 1370 1371
3116 2 1368 1369 1370 1419
3117 2 1418 1369 1370 1371
3118 2 1418 1369 1370 1419
3119 1 1368 1369 1418 1379
3120 1 1370 1369 1418 1379
3121 3 1369 1370 1371 456
3122 3 1369 1370 1371 1372
3123 3 1419 1370 1371 456
3124 3 1419 1370 1371 1372
3125 3 1369 1370 1419 448
3126 3 1369 1370 1419 1420
3127 3 1371 1370 1419 448
3128 3 1371 1370 1419 1420
3129 1 1373 1374 1375 1376
3130 1 1373 1374 1375 1409
3131 2 1374 1375 1376 1377
3132 2 1374 1375 1376 1410
3133 2 1409 1375 1376 1377
3134 2 1409 1375 1376 1410
3135 1 1374 1375 1409 1331
3136 1 1376 1375 1409 1331
3137 3 1375 1376 1377 1378
3138 3 1375 1376 1377 3391
3139 3 1410 1376 1377 1378
3140 3 1410 1376 1377 3391
3141 3 1375 1376 1410 1411
3142 3 1375 1376 1410 3387
3143 3 1377 1376 1410 1411
3144 3 1377 1376 1410 3387
3145 3 1376 1377 3391 3386
3146 3 1376 1377 3391 3392
3147 3 1378 1377 3391 3386
3148 3 1378 1377 3391 3392
3149 1 1379 1380 1381 1382
3150 1 1379 1380 1381 1412
3151 2 1380 1381 1382 1383
3152 2 1380 1381 1382 1413
3153 2 1412 1381 1382 1383
3154 2 1412 1381 1382 1413
3155 1 1380 1381 1412 1335
3156 1 1382 1381 1412 1335
3157 3 1381 1382 1383 1384
3158 3 1381 1382 1383 3389
3159 3 1413 1382 1383 1384
3160 3 1413 1382 1383 3389
3161 3 1381 1382 1413 1414
3162 3 1381 1382 1413 3383
3163 3 1383 1382 1413 1414
3164 3 1383 1382 1413 3383
3165 3 1382 1383 3389 3382
3166 3 1382 1383 3389 3390
3167 3 1384 1383 3389 3382
3168 3 1384 1383 3389 3390
3169 1 1385 1386 1387 1388
3170 1 1385 1386 1387 1406
3171 2 1386 1387 1388 1389
3172 2 1386 1387 1388 1407
3173 2 1406 1387 1388 1389
3174 2 1406 1387 1388 1407
3175 1 1386 1387 1406 1342
3176 1 1388 1387 1406 1342
3177 3 1387 1388 1389 2983
3178 3 1387 1388 1389 1390
3179 3 1407 1388 1389 2983
3180 3 1407 1388 1389 1390
3181 3 1387 1388 1407 2972
3182 3 1387 1388 1407 1408
3183 3 1389 1388 1407 2972
3184 3 1389 1388 1407 1408
3185 1 1391 1392 1393 1394
3186 1 1391 1392 1393 1403
3187 2 1392 1393 1394 1395
3188 2 1392 1393 1394 1404
3189 2 1403 1393 1394 1395
3190 2 1403 1393 1394 1404
3191 1 1392 1393 1403 1333
3192 1 1394 1393 1403 1333
3193 3 1393 1394 1395 2980
3194 3 1393 1394 1395 1396
3195 3 1404 1394 1395 2980
3196 3 1404 1394 1395 1396
3197 3 1393 1394 1404 2977
3198 3 1393 1394 1404 1405
3199 3 1395 1394 1404 2977
3200 3 1395 1394 1404 1405
3201 3 1339 1398 1231 1230
3202 3 1339 1398 1231 1232
3203 3 1399 1398 1231 1230
3204 3 1399 1398 1231 1232
3205 3 1346 1401 1227 1226
3206 3 1346 1401 1227 1228
3207 3 1402 1401 1227 1226
3208 3 1402 1401 1227 1228
3209 3 1376 1410 3387 3386
3210 3 1376 1410 3387 3388
3211 3 1411 1410 3387 3386
3212 3 1411 1410 3387 3388
3213 3 1382 1413 3383 3382
3214 3 1382 1413 3383 3384
3215 3 1414 1413 3383 3382
3216 3 1414 1413 3383 3384
3217 3 1358 1422 831 830
3218 3 1358 1422 831 832
3219 3 1423 1422 831 830
3220 3 1423 1422 831 832
3221 3 1352 1425 827 826
3222 3 1352 1425 827 828
3223 3 1426 1425 827 826
3224 3 1426 1425 827 828
3225 3 1322 1428 1239 1238
3226 3 1322 1428 1239 1240
3227 3 1429 1428 1239 1238
3228 3 1429 1428 1239 1240
3229 3 1315 1431 1235 1234
3230 3 1315 1431 1235 1236
3231 3 1432 1431 1235 1234
3232 3 1432 1431 1235 1236
3233 1 1433 1434 1435 1436
3234 1 1433 1434 1435 1548
3235 2 1434 1435 1436 1437
3236 2 1434 1435 1436 1549
3237 2 1548 1435 1436 1437
3238 2 1548 1435 1436 1549
3239 1 1434 1435 1548 1292
3240 1 1436 1435 1548 1292
3241 3 1435 1436 1437 1438
3242 3 1435 1436 1437 1525
3243 3 1549 1436 1437 1438
3244 3 1549 1436 1437 1525
3245 3 1435 1436 1549 1480
3246 3 1435 1436 1549 1550
3247 3 1437 1436 1549 1480
3248 3 1437 1436 1549 1550
3249 3 1436 1437 1525 1479
3250 3 1436 1437 1525 1526
3251 3 1438 1437 1525 1479
3252 3 1438 1437 1525 1526
3253 1 1439 1440 1441 1442
3254 1 1439 1440 1441 1545
3255 2 1440 1441 1442 1443
3256 2 1440 1441 1442 1546
3257 2 1545 1441 1442 1443
3258 2 1545 1441 1442 1546
3259 1 1440 1441 1545 1311
3260 1 1442 1441 1545 1311
3261 3 1441 1442 1443 1444
3262 3 1441 1442 1443 1522
3263 3 1546 1442 1443 1444
3264 3 1546 1442 1443 1522
3265 3 1441 1442 1546 1485
3266 3 1441 1442 1546 1547
3267 3 1443 1442 1546 1485
3268 3 1443 1442 1546 1547
3269 3 1442 1443 1522 1484
3270 3 1442 1443 1522 1523
3271 3 1444 1443 1522 1484
3272 3 1444 1443 1522 1523
3273 1 1445 1446 1447 1448
3274 1 1445 1446 1447 1551
3275 2 1446 1447 1448 1449
3276 2 1446 1447 1448 1552
3277 2 1551 1447 1448 1449
3278 2 1551 1447 1448 1552
3279 1 1446 1447 1551 1330
3280 1 1448 1447 1551 1330
3281 3 1447 1448 1449 1450
3282 3 1447 1448 1449 1531
3283 3 1552 1448 1449 1450
3284 3 1552 1448 1449 1531
3285 3 1447 1448 1552 1495
3286 3 1447 1448 1552 1553
3287 3 1449 1448 1552 1495
3288 3 1449 1448 1552 1553
3289 3 1448 1449 1531 1494
3290 3 1448 1449 1531 1532
3291 3 1450 1449 1531 1494
3292 3 1450 1449 1531 1532
3293 1 1451 1452 1453 1454
3294 1 1451 1452 1453 1554
3295 2 1452 1453 1454 1455
3296 2 1452 1453 1454 1555
3297 2 1554 1453 1454 1455
3298 2 1554 1453 1454 1555
3299 1 1452 1453 1554 1291
3300 1 1454 1453 1554 1291
3301 3 1453 1454 1455 1456
3302 3 1453 1454 1455 1528
3303 3 1555 1454 1455 1456
3304 3 1555 1454 1455 1528
3305 3 1453 1454 1555 1490
3306 3 1453 1454 1555 1556
3307 3 1455 1454 1555 1490
3308 3 1455 1454 1555 1556
3309 3 1454 1455 1528 1489
3310 3 1454 1455 1528 1529
3311 3 1456 1455 1528 1489
3312 3 1456 1455 1528 1529
3313 1 1290 1457 1458 1459
3314 1 1290 1457 1458 1563
3315 2 1457 1458 1459 1460
3316 2 1457 1458 1459 1564
3317 2 1563 1458 1459 1460
3318 2 1563 1458 1459 1564
3319 1 1457 1458 1563 1433
3320 1 1459 1458 1563 1433
3321 3 1458 1459 1460 1461
3322 3 1458 1459 1460 1537
3323 3 1564 1459 1460 1461
3324 3 1564 1459 1460 1537
3325 3 1458 1459 1564 1519
3326 3 1458 1459 1564 1565
3327 3 1460 1459 1564 1519
3328 3 1460 1459 1564 1565
3329 3 1459 1460 1537 1518
3330 3 1459 1460 1537 1538
3331 3 1461 1460 1537 1518
3332 3 1461 1460 1537 1538
3333 1 1328 1462 1463 1464
3334 1 1328 1462 1463 1566
3335 2 1462 1463 1464 1465
3336 2 1462 1463 1464 1567
3337 2 1566 1463 1464 1465
3338 2 1566 1463 1464 1567
3339 1 1462 1463 1566 1445
3340 1 1464 1463 1566 1445
3341 3 1463 1464 1465 1466
3342 3 1463 1464 1465 1534
3343 3 1567 1464 1465 1466
3344 3 1567 1464 1465 1534
3345 3 1463 1464 1567 1513
3346 3 1463 1464 1567 1568
3347 3 1465 1464 1567 1513
3348 3 1465 1464 1567 1568
3349 3 1464 1465 1534 1512
3350 3 1464 1465 1534 1535
3351 3 1466 1465 1534 1512
3352 3 1466 1465 1534 1535
3353 1 1289 1467 1468 1469
3354 1 1289 1467 1468 1560
3355 2 1467 1468 1469 1470
3356 2 1467 1468 1469 1561
3357 2 1560 1468 1469 1470
3358 2 1560 1468 1469 1561
3359 1 1467 1468 1560 1451
3360 1 1469 1468 1560 1451
3361 3 1468 1469 1470 1471
3362 3 1468 1469 1470 1543
3363 3 1561 1469 1470 1471
3364 3 1561 1469 1470 1543
3365 3 1468 1469 1561 1501
3366 3 1468 1469 1561 1562
3367 3 1470 1469 1561 1501
3368 3 1470 1469 1561 1562
3369 3 1469 1470 1543 1500
3370 3 1469 1470 1543 1544
3371 3 1471 1470 1543 1500
3372 3 1471 1470 1543 1544
3373 1 1329 1472 1473 1474
3374 1 1329 1472 1473 1557
3375 2 1472 1473 1474 1475
3376 2 1472 1473 1474 1558
3377 2 1557 1473 1474 1475
3378 2 1557 1473 1474 1558
3379 1 1472 1473 1557 1439
3380 1 1474 1473 1557 1439
3381 3 1473 1474 1475 1476
3382 3 1473 1474 1475 1540
3383 3 1558 1474 1475 1476
3384 3 1558 1474 1475 1540
3385 3 1473 1474 1558 1507
3386 3 1473 1474 1558 1559
3387 3 1475 1474 1558 1507
3388 3 1475 1474 1558 1559
3389 3 1474 1475 1540 1506
3390 3 1474 1475 1540 1541
3391 3 1476 1475 1540 1506
3392 3 1476 1475 1540 1541
3393 1 1379 1477 1478 1479
3394 1 1379 1477 1478 1524
3395 2 1477 1478 1479 1480
3396 2 1477 1478 1479 1525
3397 2 1524 1478 1479 1480
3398 2 1524 1478 1479 1525
3399 1 1477 1478 1524 1497
3400 1 1479 1478 1524 1497
3401 3 1478 1479 1480 1481
3402 3 1478 1479 1480 1549
3403 3 1525 1479 1480 1481
3404 3 1525 1479 1480 1549
3405 3 1478 1479 1525 1437
3406 3 1478 1479 1525 1526
3407 3 1480 1479 1525 1437
3408 3 1480 1479 1525 1526
3409 3 1479 1480 1549 1436
3410 3 1479 1480 1549 1550
3411 3 1481 1480 1549 1436
3412 3 1481 1480 1549 1550
3413 1 1385 1482 1483 1484
3414 1 1385 1482 1483 1521
3415 2 1482 1483 1484 1485
3416 2 1482 1483 1484 1522
3417 2 1521 1483 1484 1485
3418 2 1521 1483 1484 1522
3419 1 1482 1483 1521 1509
3420 1 1484 1483 1521 1509
3421 3 1483 1484 1485 1486
3422 3 1483 1484 1485 1546
3423 3 1522 1484 1485 1486
3424 3 1522 1484 1485 1546
3425 3 1483 1484 1522 1443
3426 3 1483 1484 1522 1523
3427 3 1485 1484 1522 1443
3428 3 1485 1484 1522 1523
3429 3 1484 1485 1546 1442
3430 3 1484 1485 1546 1547
3431 3 1486 1485 1546 1442
3432 3 1486 1485 1546 1547
3433 1 1373 1487 1488 1489
3434 1 1373 1487 1488 1527
3435 2 1487 1488 1489 1490
3436 2 1487 1488 1489 1528
3437 2 1527 1488 1489 1490
3438 2 1527 1488 1489 1528
3439 1 1487 1488 1527 1515
3440 1 1489 1488 1527 1515
3441 3 1488 1489 1490 1491
3442 3 1488 1489 1490 1555
3443 3 1528 1489 1490 1491
3444 3 1528 1489 1490 1555
3445 3 1488 1489 1528 1455
3446 3 1488 1489 1528 1529
3447 3 1490 1489 1528 1455
3448 3 1490 1489 1528 1529
3449 3 1489 1490 1555 1454
3450 3 1489 1490 1555 1556
3451 3 1491 1490 1555 1454
3452 3 1491 1490 1555 1556
3453 1 1391 1492 1493 1494
3454 1 1391 1492 1493 1530
3455 2 1492 1493 1494 1495
3456 2 1492 1493 1494 1531
3457 2 1530 1493 1494 1495
3458 2 1530 1493 1494 1531
3459 1 1492 1493 1530 1503
3460 1 1494 1493 1530 1503
3461 3 1493 1494 1495 1496
3462 3 1493 1494 1495 1552
3463 3 1531 1494 1495 1496
3464 3 1531 1494 1495 1552
3465 3 1493 1494 1531 1449
3466 3 1493 1494 1531 1532
3467 3 1495 1494 1531 1449
3468 3 1495 1494 1531 1532
3469 3 1494 1495 1552 1448
3470 3 1494 1495 1552 1553
3471 3 1496 1495 1552 1448
3472 3 1496 1495 1552 1553
3473 1 1497 1498 1499 1500
3474 1 1497 1498 1499 1542
3475 2 1498 1499 1500 1501
3476 2 1498 1499 1500 1543
3477 2 1542 1499 1500 1501
3478 2 1542 1499 1500 1543
3479 1 1498 1499 1542 1335
3480 1 1500 1499 1542 1335
3481 3 1499 1500 1501 1502
3482 3 1499 1500 1501 1561
3483 3 1543 1500 1501 1502
3484 3 1543 1500 1501 1561
3485 3 1499 1500 1543 1470
3486 3 1499 1500 1543 1544
3487 3 1501 1500 1543 1470
3488 3 1501 1500 1543 1544
3489 3 1500 1501 1561 1469
3490 3 1500 1501 1561 1562
3491 3 1502 1501 1561 1469
3492 3 1502 1501 1561 1562
3493 1 1503 1504 1505 1506
3494 1 1503 1504 1505 1539
3495 2 1504 1505 1506 1507
3496 2 1504 1505 1506 1540
3497 2 1539 1505 1506 1507
3498 2 1539 1505 1506 1540
3499 1 1504 1505 1539 1333
3500 1 1506 1505 1539 1333
3501 3 1505 1506 1507 1508
3502 3 1505 1506 1507 1558
3503 3 1540 1506 1507 1508
3504 3 1540 1506 1507 1558
3505 3 1505 1506 1540 1475
3506 3 1505 1506 1540 1541
3507 3 1507 1506 1540 1475
3508 3 1507 1506 1540 1541
3509 3 1506 1507 1558 1474
3510 3 1506 1507 1558 1559
3511 3 1508 1507 1558 1474
3512 3 1508 1507 1558 1559
3513 1 1509 1510 1511 1512
3514 1 1509 1510 1511 1533
3515 2 1510 1511 1512 1513
3516 2 1510 1511 1512 1534
3517 2 1533 1511 1512 1513
3518 2 1533 1511 1512 1534
3519 1 1510 1511 1533 1342
3520 1 1512 1511 1533 1342
3521 3 1511 1512 1513 1514
3522 3 1511 1512 1513 1567
3523 3 1534 1512 1513 1514
3524 3 1534 1512 1513 1567
3525 3 1511 1512 1534 1465
3526 3 1511 1512 1534 1535
3527 3 1513 1512 1534 1465
3528 3 1513 1512 1534 1535
3529 3 1512 1513 1567 1464
3530 3 1512 1513 1567 1568
3531 3 1514 1513 1567 1464
3532 3 1514 1513 1567 1568
3533 1 1515 1516 1517 1518
3534 1 1515 1516 1517 1536
3535 2 1516 1517 1518 1519
3536 2 1516 1517 1518 1537
3537 2 1536 1517 1518 1519
3538 2 1536 1517 1518 1537
3539 1 1516 1517 1536 1331
3540 1 1518 1517 1536 1331
3541 3 1517 1518 1519 1520
3542 3 1517 1518 1519 1564
3543 3 1537 1518 1519 1520
3544 3 1537 1518 1519 1564
3545 3 1517 1518 1537 1460
3546 3 1517 1518 1537 1538
3547 3 1519 1518 1537 1460
3548 3 1519 1518 1537 1538
3549 3 1518 1519 1564 1459
3550 3 1518 1519 1564 1565
3551 3 1520 1519 1564 1459
3552 3 1520 1519 1564 1565
3553 1 1439 1569 1570 1571
3554 1 1439 1569 1570 1630
3555 2 1569 1570 1571 1572
3556 2 1569 1570 1571 1631
3557 2 1630 1570 1571 1572
3558 2 1630 1570 1571 1631
3559 1 1569 1570 1630 1310
3560 1 1571 1570 1630 1310
3561 3 1570 1571 1572 1573
3562 3 1570 1571 1572 1613
3563 3 1631 1571 1572 1573
3564 3 1631 1571 1572 1613
3565 3 1570 1571 1631 1602
3566 3 1570 1571 1631 1632
3567 3 1572 1571 1631 1602
3568 3 1572 1571 1631 1632
3569 3 1571 1572 1613 1601
3570 3 1571 1572 1613 1614
3571 3 1573 1572 1613 1601
3572 3 1573 1572 1613 1614
3573 1 1445 1574 1575 1576
3574 1 1445 1574 1575 1627
3575 2 1574 1575 1576 1577
3576 2 1574 1575 1576 1628
3577 2 1627 1575 1576 1577
3578 2 1627 1575 1576 1628
3579 1 1574 1575 1627 1318
3580 1 1576 1575 1627 1318
3581 3 1575 1576 1577 1578
3582 3 1575 1576 1577 1610
3583 3 1628 1576 1577 1578
3584 3 1628 1576 1577 1610
3585 3 1575 1576 1628 1607
3586 3 1575 1576 1628 1629
3587 3 1577 1576 1628 1607
3588 3 1577 1576 1628 1629
3589 3 1576 1577 1610 1606
3590 3 1576 1577 1610 1611
3591 3 1578 1577 1610 1606
3592 3 1578 1577 1610 1611
3593 1 1433 1579 1580 1581
3594 1 1433 1579 1580 1621
3595 2 1579 1580 1581 1582
3596 2 1579 1580 1581 1622
3597 2 1621 1580 1581 1582
3598 2 1621 1580 1581 1622
3599 1 1579 1580 1621 1326
3600 1 1581 1580 1621 1326
3601 3 1580 1581 1582 1583
3602 3 1580 1581 1582 1619
3603 3 1622 1581 1582 1583
3604 3 1622 1581 1582 1619
3605 3 1580 1581 1622 1597
3606 3 1580 1581 1622 1623
3607 3 1582 1581 1622 1597
3608 3 1582 1581 1622 1623
3609 3 1581 1582 1619 1596
3610 3 1581 1582 1619 1620
3611 3 1583 1582 1619 1596
3612 3 1583 1582 1619 1620
3613 1 1451 1584 1585 1586
3614 1 1451 1584 1585 1624
3615 2 1584 1585 1586 1587
3616 2 1584 1585 1586 1625
3617 2 1624 1585 1586 1587
3618 2 1624 1585 1586 1625
3619 1 1584 1585 1624 1309
3620 1 1586 1585 1624 1309
3621 3 1585 1586 1587 1588
3622 3 1585 1586 1587 1616
3623 3 1625 1586 1587 1588
3624 3 1625 1586 1587 1616
3625 3 1585 1586 1625 1592
3626 3 1585 1586 1625 1626
3627 3 1587 1586 1625 1592
3628 3 1587 1586 1625 1626
3629 3 1586 1587 1616 1591
3630 3 1586 1587 1616 1617
3631 3 1588 1587 1616 1591
3632 3 1588 1587 1616 1617
3633 1 1355 1589 1590 1591
3634 1 1355 1589 1590 1615
3635 2 1589 1590 1591 1592
3636 2 1589 1590 1591 1616
3637 2 1615 1590 1591 1592
3638 2 1615 1590 1591 1616
3639 1 1589 1590 1615 1509
3640 1 1591 1590 1615 1509
3641 3 1590 1591 1592 1593
3642 3 1590 1591 1592 1625
3643 3 1616 1591 1592 1593
3644 3 1616 1591 1592 1625
3645 3 1590 1591 1616 1587
3646 3 1590 1591 1616 1617
3647 3 1592 1591 1616 1587
3648 3 1592 1591 1616 1617
3649 3 1591 1592 1625 1586
3650 3 1591 1592 1625 1626
3651 3 1593 1592 1625 1586
3652 3 1593 1592 1625 1626
3653 1 1361 1594 1595 1596
3654 1 1361 1594 1595 1618
3655 2 1594 1595 1596 1597
3656 2 1594 1595 1596 1619
3657 2 1618 1595 1596 1597
3658 2 1618 1595 1596 1619
3659 1 1594 1595 1618 1503
3660 1 1596 1595 1618 1503
3661 3 1595 1596 1597 1598
3662 3 1595 1596 1597 1622
3663 3 1619 1596 1597 1598
3664 3 1619 1596 1597 1622
3665 3 1595 1596 1619 1582
3666 3 1595 1596 1619 1620
3667 3 1597 1596 1619 1582
3668 3 1597 1596 1619 1620
3669 3 1596 1597 1622 1581
3670 3 1596 1597 1622 1623
3671 3 1598 1597 1622 1581
3672 3 1598 1597 1622 1623
3673 1 1349 1599 1600 1601
3674 1 1349 1599 1600 1612
3675 2 1599 1600 1601 1602
3676 2 1599 1600 1601 1613
3677 2 1612 1600 1601 1602
3678 2 1612 1600 1601 1613
3679 1 1599 1600 1612 1515
3680 1 1601 1600 1612 1515
3681 3 1600 1601 1602 1603
3682 3 1600 1601 1602 1631
3683 3 1613 1601 1602 1603
3684 3 1613 1601 1602 1631
3685 3 1600 1601 1613 1572
3686 3 1600 1601 1613 1614
3687 3 1602 1601 1613 1572
3688 3 1602 1601 1613 1614
3689 3 1601 1602 1631 1571
3690 3 1601 1602 1631 1632
3691 3 1603 1602 1631 1571
3692 3 1603 1602 1631 1632
3693 1 1367 1604 1605 1606
3694 1 1367 1604 1605 1609
3695 2 1604 1605 1606 1607
3696 2 1604 1605 1606 1610
3697 2 1609 1605 1606 1607
3698 2 1609 1605 1606 1610
3699 1 1604 1605 1609 1497
3700 1 1606 1605 1609 1497
3701 3 1605 1606 1607 1608
3702 3 1605 1606 1607 1628
3703 3 1610 1606 1607 1608
3704 3 1610 1606 1607 1628
3705 3 1605 1606 1610 1577
3706 3 1605 1606 1610 1611
3707 3 1607 1606 1610 1577
3708 3 1607 1606 1610 1611
3709 3 1606 1607 1628 1576
3710 3 1606 1607 1628 1629
3711 3 1608 1607 1628 1576
3712 3 1608 1607 1628 1629
3713 1 1310 1633 1649 1643
3714 1 1310 1633 1649 1650
3715 1 1326 1634 1653 1644
3716 1 1326 1634 1653 1654
3717 1 1328 1635 1685 1647
3718 1 1328 1635 1685 1686
3719 1 1329 1636 1689 1648
3720 1 1329 1636 1689 1690
3721 1 1292 1637 1673 1646
3722 1 1292 1637 1673 1674
3723 1 1330 1638 1677 1645
3724 1 1330 1638 1677 1678
3725 1 1331 1639 1657 1642
3726 1 1331 1639 1657 1658
3727 1 1333 1640 1661 1641
3728 1 1333 1640 1661 1662
3729 1 1361 1641 1661 1640
3730 1 1361 1641 1661 1662
3731 1 1349 1642 1657 1639
3732 1 1349 1642 1657 1658
3733 1 1329 1643 1649 1633
3734 1 1329 1643 1649 1650
3735 1 1290 1644 1653 1634
3736 1 1290 1644 1653 1654
3737 1 1318 1645 1677 1638
3738 1 1318 1645 1677 1678
3739 1 1326 1646 1673 1637
3740 1 1326 1646 1673 1674
3741 1 1330 1647 1685 1635
3742 1 1330 1647 1685 1686
3743 1 1311 1648 1689 1636
3744 1 1311 1648 1689 1690
3745 2 1633 1649 1650 1651
3746 2 1633 1649 1650 1669
3747 2 1643 1649 1650 1651
3748 2 1643 1649 1650 1669
3749 3 1649 1650 1651 977
3750 3 1649 1650 1651 1652
3751 3 1669 1650 1651 977
3752 3 1669 1650 1651 1652
3753 3 1649 1650 1669 923
3754 3 1649 1650 1669 1670
3755 3 1651 1650 1669 923
3756 3 1651 1650 1669 1670
3757 2 1634 1653 1654 1655
3758 2 1634 1653 1654 1671
3759 2 1644 1653 1654 1655
3760 2 1644 1653 1654 1671
3761 3 1653 1654 1655 974
3762 3 1653 1654 1655 1656
3763 3 1671 1654 1655 974
3764 3 1671 1654 1655 1656
3765 3 1653 1654 1671 916
3766 3 1653 1654 1671 1672
3767 3 1655 1654 1671 916
3768 3 1655 1654 1671 1672
3769 2 1639 1657 1658 1659
3770 2 1639 1657 1658 1667
3771 2 1642 1657 1658 1659
3772 2 1642 1657 1658 1667
3773 3 1657 1658 1659 1007
3774 3 1657 1658 1659 1660
3775 3 1667 1658 1659 1007
3776 3 1667 1658 1659 1660
3777 3 1657 1658 1667 892
3778 3 1657 1658 1667 1668
3779 3 1659 1658 1667 892
3780 3 1659 1658 1667 1668
3781 2 1640 1661 1662 1663
3782 2 1640 1661 1662 1665
3783 2 1641 1661 1662 1663
3784 2 1641 1661 1662 1665
3785 3 1661 1662 1663 1004
3786 3 1661 1662 1663 1664
3787 3 1665 1662 1663 1004
3788 3 1665 1662 1663 1664
3789 3 1661 1662 1665 899
3790 3 1661 1662 1665 1666
3791 3 1663 1662 1665 899
3792 3 1663 1662 1665 1666
3793 2 1637 1673 1674 1675
3794 2 1637 1673 1674 1683
3795 2 1646 1673 1674 1675
3796 2 1646 1673 1674 1683
3797 3 1673 1674 1675 577
3798 3 1673 1674 1675 1676
3799 3 1683 1674 1675 577
3800 3 1683 1674 1675 1676
3801 3 1673 1674 1683 505
3802 3 1673 1674 1683 1684
3803 3 1675 1674 1683 505
3804 3 1675 1674 1683 1684
3805 2 1638 1677 1678 1679
3806 2 1638 1677 1678 1681
3807 2 1645 1677 1678 1679
3808 2 1645 1677 1678 1681
3809 3 1677 1678 1679 574
3810 3 1677 1678 1679 1680
3811 3 1681 1678 1679 574
3812 3 1681 1678 1679 1680
3813 3 1677 1678 1681 511
3814 3 1677 1678 1681 1682
3815 3 1679 1678 1681 511
3816 3 1679 1678 1681 1682
3817 2 1635 1685 1686 1687
3818 2 1635 1685 1686 1693
3819 2 1647 1685 1686 1687
3820 2 1647 1685 1686 1693
3821 3 1685 1686 1687 3109
3822 3 1685 1686 1687 1688
3823 3 1693 1686 1687 3109
3824 3 1693 1686 1687 1688
3825 3 1685 1686 1693 3079
3826 3 1685 1686 1693 1694
3827 3 1687 1686 1693 3079
3828 3 1687 1686 1693 1694
3829 2 1636 1689 1690 1691
3830 2 1636 1689 1690 1695
3831 2 1648 1689 1690 1691
3832 2 1648 1689 1690 1695
3833 3 1689 1690 1691 3106
3834 3 1689 1690 1691 1692
3835 3 1695 1690 1691 3106
3836 3 1695 1690 1691 1692
3837 3 1689 1690 1695 3073
3838 3 1689 1690 1695 1696
3839 3 1691 1690 1695 3073
3840 3 1691 1690 1695 1696
3841 1 1713 1697 1698 1699
3842 1 1713 1697 1698 1710
3843 2 1697 1698 1699 1700
3844 2 1697 1698 1699 1711
3845 2 1710 1698 1699 1700
3846 2 1710 1698 1699 1711
3847 1 1697 1698 1710 1715
3848 1 1699 1698 1710 1715
3849 3 1698 1699 1700 1701
3850 3 1698 1699 1700 135
3851 3 1711 1699 1700 1701
3852 3 1711 1699 1700 135
3853 3 1698 1699 1711 1712
3854 3 1698 1699 1711 117
3855 3 1700 1699 1711 1712
3856 3 1700 1699 1711 117
3857 3 1699 1700 135 116
3858 3 1699 1700 135 136
3859 3 1701 1700 135 116
3860 3 1701 1700 135 136
3861 1 1714 1702 1703 1704
3862 1 1714 1702 1703 1707
3863 2 1702 1703 1704 1705
3864 2 1702 1703 1704 1708
3865 2 1707 1703 1704 1705
3866 2 1707 1703 1704 1708
3867 1 1702 1703 1707 1716
3868 1 1704 1703 1707 1716
3869 3 1703 1704 1705 1706
3870 3 1703 1704 1705 132
3871 3 1708 1704 1705 1706
3872 3 1708 1704 1705 132
3873 3 1703 1704 1708 1709
3874 3 1703 1704 1708 123
3875 3 1705 1704 1708 1709
3876 3 1705 1704 1708 123
3877 3 1704 1705 132 122
3878 3 1704 1705 132 133
3879 3 1706 1705 132 122
3880 3 1706 1705 132 133
3881 3 1704 1708 123 122
3882 3 1704 1708 123 124
3883 3 1709 1708 123 122
3884 3 1709 1708 123 124
3885 3 1699 1711 117 116
3886 3 1699 1711 117 118
3887 3 1712 1711 117 116
3888 3 1712 1711 117 118
3889 1 1715 1717 1718 1719
3890 1 1715 1717 1718 1727
3891 2 1717 1718 1719 1720
3892 2 1717 1718 1719 1728
3893 2 1727 1718 1719 1720
3894 2 1727 1718 1719 1728
3895 1 1717 1718 1727 1733
3896 1 1719 1718 1727 1733
3897 3 1718 1719 1720 1721
3898 3 1718 1719 1720 2691
3899 3 1728 1719 1720 1721
3900 3 1728 1719 1720 2691
3901 3 1718 1719 1728 1729
3902 3 1718 1719 1728 2643
3903 3 1720 1719 1728 1729
3904 3 1720 1719 1728 2643
3905 3 1719 1720 2691 2642
3906 3 1719 1720 2691 2692
3907 3 1721 1720 2691 2642
3908 3 1721 1720 2691 2692
3909 1 1735 1722 1723 1724
3910 1 1735 1722 1723 1730
3911 2 1722 1723 1724 1725
3912 2 1722 1723 1724 1731
3913 2 1730 1723 1724 1725
3914 2 1730 1723 1724 1731
3915 1 1722 1723 1730 1734
3916 1 1724 1723 1730 1734
3917 3 1723 1724 1725 1726
3918 3 1723 1724 1725 2688
3919 3 1731 1724 1725 1726
3920 3 1731 1724 1725 2688
3921 3 1723 1724 1731 1732
3922 3 1723 1724 1731 2637
3923 3 1725 1724 1731 1732
3924 3 1725 1724 1731 2637
3925 3 1724 1725 2688 2636
3926 3 1724 1725 2688 2689
3927 3 1726 1725 2688 2636
3928 3 1726 1725 2688 2689
3929 3 1719 1728 2643 2642
3930 3 1719 1728 2643 2644
3931 3 1729 1728 2643 2642
3932 3 1729 1728 2643 2644
3933 3 1724 1731 2637 2636
3934 3 1724 1731 2637 2638
3935 3 1732 1731 2637 2636
3936 3 1732 1731 2637 2638
3937 1 1733 1737 1738 1739
3938 1 1733 1737 1738 1854
3939 2 1737 1738 1739 1740
3940 2 1737 1738 1739 1855
3941 2 1854 1738 1739 1740
3942 2 1854 1738 1739 1855
3943 1 1737 1738 1854 1713
3944 1 1739 1738 1854 1713
3945 3 1738 1739 1740 1741
3946 3 1738 1739 1740 2515
3947 3 1855 1739 1740 1741
3948 3 1855 1739 1740 2515
3949 3 1738 1739 1855 1856
3950 3 1738 1739 1855 2507
3951 3 1740 1739 1855 1856
3952 3 1740 1739 1855 2507
3953 3 1739 1740 2515 2506
3954 3 1739 1740 2515 2516
3955 3 1741 1740 2515 2506
3956 3 1741 1740 2515 2516
3957 1 1742 1744 1745 1746
3958 1 1742 1744 1745 1851
3959 2 1744 1745 1746 1747
3960 2 1744 1745 1746 1852
3961 2 1851 1745 1746 1747
3962 2 1851 1745 1746 1852
3963 1 1744 1745 1851 1752
3964 1 1746 1745 1851 1752
3965 3 1745 1746 1747 1748
3966 3 1745 1746 1747 2513
3967 3 1852 1746 1747 1748
3968 3 1852 1746 1747 2513
3969 3 1745 1746 1852 1853
3970 3 1745 1746 1852 2511
3971 3 1747 1746 1852 1853
3972 3 1747 1746 1852 2511
3973 3 1746 1747 2513 2510
3974 3 1746 1747 2513 2514
3975 3 1748 1747 2513 2510
3976 3 1748 1747 2513 2514
3977 1 1759 1761 1762 1763
3978 1 1759 1761 1762 1821
3979 2 1761 1762 1763 1764
3980 2 1761 1762 1763 1822
3981 2 1821 1762 1763 1764
3982 2 1821 1762 1763 1822
3983 1 1761 1762 1821 1791
3984 1 1763 1762 1821 1791
3985 3 1762 1763 1764 1765
3986 3 1762 1763 1764 2519
3987 3 1822 1763 1764 1765
3988 3 1822 1763 1764 2519
3989 3 1762 1763 1822 1823
3990 3 1762 1763 1822 2503
3991 3 1764 1763 1822 1823
3992 3 1764 1763 1822 2503
3993 3 1763 1764 2519 2502
3994 3 1763 1764 2519 2520
3995 3 1765 1764 2519 2502
3996 3 1765 1764 2519 2520
3997 1 1766 1768 1769 1770
3998 1 1766 1768 1769 1824
3999 2 1768 1769 1770 1771
4000 2 1768 1769 1770 1825
4001 2 1824 1769 1770 1771
4002 2 1824 1769 1770 1825
4003 1 1768 1769 1824 1779
4004 1 1770 1769 1824 1779
4005 3 1769 1770 1771 1772
4006 3 1769 1770 1771 2517
4007 3 1825 1770 1771 1772
4008 3 1825 1770 1771 2517
4009 3 1769 1770 1825 1826
4010 3 1769 1770 1825 2499
4011 3 1771 1770 1825 1826
4012 3 1771 1770 1825 2499
4013 3 1770 1771 2517 2498
4014 3 1770 1771 2517 2518
4015 3 1772 1771 2517 2498
4016 3 1772 1771 2517 2518
4017 1 1773 1774 1775 1776
4018 1 1773 1774 1775 1848
4019 2 1774 1775 1776 1777
4020 2 1774 1775 1776 1849
4021 2 1848 1775 1776 1777
4022 2 1848 1775 1776 1849
4023 1 1774 1775 1848 1797
4024 1 1776 1775 1848 1797
4025 3 1775 1776 1777 1778
4026 3 1775 1776 1777 2955
4027 3 1849 1776 1777 1778
4028 3 1849 1776 1777 2955
4029 3 1775 1776 1849 1850
4030 3 1775 1776 1849 2947
4031 3 1777 1776 1849 1850
4032 3 1777 1776 1849 2947
4033 3 1776 1777 2955 2946
4034 3 1776 1777 2955 2956
4035 3 1778 1777 2955 2946
4036 3 1778 1777 2955 2956
4037 1 1779 1780 1781 1782
4038 1 1779 1780 1781 1845
4039 2 1780 1781 1782 1783
4040 2 1780 1781 1782 1846
4041 2 1845 1781 1782 1783
4042 2 1845 1781 1782 1846
4043 1 1780 1781 1845 1809
4044 1 1782 1781 1845 1809
4045 3 1781 1782 1783 1784
4046 3 1781 1782 1783 2953
4047 3 1846 1782 1783 1784
4048 3 1846 1782 1783 2953
4049 3 1781 1782 1846 1847
4050 3 1781 1782 1846 2951
4051 3 1783 1782 1846 1847
4052 3 1783 1782 1846 2951
4053 3 1782 1783 2953 2950
4054 3 1782 1783 2953 2954
4055 3 1784 1783 2953 2950
4056 3 1784 1783 2953 2954
4057 1 1785 1786 1787 1788
4058 1 1785 1786 1787 1839
4059 2 1786 1787 1788 1789
4060 2 1786 1787 1788 1840
4061 2 1839 1787 1788 1789
4062 2 1839 1787 1788 1840
4063 1 1786 1787 1839 1815
4064 1 1788 1787 1839 1815
4065 3 1787 1788 1789 2579
4066 3 1787 1788 1789 1790
4067 3 1840 1788 1789 2579
4068 3 1840 1788 1789 1790
4069 3 1787 1788 1840 2573
4070 3 1787 1788 1840 1841
4071 3 1789 1788 1840 2573
4072 3 1789 1788 1840 1841
4073 1 1791 1792 1793 1794
4074 1 1791 1792 1793 1842
4075 2 1792 1793 1794 1795
4076 2 1792 1793 1794 1843
4077 2 1842 1793 1794 1795
4078 2 1842 1793 1794 1843
4079 1 1792 1793 1842 1803
4080 1 1794 1793 1842 1803
4081 3 1793 1794 1795 2576
4082 3 1793 1794 1795 1796
4083 3 1843 1794 1795 2576
4084 3 1843 1794 1795 1796
4085 3 1793 1794 1843 2568
4086 3 1793 1794 1843 1844
4087 3 1795 1794 1843 2568
4088 3 1795 1794 1843 1844
4089 1 1797 1798 1799 1800
4090 1 1797 1798 1799 1833
4091 2 1798 1799 1800 1801
4092 2 1798 1799 1800 1834
4093 2 1833 1799 1800 1801
4094 2 1833 1799 1800 1834
4095 1 1798 1799 1833 1755
4096 1 1800 1799 1833 1755
4097 3 1799 1800 1801 1802
4098 3 1799 1800 1801 423
4099 3 1834 1800 1801 1802
4100 3 1834 1800 1801 423
4101 3 1799 1800 1834 1835
4102 3 1799 1800 1834 419
4103 3 1801 1800 1834 1835
4104 3 1801 1800 1834 419
4105 3 1800 1801 423 418
4106 3 1800 1801 423 424
4107 3 1802 1801 423 418
4108 3 1802 1801 423 424
4109 1 1803 1804 1805 1806
4110 1 1803 1804 1805 1836
4111 2 1804 1805 1806 1807
4112 2 1804 1805 1806 1837
4113 2 1836 1805 1806 1807
4114 2 1836 1805 1806 1837
4115 1 1804 1805 1836 1759
4116 1 1806 1805 1836 1759
4117 3 1805 1806 1807 1808
4118 3 1805 1806 1807 421
4119 3 1837 1806 1807 1808
4120 3 1837 1806 1807 421
4121 3 1805 1806 1837 1838
4122 3 1805 1806 1837 415
4123 3 1807 1806 1837 1838
4124 3 1807 1806 1837 415
4125 3 1806 1807 421 414
4126 3 1806 1807 421 422
4127 3 1808 1807 421 414
4128 3 1808 1807 421 422
4129 1 1809 1810 1811 1812
4130 1 1809 1810 1811 1830
4131 2 1810 1811 1812 1813
4132 2 1810 1811 1812 1831
4133 2 1830 1811 1812 1813
4134 2 1830 1811 1812 1831
4135 1 1810 1811 1830 1766
4136 1 1812 1811 1830 1766
4137 3 1811 1812 1813 15
4138 3 1811 1812 1813 1814
4139 3 1831 1812 1813 15
4140 3 1831 1812 1813 1814
4141 3 1811 1812 1831 4
4142 3 1811 1812 1831 1832
4143 3 1813 1812 1831 4
4144 3 1813 1812 1831 1832
4145 1 1815 1816 1817 1818
4146 1 1815 1816 1817 1827
4147 2 1816 1817 1818 1819
4148 2 1816 1817 1818 1828
4149 2 1827 1817 1818 1819
4150 2 1827 1817 1818 1828
4151 1 1816 1817 1827 1757
4152 1 1818 1817 1827 1757
4153 3 1817 1818 1819 12
4154 3 1817 1818 1819 1820
4155 3 1828 1818 1819 12
4156 3 1828 1818 1819 1820
4157 3 1817 1818 1828 9
4158 3 1817 1818 1828 1829
4159 3 1819 1818 1828 9
4160 3 1819 1818 1828 1829
4161 3 1763 1822 2503 2502
4162 3 1763 1822 2503 2504
4163 3 1823 1822 2503 2502
4164 3 1823 1822 2503 2504
4165 3 1770 1825 2499 2498
4166 3 1770 1825 2499 2500
4167 3 1826 1825 2499 2498
4168 3 1826 1825 2499 2500
4169 3 1800 1834 419 418
4170 3 1800 1834 419 420
4171 3 1835 1834 419 418
4172 3 1835 1834 419 420
4173 3 1806 1837 415 414
4174 3 1806 1837 415 416
4175 3 1838 1837 415 414
4176 3 1838 1837 415 416
4177 3 1782 1846 2951 2950
4178 3 1782 1846 2951 2952
4179 3 1847 1846 2951 2950
4180 3 1847 1846 2951 2952
4181 3 1776 1849 2947 2946
4182 3 1776 1849 2947 2948
4183 3 1850 1849 2947 2946
4184 3 1850 1849 2947 2948
4185 3 1746 1852 2511 2510
4186 3 1746 1852 2511 2512
4187 3 1853 1852 2511 2510
4188 3 1853 1852 2511 2512
4189 3 1739 1855 2507 2506
4190 3 1739 1855 2507 2508
4191 3 1856 1855 2507 2506
4192 3 1856 1855 2507 2508
4193 1 1857 1858 1859 1860
4194 1 1857 1858 1859 1972
4195 2 1858 1859 1860 1861
4196 2 1858 1859 1860 1973
4197 2 1972 1859 1860 1861
4198 2 1972 1859 1860 1973
4199 1 1858 1859 1972 1716
4200 1 1860 1859 1972 1716
4201 3 1859 1860 1861 1862
4202 3 1859 1860 1861 1949
4203 3 1973 1860 1861 1862
4204 3 1973 1860 1861 1949
4205 3 1859 1860 1973 1904
4206 3 1859 1860 1973 1974
4207 3 1861 1860 1973 1904
4208 3 1861 1860 1973 1974
4209 3 1860 1861 1949 1903
4210 3 1860 1861 1949 1950
4211 3 1862 1861 1949 1903
4212 3 1862 1861 1949 1950
4213 1 1863 1864 1865 1866
4214 1 1863 1864 1865 1969
4215 2 1864 1865 1866 1867
4216 2 1864 1865 1866 1970
4217 2 1969 1865 1866 1867
4218 2 1969 1865 1866 1970
4219 1 1864 1865 1969 1735
4220 1 1866 1865 1969 1735
4221 3 1865 1866 1867 1868
4222 3 1865 1866 1867 1946
4223 3 1970 1866 1867 1868
4224 3 1970 1866 1867 1946
4225 3 1865 1866 1970 1909
4226 3 1865 1866 1970 1971
4227 3 1867 1866 1970 1909
4228 3 1867 1866 1970 1971
4229 3 1866 1867 1946 1908
4230 3 1866 1867 1946 1947
4231 3 1868 1867 1946 1908
4232 3 1868 1867 1946 1947
4233 1 1869 1870 1871 1872
4234 1 1869 1870 1871 1975
4235 2 1870 1871 1872 1873
4236 2 1870 1871 1872 1976
4237 2 1975 1871 1872 1873
4238 2 1975 1871 1872 1976
4239 1 1870 1871 1975 1754
4240 1 1872 1871 1975 1754
4241 3 1871 1872 1873 1874
4242 3 1871 1872 1873 1955
4243 3 1976 1872 1873 1874
4244 3 1976 1872 1873 1955
4245 3 1871 1872 1976 1919
4246 3 1871 1872 1976 1977
4247 3 1873 1872 1976 1919
4248 3 1873 1872 1976 1977
4249 3 1872 1873 1955 1918
4250 3 1872 1873 1955 1956
4251 3 1874 1873 1955 1918
4252 3 1874 1873 1955 1956
4253 1 1875 1876 1877 1878
4254 1 1875 1876 1877 1978
4255 2 1876 1877 1878 1879
4256 2 1876 1877 1878 1979
4257 2 1978 1877 1878 1879
4258 2 1978 1877 1878 1979
4259 1 1876 1877 1978 1715
4260 1 1878 1877 1978 1715
4261 3 1877 1878 1879 1880
4262 3 1877 1878 1879 1952
4263 3 1979 1878 1879 1880
4264 3 1979 1878 1879 1952
4265 3 1877 1878 1979 1914
4266 3 1877 1878 1979 1980
4267 3 1879 1878 1979 1914
4268 3 1879 1878 1979 1980
4269 3 1878 1879 1952 1913
4270 3 1878 1879 1952 1953
4271 3 1880 1879 1952 1913
4272 3 1880 1879 1952 1953
4273 1 1714 1881 1882 1883
4274 1 1714 1881 1882 1987
4275 2 1881 1882 1883 1884
4276 2 1881 1882 1883 1988
4277 2 1987 1882 1883 1884
4278 2 1987 1882 1883 1988
4279 1 1881 1882 1987 1857
4280 1 1883 1882 1987 1857
4281 3 1882 1883 1884 1885
4282 3 1882 1883 1884 1961
4283 3 1988 1883 1884 1885
4284 3 1988 1883 1884 1961
4285 3 1882 1883 1988 1943
4286 3 1882 1883 1988 1989
4287 3 1884 1883 1988 1943
4288 3 1884 1883 1988 1989
4289 3 1883 1884 1961 1942
4290 3 1883 1884 1961 1962
4291 3 1885 1884 1961 1942
4292 3 1885 1884 1961 1962
4293 1 1752 1886 1887 1888
4294 1 1752 1886 1887 1990
4295 2 1886 1887 1888 1889
4296 2 1886 1887 1888 1991
4297 2 1990 1887 1888 1889
4298 2 1990 1887 1888 1991
4299 1 1886 1887 1990 1869
4300 1 1888 1887 1990 1869
4301 3 1887 1888 1889 1890
4302 3 1887 1888 1889 1958
4303 3 1991 1888 1889 1890
4304 3 1991 1888 1889 1958
4305 3 1887 1888 1991 1937
4306 3 1887 1888 1991 1992
4307 3 1889 1888 1991 1937
4308 3 1889 1888 1991 1992
4309 3 1888 1889 1958 1936
4310 3 1888 1889 1958 1959
4311 3 1890 1889 1958 1936
4312 3 1890 1889 1958 1959
4313 1 1713 1891 1892 1893
4314 1 1713 1891 1892 1984
4315 2 1891 1892 1893 1894
4316 2 1891 1892 1893 1985
4317 2 1984 1892 1893 1894
4318 2 1984 1892 1893 1985
4319 1 1891 1892 1984 1875
4320 1 1893 1892 1984 1875
4321 3 1892 1893 1894 1895
4322 3 1892 1893 1894 1967
4323 3 1985 1893 1894 1895
4324 3 1985 1893 1894 1967
4325 3 1892 1893 1985 1925
4326 3 1892 1893 1985 1986
4327 3 1894 1893 1985 1925
4328 3 1894 1893 1985 1986
4329 3 1893 1894 1967 1924
4330 3 1893 1894 1967 1968
4331 3 1895 1894 1967 1924
4332 3 1895 1894 1967 1968
4333 1 1753 1896 1897 1898
4334 1 1753 1896 1897 1981
4335 2 1896 1897 1898 1899
4336 2 1896 1897 1898 1982
4337 2 1981 1897 1898 1899
4338 2 1981 1897 1898 1982
4339 1 1896 1897 1981 1863
4340 1 1898 1897 1981 1863
4341 3 1897 1898 1899 1900
4342 3 1897 1898 1899 1964
4343 3 1982 1898 1899 1900
4344 3 1982 1898 1899 1964
4345 3 1897 1898 1982 1931
4346 3 1897 1898 1982 1983
4347 3 1899 1898 1982 1931
4348 3 1899 1898 1982 1983
4349 3 1898 1899 1964 1930
4350 3 1898 1899 1964 1965
4351 3 1900 1899 1964 1930
4352 3 1900 1899 1964 1965
4353 1 1803 1901 1902 1903
4354 1 1803 1901 1902 1948
4355 2 1901 1902 1903 1904
4356 2 1901 1902 1903 1949
4357 2 1948 1902 1903 1904
4358 2 1948 1902 1903 1949
4359 1 1901 1902 1948 1921
4360 1 1903 1902 1948 1921
4361 3 1902 1903 1904 1905
4362 3 1902 1903 1904 1973
4363 3 1949 1903 1904 1905
4364 3 1949 1903 1904 1973
4365 3 1902 1903 1949 1861
4366 3 1902 1903 1949 1950
4367 3 1904 1903 1949 1861
4368 3 1904 1903 1949 1950
4369 3 1903 1904 1973 1860
4370 3 1903 1904 1973 1974
4371 3 1905 1904 1973 1860
4372 3 1905 1904 1973 1974
4373 1 1809 1906 1907 1908
4374 1 1809 1906 1907 1945
4375 2 1906 1907 1908 1909
4376 2 1906 1907 1908 1946
4377 2 1945 1907 1908 1909
4378 2 1945 1907 1908 1946
4379 1 1906 1907 1945 1933
4380 1 1908 1907 1945 1933
4381 3 1907 1908 1909 1910
4382 3 1907 1908 1909 1970
4383 3 1946 1908 1909 1910
4384 3 1946 1908 1909 1970
4385 3 1907 1908 1946 1867
4386 3 1907 1908 1946 1947
4387 3 1909 1908 1946 1867
4388 3 1909 1908 1946 1947
4389 3 1908 1909 1970 1866
4390 3 1908 1909 1970 1971
4391 3 1910 1909 1970 1866
4392 3 1910 1909 1970 1971
4393 1 1797 1911 1912 1913
4394 1 1797 1911 1912 1951
4395 2 1911 1912 1913 1914
4396 2 1911 1912 1913 1952
4397 2 1951 1912 1913 1914
4398 2 1951 1912 1913 1952
4399 1 1911 1912 1951 1939
4400 1 1913 1912 1951 1939
4401 3 1912 1913 1914 1915
4402 3 1912 1913 1914 1979
4403 3 1952 1913 1914 1915
4404 3 1952 1913 1914 1979
4405 3 1912 1913 1952 1879
4406 3 1912 1913 1952 1953
4407 3 1914 1913 1952 1879
4408 3 1914 1913 1952 1953
4409 3 1913 1914 1979 1878
4410 3 1913 1914 1979 1980
4411 3 1915 1914 1979 1878
4412 3 1915 1914 1979 1980
4413 1 1815 1916 1917 1918
4414 1 1815 1916 1917 1954
4415 2 1916 1917 1918 1919
4416 2 1916 1917 1918 1955
4417 2 1954 1917 1918 1919
4418 2 1954 1917 1918 1955
4419 1 1916 1917 1954 1927
4420 1 1918 1917 1954 1927
4421 3 1917 1918 1919 1920
4422 3 1917 1918 1919 1976
4423 3 1955 1918 1919 1920
4424 3 1955 1918 1919 1976
4425 3 1917 1918 1955 1873
4426 3 1917 1918 1955 1956
4427 3 1919 1918 1955 1873
4428 3 1919 1918 1955 1956
4429 3 1918 1919 1976 1872
4430 3 1918 1919 1976 1977
4431 3 1920 1919 1976 1872
4432 3 1920 1919 1976 1977
4433 1 1921 1922 1923 1924
4434 1 1921 1922 1923 1966
4435 2 1922 1923 1924 1925
4436 2 1922 1923 1924 1967
4437 2 1966 1923 1924 1925
4438 2 1966 1923 1924 1967
4439 1 1922 1923 1966 1759
4440 1 1924 1923 1966 1759
4441 3 1923 1924 1925 1926
4442 3 1923 1924 1925 1985
4443 3 1967 1924 1925 1926
4444 3 1967 1924 1925 1985
4445 3 1923 1924 1967 1894
4446 3 1923 1924 1967 1968
4447 3 1925 1924 1967 1894
4448 3 1925 1924 1967 1968
4449 3 1924 1925 1985 1893
4450 3 1924 1925 1985 1986
4451 3 1926 1925 1985 1893
4452 3 1926 1925 1985 1986
4453 1 1927 1928 1929 1930
4454 1 1927 1928 1929 1963
4455 2 1928 1929 1930 1931
4456 2 1928 1929 1930 1964
4457 2 1963 1929 1930 1931
4458 2 1963 1929 1930 1964
4459 1 1928 1929 1963 1757
4460 1 1930 1929 1963 1757
4461 3 1929 1930 1931 1932
4462 3 1929 1930 1931 1982
4463 3 1964 1930 1931 1932
4464 3 1964 1930 1931 1982
4465 3 1929 1930 1964 1899
4466 3 1929 1930 1964 1965
4467 3 1931 1930 1964 1899
4468 3 1931 1930 1964 1965
4469 3 1930 1931 1982 1898
4470 3 1930 1931 1982 1983
4471 3 1932 1931 1982 1898
4472 3 1932 1931 1982 1983
4473 1 1933 1934 1935 1936
4474 1 1933 1934 1935 1957
4475 2 1934 1935 1936 1937
4476 2 1934 1935 1936 1958
4477 2 1957 1935 1936 1937
4478 2 1957 1935 1936 1958
4479 1 1934 1935 1957 1766
4480 1 1936 1935 1957 1766
4481 3 1935 1936 1937 1938
4482 3 1935 1936 1937 1991
4483 3 1958 1936 1937 1938
4484 3 1958 1936 1937 1991
4485 3 1935 1936 1958 1889
4486 3 1935 1936 1958 1959
4487 3 1937 1936 1958 1889
4488 3 1937 1936 1958 1959
4489 3 1936 1937 1991 1888
4490 3 1936 1937 1991 1992
4491 3 1938 1937 1991 1888
4492 3 1938 1937 1991 1992
4493 1 1939 1940 1941 1942
4494 1 1939 1940 1941 1960
4495 2 1940 1941 1942 1943
4496 2 1940 1941 1942 1961
4497 2 1960 1941 1942 1943
4498 2 1960 1941 1942 1961
4499 1 1940 1941 1960 1755
4500 1 1942 1941 1960 1755
4501 3 1941 1942 1943 1944
4502 3 1941 1942 1943 1988
4503 3 1961 1942 1943 1944
4504 3 1961 1942 1943 1988
4505 3 1941 1942 1961 1884
4506 3 1941 1942 1961 1962
4507 3 1943 1942 1961 1884
4508 3 1943 1942 1961 1962
4509 3 1942 1943 1988 1883
4510 3 1942 1943 1988 1989
4511 3 1944 1943 1988 1883
4512 3 1944 1943 1988 1989
4513 1 1863 1993 1994 1995
4514 1 1863 1993 1994 2054
4515 2 1993 1994 1995 1996
4516 2 1993 1994 1995 2055
4517 2 2054 1994 1995 1996
4518 2 2054 1994 1995 2055
4519 1 1993 1994 2054 1734
4520 1 1995 1994 2054 1734
4521 3 1994 1995 1996 1997
4522 3 1994 1995 1996 2037
4523 3 2055 1995 1996 1997
4524 3 2055 1995 1996 2037
4525 3 1994 1995 2055 2026
4526 3 1994 1995 2055 2056
4527 3 1996 1995 2055 2026
4528 3 1996 1995 2055 2056
4529 3 1995 1996 2037 2025
4530 3 1995 1996 2037 2038
4531 3 1997 1996 2037 2025
4532 3 1997 1996 2037 2038
4533 1 1869 1998 1999 2000
4534 1 1869 1998 1999 2051
4535 2 1998 1999 2000 2001
4536 2 1998 1999 2000 2052
4537 2 2051 1999 2000 2001
4538 2 2051 1999 2000 2052
4539 1 1998 1999 2051 1742
4540 1 2000 1999 2051 1742
4541 3 1999 2000 2001 2002
4542 3 1999 2000 2001 2034
4543 3 2052 2000 2001 2002
4544 3 2052 2000 2001 2034
4545 3 1999 2000 2052 2031
4546 3 1999 2000 2052 2053
4547 3 2001 2000 2052 2031
4548 3 2001 2000 2052 2053
4549 3 2000 2001 2034 2030
4550 3 2000 2001 2034 2035
4551 3 2002 2001 2034 2030
4552 3 2002 2001 2034 2035
4553 1 1857 2003 2004 2005
4554 1 1857 2003 2004 2045
4555 2 2003 2004 2005 2006
4556 2 2003 2004 2005 2046
4557 2 2045 2004 2005 2006
4558 2 2045 2004 2005 2046
4559 1 2003 2004 2045 1750
4560 1 2005 2004 2045 1750
4561 3 2004 2005 2006 2007
4562 3 2004 2005 2006 2043
4563 3 2046 2005 2006 2007
4564 3 2046 2005 2006 2043
4565 3 2004 2005 2046 2021
4566 3 2004 2005 2046 2047
4567 3 2006 2005 2046 2021
4568 3 2006 2005 2046 2047
4569 3 2005 2006 2043 2020
4570 3 2005 2006 2043 2044
4571 3 2007 2006 2043 2020
4572 3 2007 2006 2043 2044
4573 1 1875 2008 2009 2010
4574 1 1875 2008 2009 2048
4575 2 2008 2009 2010 2011
4576 2 2008 2009 2010 2049
4577 2 2048 2009 2010 2011
4578 2 2048 2009 2010 2049
4579 1 2008 2009 2048 1733
4580 1 2010 2009 2048 1733
4581 3 2009 2010 2011 2012
4582 3 2009 2010 2011 2040
4583 3 2049 2010 2011 2012
4584 3 2049 2010 2011 2040
4585 3 2009 2010 2049 2016
4586 3 2009 2010 2049 2050
4587 3 2011 2010 2049 2016
4588 3 2011 2010 2049 2050
4589 3 2010 2011 2040 2015
4590 3 2010 2011 2040 2041
4591 3 2012 2011 2040 2015
4592 3 2012 2011 2040 2041
4593 1 1779 2013 2014 2015
4594 1 1779 2013 2014 2039
4595 2 2013 2014 2015 2016
4596 2 2013 2014 2015 2040
4597 2 2039 2014 2015 2016
4598 2 2039 2014 2015 2040
4599 1 2013 2014 2039 1933
4600 1 2015 2014 2039 1933
4601 3 2014 2015 2016 2017
4602 3 2014 2015 2016 2049
4603 3 2040 2015 2016 2017
4604 3 2040 2015 2016 2049
4605 3 2014 2015 2040 2011
4606 3 2014 2015 2040 2041
4607 3 2016 2015 2040 2011
4608 3 2016 2015 2040 2041
4609 3 2015 2016 2049 2010
4610 3 2015 2016 2049 2050
4611 3 2017 2016 2049 2010
4612 3 2017 2016 2049 2050
4613 1 1785 2018 2019 2020
4614 1 1785 2018 2019 2042
4615 2 2018 2019 2020 2021
4616 2 2018 2019 2020 2043
4617 2 2042 2019 2020 2021
4618 2 2042 2019 2020 2043
4619 1 2018 2019 2042 1927
4620 1 2020 2019 2042 1927
4621 3 2019 2020 2021 2022
4622 3 2019 2020 2021 2046
4623 3 2043 2020 2021 2022
4624 3 2043 2020 2021 2046
4625 3 2019 2020 2043 2006
4626 3 2019 2020 2043 2044
4627 3 2021 2020 2043 2006
4628 3 2021 2020 2043 2044
4629 3 2020 2021 2046 2005
4630 3 2020 2021 2046 2047
4631 3 2022 2021 2046 2005
4632 3 2022 2021 2046 2047
4633 1 1773 2023 2024 2025
4634 1 1773 2023 2024 2036
4635 2 2023 2024 2025 2026
4636 2 2023 2024 2025 2037
4637 2 2036 2024 2025 2026
4638 2 2036 2024 2025 2037
4639 1 2023 2024 2036 1939
4640 1 2025 2024 2036 1939
4641 3 2024 2025 2026 2027
4642 3 2024 2025 2026 2055
4643 3 2037 2025 2026 2027
4644 3 2037 2025 2026 2055
4645 3 2024 2025 2037 1996
4646 3 2024 2025 2037 2038
4647 3 2026 2025 2037 1996
4648 3 2026 2025 2037 2038
4649 3 2025 2026 2055 1995
4650 3 2025 2026 2055 2056
4651 3 2027 2026 2055 1995
4652 3 2027 2026 2055 2056
4653 1 1791 2028 2029 2030
4654 1 1791 2028 2029 2033
4655 2 2028 2029 2030 2031
4656 2 2028 2029 2030 2034
4657 2 2033 2029 2030 2031
4658 2 2033 2029 2030 2034
4659 1 2028 2029 2033 1921
4660 1 2030 2029 2033 1921
4661 3 2029 2030 2031 2032
4662 3 2029 2030 2031 2052
4663 3 2034 2030 2031 2032
4664 3 2034 2030 2031 2052
4665 3 2029 2030 2034 2001
4666 3 2029 2030 2034 2035
4667 3 2031 2030 2034 2001
4668 3 2031 2030 2034 2035
4669 3 2030 2031 2052 2000
4670 3 2030 2031 2052 2053
4671 3 2032 2031 2052 2000
4672 3 2032 2031 2052 2053
4673 1 1734 2057 2073 2067
4674 1 1734 2057 2073 2074
4675 1 1750 2058 2077 2068
4676 1 1750 2058 2077 2078
4677 1 1752 2059 2109 2071
4678 1 1752 2059 2109 2110
4679 1 1753 2060 2113 2072
4680 1 1753 2060 2113 2114
4681 1 1716 2061 2097 2070
4682 1 1716 2061 2097 2098
4683 1 1754 2062 2101 2069
4684 1 1754 2062 2101 2102
4685 1 1755 2063 2081 2066
4686 1 1755 2063 2081 2082
4687 1 1757 2064 2085 2065
4688 1 1757 2064 2085 2086
4689 1 1785 2065 2085 2064
4690 1 1785 2065 2085 2086
4691 1 1773 2066 2081 2063
4692 1 1773 2066 2081 2082
4693 1 1753 2067 2073 2057
4694 1 1753 2067 2073 2074
4695 1 1714 2068 2077 2058
4696 1 1714 2068 2077 2078
4697 1 1742 2069 2101 2062
4698 1 1742 2069 2101 2102
4699 1 1750 2070 2097 2061
4700 1 1750 2070 2097 2098
4701 1 1754 2071 2109 2059
4702 1 1754 2071 2109 2110
4703 1 1735 2072 2113 2060
4704 1 1735 2072 2113 2114
4705 2 2057 2073 2074 2075
4706 2 2057 2073 2074 2093
4707 2 2067 2073 2074 2075
4708 2 2067 2073 2074 2093
4709 3 2073 2074 2075 2249
4710 3 2073 2074 2075 2076
4711 3 2093 2074 2075 2249
4712 3 2093 2074 2075 2076
4713 3 2073 2074 2093 2195
4714 3 2073 2074 2093 2094
4715 3 2075 2074 2093 2195
4716 3 2075 2074 2093 2094
4717 2 2058 2077 2078 2079
4718 2 2058 2077 2078 2095
4719 2 2068 2077 2078 2079
4720 2 2068 2077 2078 2095
4721 3 2077 2078 2079 2246
4722 3 2077 2078 2079 2080
4723 3 2095 2078 2079 2246
4724 3 2095 2078 2079 2080
4725 3 2077 2078 2095 2188
4726 3 2077 2078 2095 2096
4727 3 2079 2078 2095 2188
4728 3 2079 2078 2095 2096
4729 2 2063 2081 2082 2083
4730 2 2063 2081 2082 2091
4731 2 2066 2081 2082 2083
4732 2 2066 2081 2082 2091
4733 3 2081 2082 2083 2279
4734 3 2081 2082 2083 2084
4735 3 2091 2082 2083 2279
4736 3 2091 2082 2083 2084
4737 3 2081 2082 2091 2164
4738 3 2081 2082 2091 2092
4739 3 2083 2082 2091 2164
4740 3 2083 2082 2091 2092
4741 2 2064 2085 2086 2087
4742 2 2064 2085 2086 2089
4743 2 2065 2085 2086 2087
4744 2 2065 2085 2086 2089
4745 3 2085 2086 2087 2276
4746 3 2085 2086 2087 2088
4747 3 2089 2086 2087 2276
4748 3 2089 2086 2087 2088
4749 3 2085 2086 2089 2171
4750 3 2085 2086 2089 2090
4751 3 2087 2086 2089 2171
4752 3 2087 2086 2089 2090
4753 2 2061 2097 2098 2099
4754 2 2061 2097 2098 2107
4755 2 2070 2097 2098 2099
4756 2 2070 2097 2098 2107
4757 3 2097 2098 2099 2697
4758 3 2097 2098 2099 2100
4759 3 2107 2098 2099 2697
4760 3 2107 2098 2099 2100
4761 3 2097 2098 2107 2625
4762 3 2097 2098 2107 2108
4763 3 2099 2098 2107 2625
4764 3 2099 2098 2107 2108
4765 2 2062 2101 2102 2103
4766 2 2062 2101 2102 2105
4767 2 2069 2101 2102 2103
4768 2 2069 2101 2102 2105
4769 3 2101 2102 2103 2694
4770 3 2101 2102 2103 2104
4771 3 2105 2102 2103 2694
4772 3 2105 2102 2103 2104
4773 3 2101 2102 2105 2631
4774 3 2101 2102 2105 2106
4775 3 2103 2102 2105 2631
4776 3 2103 2102 2105 2106
4777 2 2059 2109 2110 2111
4778 2 2059 2109 2110 2117
4779 2 2071 2109 2110 2111
4780 2 2071 2109 2110 2117
4781 3 2109 2110 2111 141
4782 3 2109 2110 2111 2112
4783 3 2117 2110 2111 141
4784 3 2117 2110 2111 2112
4785 3 2109 2110 2117 111
4786 3 2109 2110 2117 2118
4787 3 2111 2110 2117 111
4788 3 2111 2110 2117 2118
4789 2 2060 2113 2114 2115
4790 2 2060 2113 2114 2119
4791 2 2072 2113 2114 2115
4792 2 2072 2113 2114 2119
4793 3 2113 2114 2115 138
4794 3 2113 2114 2115 2116
4795 3 2119 2114 2115 138
4796 3 2119 2114 2115 2116
4797 3 2113 2114 2119 105
4798 3 2113 2114 2119 2120
4799 3 2115 2114 2119 105
4800 3 2115 2114 2119 2120
4801 1 2137 2121 2122 2123
4802 1 2137 2121 2122 2134
4803 2 2121 2122 2123 2124
4804 2 2121 2122 2123 2135
4805 2 2134 2122 2123 2124
4806 2 2134 2122 2123 2135
4807 1 2121 2122 2134 2139
4808 1 2123 2122 2134 2139
4809 3 2122 2123 2124 2125
4810 3 2122 2123 2124 559
4811 3 2135 2123 2124 2125
4812 3 2135 2123 2124 559
4813 3 2122 2123 2135 2136
4814 3 2122 2123 2135 541
4815 3 2124 2123 2135 2136
4816 3 2124 2123 2135 541
4817 3 2123 2124 559 540
4818 3 2123 2124 559 560
4819 3 2125 2124 559 540
4820 3 2125 2124 559 560
4821 1 2138 2126 2127 2128
4822 1 2138 2126 2127 2131
4823 2 2126 2127 2128 2129
4824 2 2126 2127 2128 2132
4825 2 2131 2127 2128 2129
4826 2 2131 2127 2128 2132
4827 1 2126 2127 2131 2140
4828 1 2128 2127 2131 2140
4829 3 2127 2128 2129 2130
4830 3 2127 2128 2129 556
4831 3 2132 2128 2129 2130
4832 3 2132 2128 2129 556
4833 3 2127 2128 2132 2133
4834 3 2127 2128 2132 547
4835 3 2129 2128 2132 2133
4836 3 2129 2128 2132 547
4837 3 2128 2129 556 546
4838 3 2128 2129 556 557
4839 3 2130 2129 556 546
4840 3 2130 2129 556 557
4841 3 2128 2132 547 546
4842 3 2128 2132 547 548
4843 3 2133 2132 547 546
4844 3 2133 2132 547 548
4845 3 2123 2135 541 540
4846 3 2123 2135 541 542
4847 3 2136 2135 541 540
4848 3 2136 2135 541 542
4849 1 2139 2141 2142 2143
4850 1 2139 2141 2142 2151
4851 2 2141 2142 2143 2144
4852 2 2141 2142 2143 2152
4853 2 2151 2142 2143 2144
4854 2 2151 2142 2143 2152
4855 1 2141 2142 2151 2157
4856 1 2143 2142 2151 2157
4857 3 2142 2143 2144 2145
4858 3 2142 2143 2144 3115
4859 3 2152 2143 2144 2145
4860 3 2152 2143 2144 3115
4861 3 2142 2143 2152 2153
4862 3 2142 2143 2152 3067
4863 3 2144 2143 2152 2153
4864 3 2144 2143 2152 3067
4865 3 2143 2144 3115 3066
4866 3 2143 2144 3115 3116
4867 3 2145 2144 3115 3066
4868 3 2145 2144 3115 3116
4869 1 2159 2146 2147 2148
4870 1 2159 2146 2147 2154
4871 2 2146 2147 2148 2149
4872 2 2146 2147 2148 2155
4873 2 2154 2147 2148 2149
4874 2 2154 2147 2148 2155
4875 1 2146 2147 2154 2158
4876 1 2148 2147 2154 2158
4877 3 2147 2148 2149 2150
4878 3 2147 2148 2149 3112
4879 3 2155 2148 2149 2150
4880 3 2155 2148 2149 3112
4881 3 2147 2148 2155 2156
4882 3 2147 2148 2155 3061
4883 3 2149 2148 2155 2156
4884 3 2149 2148 2155 3061
4885 3 2148 2149 3112 3060
4886 3 2148 2149 3112 3113
4887 3 2150 2149 3112 3060
4888 3 2150 2149 3112 3113
4889 3 2143 2152 3067 3066
4890 3 2143 2152 3067 3068
4891 3 2153 2152 3067 3066
4892 3 2153 2152 3067 3068
4893 3 2148 2155 3061 3060
4894 3 2148 2155 3061 3062
4895 3 2156 2155 3061 3060
4896 3 2156 2155 3061 3062
4897 1 2157 2161 2162 2163
4898 1 2157 2161 2162 2278
4899 2 2161 2162 2163 2164
4900 2 2161 2162 2163 2279
4901 2 2278 2162 2163 2164
4902 2 2278 2162 2163 2279
4903 1 2161 2162 2278 2137
4904 1 2163 2162 2278 2137
4905 3 2162 2163 2164 2165
4906 3 2162 2163 2164 2091
4907 3 2279 2163 2164 2165
4908 3 2279 2163 2164 2091
4909 3 2162 2163 2279 2280
4910 3 2162 2163 2279 2083
4911 3 2164 2163 2279 2280
4912 3 2164 2163 2279 2083
4913 3 2163 2164 2091 2082
4914 3 2163 2164 2091 2092
4915 3 2165 2164 2091 2082
4916 3 2165 2164 2091 2092
4917 1 2166 2168 2169 2170
4918 1 2166 2168 2169 2275
4919 2 2168 2169 2170 2171
4920 2 2168 2169 2170 2276
4921 2 2275 2169 2170 2171
4922 2 2275 2169 2170 2276
4923 1 2168 2169 2275 2176
4924 1 2170 2169 2275 2176
4925 3 2169 2170 2171 2172
4926 3 2169 2170 2171 2089
4927 3 2276 2170 2171 2172
4928 3 2276 2170 2171 2089
4929 3 2169 2170 2276 2277
4930 3 2169 2170 2276 2087
4931 3 2171 2170 2276 2277
4932 3 2171 2170 2276 2087
4933 3 2170 2171 2089 2086
4934 3 2170 2171 2089 2090
4935 3 2172 2171 2089 2086
4936 3 2172 2171 2089 2090
4937 1 2183 2185 2186 2187
4938 1 2183 2185 2186 2245
4939 2 2185 2186 2187 2188
4940 2 2185 2186 2187 2246
4941 2 2245 2186 2187 2188
4942 2 2245 2186 2187 2246
4943 1 2185 2186 2245 2215
4944 1 2187 2186 2245 2215
4945 3 2186 2187 2188 2189
4946 3 2186 2187 2188 2095
4947 3 2246 2187 2188 2189
4948 3 2246 2187 2188 2095
4949 3 2186 2187 2246 2247
4950 3 2186 2187 2246 2079
4951 3 2188 2187 2246 2247
4952 3 2188 2187 2246 2079
4953 3 2187 2188 2095 2078
4954 3 2187 2188 2095 2096
4955 3 2189 2188 2095 2078
4956 3 2189 2188 2095 2096
4957 1 2190 2192 2193 2194
4958 1 2190 2192 2193 2248
4959 2 2192 2193 2194 2195
4960 2 2192 2193 2194 2249
4961 2 2248 2193 2194 2195
4962 2 2248 2193 2194 2249
4963 1 2192 2193 2248 2203
4964 1 2194 2193 2248 2203
4965 3 2193 2194 2195 2196
4966 3 2193 2194 2195 2093
4967 3 2249 2194 2195 2196
4968 3 2249 2194 2195 2093
4969 3 2193 2194 2249 2250
4970 3 2193 2194 2249 2075
4971 3 2195 2194 2249 2250
4972 3 2195 2194 2249 2075
4973 3 2194 2195 2093 2074
4974 3 2194 2195 2093 2094
4975 3 2196 2195 2093 2074
4976 3 2196 2195 2093 2094
4977 1 2197 2198 2199 2200
4978 1 2197 2198 2199 2272
4979 2 2198 2199 2200 2201
4980 2 2198 2199 2200 2273
4981 2 2272 2199 2200 2201
4982 2 2272 2199 2200 2273
4983 1 2198 2199 2272 2221
4984 1 2200 2199 2272 2221
4985 3 2199 2200 2201 2202
4986 3 2199 2200 2201 3379
4987 3 2273 2200 2201 2202
4988 3 2273 2200 2201 3379
4989 3 2199 2200 2273 2274
4990 3 2199 2200 2273 3371
4991 3 2201 2200 2273 2274
4992 3 2201 2200 2273 3371
4993 3 2200 2201 3379 3370
4994 3 2200 2201 3379 3380
4995 3 2202 2201 3379 3370
4996 3 2202 2201 3379 3380
4997 1 2203 2204 2205 2206
4998 1 2203 2204 2205 2269
4999 2 2204 2205 2206 2207
5000 2 2204 2205 2206 2270
5001 2 2269 2205 2206 2207
5002 2 2269 2205 2206 2270
5003 1 2204 2205 2269 2233
5004 1 2206 2205 2269 2233
5005 3 2205 2206 2207 2208
5006 3 2205 2206 2207 3377
5007 3 2270 2206 2207 2208
5008 3 2270 2206 2207 3377
5009 3 2205 2206 2270 2271
5010 3 2205 2206 2270 3375
5011 3 2207 2206 2270 2271
5012 3 2207 2206 2270 3375
5013 3 2206 2207 3377 3374
5014 3 2206 2207 3377 3378
5015 3 2208 2207 3377 3374
5016 3 2208 2207 3377 3378
5017 1 2209 2210 2211 2212
5018 1 2209 2210 2211 2263
5019 2 2210 2211 2212 2213
5020 2 2210 2211 2212 2264
5021 2 2263 2211 2212 2213
5022 2 2263 2211 2212 2264
5023 1 2210 2211 2263 2239
5024 1 2212 2211 2263 2239
5025 3 2211 2212 2213 3003
5026 3 2211 2212 2213 2214
5027 3 2264 2212 2213 3003
5028 3 2264 2212 2213 2214
5029 3 2211 2212 2264 2997
5030 3 2211 2212 2264 2265
5031 3 2213 2212 2264 2997
5032 3 2213 2212 2264 2265
5033 1 2215 2216 2217 2218
5034 1 2215 2216 2217 2266
5035 2 2216 2217 2218 2219
5036 2 2216 2217 2218 2267
5037 2 2266 2217 2218 2219
5038 2 2266 2217 2218 2267
5039 1 2216 2217 2266 2227
5040 1 2218 2217 2266 2227
5041 3 2217 2218 2219 3000
5042 3 2217 2218 2219 2220
5043 3 2267 2218 2219 3000
5044 3 2267 2218 2219 2220
5045 3 2217 2218 2267 2992
5046 3 2217 2218 2267 2268
5047 3 2219 2218 2267 2992
5048 3 2219 2218 2267 2268
5049 1 2221 2222 2223 2224
5050 1 2221 2222 2223 2257
5051 2 2222 2223 2224 2225
5052 2 2222 2223 2224 2258
5053 2 2257 2223 2224 2225
5054 2 2257 2223 2224 2258
5055 1 2222 2223 2257 2179
5056 1 2224 2223 2257 2179
5057 3 2223 2224 2225 2226
5058 3 2223 2224 2225 847
5059 3 2258 2224 2225 2226
5060 3 2258 2224 2225 847
5061 3 2223 2224 2258 2259
5062 3 2223 2224 2258 843
5063 3 2225 2224 2258 2259
5064 3 2225 2224 2258 843
5065 3 2224 2225 847 842
5066 3 2224 2225 847 848
5067 3 2226 2225 847 842
5068 3 2226 2225 847 848
5069 1 2227 2228 2229 2230
5070 1 2227 2228 2229 2260
5071 2 2228 2229 2230 2231
5072 2 2228 2229 2230 2261
5073 2 2260 2229 2230 2231
5074 2 2260 2229 2230 2261
5075 1 2228 2229 2260 2183
5076 1 2230 2229 2260 2183
5077 3 2229 2230 2231 2232
5078 3 2229 2230 2231 845
5079 3 2261 2230 2231 2232
5080 3 2261 2230 2231 845
5081 3 2229 2230 2261 2262
5082 3 2229 2230 2261 839
5083 3 2231 2230 2261 2262
5084 3 2231 2230 2261 839
5085 3 2230 2231 845 838
5086 3 2230 2231 845 846
5087 3 2232 2231 845 838
5088 3 2232 2231 845 846
5089 1 2233 2234 2235 2236
5090 1 2233 2234 2235 2254
5091 2 2234 2235 2236 2237
5092 2 2234 2235 2236 2255
5093 2 2254 2235 2236 2237
5094 2 2254 2235 2236 2255
5095 1 2234 2235 2254 2190
5096 1 2236 2235 2254 2190
5097 3 2235 2236 2237 439
5098 3 2235 2236 2237 2238
5099 3 2255 2236 2237 439
5100 3 2255 2236 2237 2238
5101 3 2235 2236 2255 428
5102 3 2235 2236 2255 2256
5103 3 2237 2236 2255 428
5104 3 2237 2236 2255 2256
5105 1 2239 2240 2241 2242
5106 1 2239 2240 2241 2251
5107 2 2240 2241 2242 2243
5108 2 2240 2241 2242 2252
5109 2 2251 2241 2242 2243
5110 2 2251 2241 2242 2252
5111 1 2240 2241 2251 2181
5112 1 2242 2241 2251 2181
5113 3 2241 2242 2243 436
5114 3 2241 2242 2243 2244
5115 3 2252 2242 2243 436
5116 3 2252 2242 2243 2244
5117 3 2241 2242 2252 433
5118 3 2241 2242 2252 2253
5119 3 2243 2242 2252 433
5120 3 2243 2242 2252 2253
5121 3 2187 2246 2079 2078
5122 3 2187 2246 2079 2080
5123 3 2247 2246 2079 2078
5124 3 2247 2246 2079 2080
5125 3 2194 2249 2075 2074
5126 3 2194 2249 2075 2076
5127 3 2250 2249 2075 2074
5128 3 2250 2249 2075 2076
5129 3 2224 2258 843 842
5130 3 2224 2258 843 844
5131 3 2259 2258 843 842
5132 3 2259 2258 843 844
5133 3 2230 2261 839 838
5134 3 2230 2261 839 840
5135 3 2262 2261 839 838
5136 3 2262 2261 839 840
5137 3 2206 2270 3375 3374
5138 3 2206 2270 3375 3376
5139 3 2271 2270 3375 3374
5140 3 2271 2270 3375 3376
5141 3 2200 2273 3371 3370
5142 3 2200 2273 3371 3372
5143 3 2274 2273 3371 3370
5144 3 2274 2273 3371 3372
5145 3 2170 2276 2087 2086
5146 3 2170 2276 2087 2088
5147 3 2277 2276 2087 2086
5148 3 2277 2276 2087 2088
5149 3 2163 2279 2083 2082
5150 3 2163 2279 2083 2084
5151 3 2280 2279 2083 2082
5152 3 2280 2279 2083 2084
5153 1 2281 2282 2283 2284
5154 1 2281 2282 2283 2396
5155 2 2282 2283 2284 2285
5156 2 2282 2283 2284 2397
5157 2 2396 2283 2284 2285
5158 2 2396 2283 2284 2397
5159 1 2282 2283 2396 2140
5160 1 2284 2283 2396 2140
5161 3 2283 2284 2285 2286
5162 3 2283 2284 2285 2373
5163 3 2397 2284 2285 2286
5164 3 2397 2284 2285 2373
5165 3 2283 2284 2397 2328
5166 3 2283 2284 2397 2398
5167 3 2285 2284 2397 2328
5168 3 2285 2284 2397 2398
5169 3 2284 2285 2373 2327
5170 3 2284 2285 2373 2374
5171 3 2286 2285 2373 2327
5172 3 2286 2285 2373 2374
5173 1 2287 2288 2289 2290
5174 1 2287 2288 2289 2393
5175 2 2288 2289 2290 2291
5176 2 2288 2289 2290 2394
5177 2 2393 2289 2290 2291
5178 2 2393 2289 2290 2394
5179 1 2288 2289 2393 2159
5180 1 2290 2289 2393 2159
5181 3 2289 2290 2291 2292
5182 3 2289 2290 2291 2370
5183 3 2394 2290 2291 2292
5184 3 2394 2290 2291 2370
5185 3 2289 2290 2394 2333
5186 3 2289 2290 2394 2395
5187 3 2291 2290 2394 2333
5188 3 2291 2290 2394 2395
5189 3 2290 2291 2370 2332
5190 3 2290 2291 2370 2371
5191 3 2292 2291 2370 2332
5192 3 2292 2291 2370 2371
5193 1 2293 2294 2295 2296
5194 1 2293 2294 2295 2399
5195 2 2294 2295 2296 2297
5196 2 2294 2295 2296 2400
5197 2 2399 2295 2296 2297
5198 2 2399 2295 2296 2400
5199 1 2294 2295 2399 2178
5200 1 2296 2295 2399 2178
5201 3 2295 2296 2297 2298
5202 3 2295 2296 2297 2379
5203 3 2400 2296 2297 2298
5204 3 2400 2296 2297 2379
5205 3 2295 2296 2400 2343
5206 3 2295 2296 2400 2401
5207 3 2297 2296 2400 2343
5208 3 2297 2296 2400 2401
5209 3 2296 2297 2379 2342
5210 3 2296 2297 2379 2380
5211 3 2298 2297 2379 2342
5212 3 2298 2297 2379 2380
5213 1 2299 2300 2301 2302
5214 1 2299 2300 2301 2402
5215 2 2300 2301 2302 2303
5216 2 2300 2301 2302 2403
5217 2 2402 2301 2302 2303
5218 2 2402 2301 2302 2403
5219 1 2300 2301 2402 2139
5220 1 2302 2301 2402 2139
5221 3 2301 2302 2303 2304
5222 3 2301 2302 2303 2376
5223 3 2403 2302 2303 2304
5224 3 2403 2302 2303 2376
5225 3 2301 2302 2403 2338
5226 3 2301 2302 2403 2404
5227 3 2303 2302 2403 2338
5228 3 2303 2302 2403 2404
5229 3 2302 2303 2376 2337
5230 3 2302 2303 2376 2377
5231 3 2304 2303 2376 2337
5232 3 2304 2303 2376 2377
5233 1 2138 2305 2306 2307
5234 1 2138 2305 2306 2411
5235 2 2305 2306 2307 2308
5236 2 2305 2306 2307 2412
5237 2 2411 2306 2307 2308
5238 2 2411 2306 2307 2412
5239 1 2305 2306 2411 2281
5240 1 2307 2306 2411 2281
5241 3 2306 2307 2308 2309
5242 3 2306 2307 2308 2385
5243 3 2412 2307 2308 2309
5244 3 2412 2307 2308 2385
5245 3 2306 2307 2412 2367
5246 3 2306 2307 2412 2413
5247 3 2308 2307 2412 2367
5248 3 2308 2307 2412 2413
5249 3 2307 2308 2385 2366
5250 3 2307 2308 2385 2386
5251 3 2309 2308 2385 2366
5252 3 2309 2308 2385 2386
5253 1 2176 2310 2311 2312
5254 1 2176 2310 2311 2414
5255 2 2310 2311 2312 2313
5256 2 2310 2311 2312 2415
5257 2 2414 2311 2312 2313
5258 2 2414 2311 2312 2415
5259 1 2310 2311 2414 2293
5260 1 2312 2311 2414 2293
5261 3 2311 2312 2313 2314
5262 3 2311 2312 2313 2382
5263 3 2415 2312 2313 2314
5264 3 2415 2312 2313 2382
5265 3 2311 2312 2415 2361
5266 3 2311 2312 2415 2416
5267 3 2313 2312 2415 2361
5268 3 2313 2312 2415 2416
5269 3 2312 2313 2382 2360
5270 3 2312 2313 2382 2383
5271 3 2314 2313 2382 2360
5272 3 2314 2313 2382 2383
5273 1 2137 2315 2316 2317
5274 1 2137 2315 2316 2408
5275 2 2315 2316 2317 2318
5276 2 2315 2316 2317 2409
5277 2 2408 2316 2317 2318
5278 2 2408 2316 2317 2409
5279 1 2315 2316 2408 2299
5280 1 2317 2316 2408 2299
5281 3 2316 2317 2318 2319
5282 3 2316 2317 2318 2391
5283 3 2409 2317 2318 2319
5284 3 2409 2317 2318 2391
5285 3 2316 2317 2409 2349
5286 3 2316 2317 2409 2410
5287 3 2318 2317 2409 2349
5288 3 2318 2317 2409 2410
5289 3 2317 2318 2391 2348
5290 3 2317 2318 2391 2392
5291 3 2319 2318 2391 2348
5292 3 2319 2318 2391 2392
5293 1 2177 2320 2321 2322
5294 1 2177 2320 2321 2405
5295 2 2320 2321 2322 2323
5296 2 2320 2321 2322 2406
5297 2 2405 2321 2322 2323
5298 2 2405 2321 2322 2406
5299 1 2320 2321 2405 2287
5300 1 2322 2321 2405 2287
5301 3 2321 2322 2323 2324
5302 3 2321 2322 2323 2388
5303 3 2406 2322 2323 2324
5304 3 2406 2322 2323 2388
5305 3 2321 2322 2406 2355
5306 3 2321 2322 2406 2407
5307 3 2323 2322 2406 2355
5308 3 2323 2322 2406 2407
5309 3 2322 2323 2388 2354
5310 3 2322 2323 2388 2389
5311 3 2324 2323 2388 2354
5312 3 2324 2323 2388 2389
5313 1 2227 2325 2326 2327
5314 1 2227 2325 2326 2372
5315 2 2325 2326 2327 2328
5316 2 2325 2326 2327 2373
5317 2 2372 2326 2327 2328
5318 2 2372 2326 2327 2373
5319 1 2325 2326 2372 2345
5320 1 2327 2326 2372 2345
5321 3 2326 2327 2328 2329
5322 3 2326 2327 2328 2397
5323 3 2373 2327 2328 2329
5324 3 2373 2327 2328 2397
5325 3 2326 2327 2373 2285
5326 3 2326 2327 2373 2374
5327 3 2328 2327 2373 2285
5328 3 2328 2327 2373 2374
5329 3 2327 2328 2397 2284
5330 3 2327 2328 2397 2398
5331 3 2329 2328 2397 2284
5332 3 2329 2328 2397 2398
5333 1 2233 2330 2331 2332
5334 1 2233 2330 2331 2369
5335 2 2330 2331 2332 2333
5336 2 2330 2331 2332 2370
5337 2 2369 2331 2332 2333
5338 2 2369 2331 2332 2370
5339 1 2330 2331 2369 2357
5340 1 2332 2331 2369 2357
5341 3 2331 2332 2333 2334
5342 3 2331 2332 2333 2394
5343 3 2370 2332 2333 2334
5344 3 2370 2332 2333 2394
5345 3 2331 2332 2370 2291
5346 3 2331 2332 2370 2371
5347 3 2333 2332 2370 2291
5348 3 2333 2332 2370 2371
5349 3 2332 2333 2394 2290
5350 3 2332 2333 2394 2395
5351 3 2334 2333 2394 2290
5352 3 2334 2333 2394 2395
5353 1 2221 2335 2336 2337
5354 1 2221 2335 2336 2375
5355 2 2335 2336 2337 2338
5356 2 2335 2336 2337 2376
5357 2 2375 2336 2337 2338
5358 2 2375 2336 2337 2376
5359 1 2335 2336 2375 2363
5360 1 2337 2336 2375 2363
5361 3 2336 2337 2338 2339
5362 3 2336 2337 2338 2403
5363 3 2376 2337 2338 2339
5364 3 2376 2337 2338 2403
5365 3 2336 2337 2376 2303
5366 3 2336 2337 2376 2377
5367 3 2338 2337 2376 2303
5368 3 2338 2337 2376 2377
5369 3 2337 2338 2403 2302
5370 3 2337 2338 2403 2404
5371 3 2339 2338 2403 2302
5372 3 2339 2338 2403 2404
5373 1 2239 2340 2341 2342
5374 1 2239 2340 2341 2378
5375 2 2340 2341 2342 2343
5376 2 2340 2341 2342 2379
5377 2 2378 2341 2342 2343
5378 2 2378 2341 2342 2379
5379 1 2340 2341 2378 2351
5380 1 2342 2341 2378 2351
5381 3 2341 2342 2343 2344
5382 3 2341 2342 2343 2400
5383 3 2379 2342 2343 2344
5384 3 2379 2342 2343 2400
5385 3 2341 2342 2379 2297
5386 3 2341 2342 2379 2380
5387 3 2343 2342 2379 2297
5388 3 2343 2342 2379 2380
5389 3 2342 2343 2400 2296
5390 3 2342 2343 2400 2401
5391 3 2344 2343 2400 2296
5392 3 2344 2343 2400 2401
5393 1 2345 2346 2347 2348
5394 1 2345 2346 2347 2390
5395 2 2346 2347 2348 2349
5396 2 2346 2347 2348 2391
5397 2 2390 2347 2348 2349
5398 2 2390 2347 2348 2391
5399 1 2346 2347 2390 2183
5400 1 2348 2347 2390 2183
5401 3 2347 2348 2349 2350
5402 3 2347 2348 2349 2409
5403 3 2391 2348 2349 2350
5404 3 2391 2348 2349 2409
5405 3 2347 2348 2391 2318
5406 3 2347 2348 2391 2392
5407 3 2349 2348 2391 2318
5408 3 2349 2348 2391 2392
5409 3 2348 2349 2409 2317
5410 3 2348 2349 2409 2410
5411 3 2350 2349 2409 2317
5412 3 2350 2349 2409 2410
5413 1 2351 2352 2353 2354
5414 1 2351 2352 2353 2387
5415 2 2352 2353 2354 2355
5416 2 2352 2353 2354 2388
5417 2 2387 2353 2354 2355
5418 2 2387 2353 2354 2388
5419 1 2352 2353 2387 2181
5420 1 2354 2353 2387 2181
5421 3 2353 2354 2355 2356
5422 3 2353 2354 2355 2406
5423 3 2388 2354 2355 2356
5424 3 2388 2354 2355 2406
5425 3 2353 2354 2388 2323
5426 3 2353 2354 2388 2389
5427 3 2355 2354 2388 2323
5428 3 2355 2354 2388 2389
5429 3 2354 2355 2406 2322
5430 3 2354 2355 2406 2407
5431 3 2356 2355 2406 2322
5432 3 2356 2355 2406 2407
5433 1 2357 2358 2359 2360
5434 1 2357 2358 2359 2381
5435 2 2358 2359 2360 2361
5436 2 2358 2359 2360 2382
5437 2 2381 2359 2360 2361
5438 2 2381 2359 2360 2382
5439 1 2358 2359 2381 2190
5440 1 2360 2359 2381 2190
5441 3 2359 2360 2361 2362
5442 3 2359 2360 2361 2415
5443 3 2382 2360 2361 2362
5444 3 2382 2360 2361 2415
5445 3 2359 2360 2382 2313
5446 3 2359 2360 2382 2383
5447 3 2361 2360 2382 2313
5448 3 2361 2360 2382 2383
5449 3 2360 2361 2415 2312
5450 3 2360 2361 2415 2416
5451 3 2362 2361 2415 2312
5452 3 2362 2361 2415 2416
5453 1 2363 2364 2365 2366
5454 1 2363 2364 2365 2384
5455 2 2364 2365 2366 2367
5456 2 2364 2365 2366 2385
5457 2 2384 2365 2366 2367
5458 2 2384 2365 2366 2385
5459 1 2364 2365 2384 2179
5460 1 2366 2365 2384 2179
5461 3 2365 2366 2367 2368
5462 3 2365 2366 2367 2412
5463 3 2385 2366 2367 2368
5464 3 2385 2366 2367 2412
5465 3 2365 2366 2385 2308
5466 3 2365 2366 2385 2386
5467 3 2367 2366 2385 2308
5468 3 2367 2366 2385 2386
5469 3 2366 2367 2412 2307
5470 3 2366 2367 2412 2413
5471 3 2368 2367 2412 2307
5472 3 2368 2367 2412 2413
5473 1 2287 2417 2418 2419
5474 1 2287 2417 2418 2478
5475 2 2417 2418 2419 2420
5476 2 2417 2418 2419 2479
5477 2 2478 2418 2419 2420
5478 2 2478 2418 2419 2479
5479 1 2417 2418 2478 2158
5480 1 2419 2418 2478 2158
5481 3 2418 2419 2420 2421
5482 3 2418 2419 2420 2461
5483 3 2479 2419 2420 2421
5484 3 2479 2419 2420 2461
5485 3 2418 2419 2479 2450
5486 3 2418 2419 2479 2480
5487 3 2420 2419 2479 2450
5488 3 2420 2419 2479 2480
5489 3 2419 2420 2461 2449
5490 3 2419 2420 2461 2462
5491 3 2421 2420 2461 2449
5492 3 2421 2420 2461 2462
5493 1 2293 2422 2423 2424
5494 1 2293 2422 2423 2475
5495 2 2422 2423 2424 2425
5496 2 2422 2423 2424 2476
5497 2 2475 2423 2424 2425
5498 2 2475 2423 2424 2476
5499 1 2422 2423 2475 2166
5500 1 2424 2423 2475 2166
5501 3 2423 2424 2425 2426
5502 3 2423 2424 2425 2458
5503 3 2476 2424 2425 2426
5504 3 2476 2424 2425 2458
5505 3 2423 2424 2476 2455
5506 3 2423 2424 2476 2477
5507 3 2425 2424 2476 2455
5508 3 2425 2424 2476 2477
5509 3 2424 2425 2458 2454
5510 3 2424 2425 2458 2459
5511 3 2426 2425 2458 2454
5512 3 2426 2425 2458 2459
5513 1 2281 2427 2428 2429
5514 1 2281 2427 2428 2469
5515 2 2427 2428 2429 2430
5516 2 2427 2428 2429 2470
5517 2 2469 2428 2429 2430
5518 2 2469 2428 2429 2470
5519 1 2427 2428 2469 2174
5520 1 2429 2428 2469 2174
5521 3 2428 2429 2430 2431
5522 3 2428 2429 2430 2467
5523 3 2470 2429 2430 2431
5524 3 2470 2429 2430 2467
5525 3 2428 2429 2470 2445
5526 3 2428 2429 2470 2471
5527 3 2430 2429 2470 2445
5528 3 2430 2429 2470 2471
5529 3 2429 2430 2467 2444
5530 3 2429 2430 2467 2468
5531 3 2431 2430 2467 2444
5532 3 2431 2430 2467 2468
5533 1 2299 2432 2433 2434
5534 1 2299 2432 2433 2472
5535 2 2432 2433 2434 2435
5536 2 2432 2433 2434 2473
5537 2 2472 2433 2434 2435
5538 2 2472 2433 2434 2473
5539 1 2432 2433 2472 2157
5540 1 2434 2433 2472 2157
5541 3 2433 2434 2435 2436
5542 3 2433 2434 2435 2464
5543 3 2473 2434 2435 2436
5544 3 2473 2434 2435 2464
5545 3 2433 2434 2473 2440
5546 3 2433 2434 2473 2474
5547 3 2435 2434 2473 2440
5548 3 2435 2434 2473 2474
5549 3 2434 2435 2464 2439
5550 3 2434 2435 2464 2465
5551 3 2436 2435 2464 2439
5552 3 2436 2435 2464 2465
5553 1 2203 2437 2438 2439
5554 1 2203 2437 2438 2463
5555 2 2437 2438 2439 2440
5556 2 2437 2438 2439 2464
5557 2 2463 2438 2439 2440
5558 2 2463 2438 2439 2464
5559 1 2437 2438 2463 2357
5560 1 2439 2438 2463 2357
5561 3 2438 2439 2440 2441
5562 3 2438 2439 2440 2473
5563 3 2464 2439 2440 2441
5564 3 2464 2439 2440 2473
5565 3 2438 2439 2464 2435
5566 3 2438 2439 2464 2465
5567 3 2440 2439 2464 2435
5568 3 2440 2439 2464 2465
5569 3 2439 2440 2473 2434
5570 3 2439 2440 2473 2474
5571 3 2441 2440 2473 2434
5572 3 2441 2440 2473 2474
5573 1 2209 2442 2443 2444
5574 1 2209 2442 2443 2466
5575 2 2442 2443 2444 2445
5576 2 2442 2443 2444 2467
5577 2 2466 2443 2444 2445
5578 2 2466 2443 2444 2467
5579 1 2442 2443 2466 2351
5580 1 2444 2443 2466 2351
5581 3 2443 2444 2445 2446
5582 3 2443 2444 2445 2470
5583 3 2467 2444 2445 2446
5584 3 2467 2444 2445 2470
5585 3 2443 2444 2467 2430
5586 3 2443 2444 2467 2468
5587 3 2445 2444 2467 2430
5588 3 2445 2444 2467 2468
5589 3 2444 2445 2470 2429
5590 3 2444 2445 2470 2471
5591 3 2446 2445 2470 2429
5592 3 2446 2445 2470 2471
5593 1 2197 2447 2448 2449
5594 1 2197 2447 2448 2460
5595 2 2447 2448 2449 2450
5596 2 2447 2448 2449 2461
5597 2 2460 2448 2449 2450
5598 2 2460 2448 2449 2461
5599 1 2447 2448 2460 2363
5600 1 2449 2448 2460 2363
5601 3 2448 2449 2450 2451
5602 3 2448 2449 2450 2479
5603 3 2461 2449 2450 2451
5604 3 2461 2449 2450 2479
5605 3 2448 2449 2461 2420
5606 3 2448 2449 2461 2462
5607 3 2450 2449 2461 2420
5608 3 2450 2449 2461 2462
5609 3 2449 2450 2479 2419
5610 3 2449 2450 2479 2480
5611 3 2451 2450 2479 2419
5612 3 2451 2450 2479 2480
5613 1 2215 2452 2453 2454
5614 1 2215 2452 2453 2457
5615 2 2452 2453 2454 2455
5616 2 2452 2453 2454 2458
5617 2 2457 2453 2454 2455
5618 2 2457 2453 2454 2458
5619 1 2452 2453 2457 2345
5620 1 2454 2453 2457 2345
5621 3 2453 2454 2455 2456
5622 3 2453 2454 2455 2476
5623 3 2458 2454 2455 2456
5624 3 2458 2454 2455 2476
5625 3 2453 2454 2458 2425
5626 3 2453 2454 2458 2459
5627 3 2455 2454 2458 2425
5628 3 2455 2454 2458 2459
5629 3 2454 2455 2476 2424
5630 3 2454 2455 2476 2477
5631 3 2456 2455 2476 2424
5632 3 2456 2455 2476 2477
5633 1 2158 2481 2497 2491
5634 1 2158 2481 2497 2498
5635 1 2174 2482 2501 2492
5636 1 2174 2482 2501 2502
5637 1 2176 2483 2533 2495
5638 1 2176 2483 2533 2534
5639 1 2177 2484 2537 2496
5640 1 2177 2484 2537 2538
5641 1 2140 2485 2521 2494
5642 1 2140 2485 2521 2522
5643 1 2178 2486 2525 2493
5644 1 2178 2486 2525 2526
5645 1 2179 2487 2505 2490
5646 1 2179 2487 2505 2506
5647 1 2181 2488 2509 2489
5648 1 2181 2488 2509 2510
5649 1 2209 2489 2509 2488
5650 1 2209 2489 2509 2510
5651 1 2197 2490 2505 2487
5652 1 2197 2490 2505 2506
5653 1 2177 2491 2497 2481
5654 1 2177 2491 2497 2498
5655 1 2138 2492 2501 2482
5656 1 2138 2492 2501 2502
5657 1 2166 2493 2525 2486
5658 1 2166 2493 2525 2526
5659 1 2174 2494 2521 2485
5660 1 2174 2494 2521 2522
5661 1 2178 2495 2533 2483
5662 1 2178 2495 2533 2534
5663 1 2159 2496 2537 2484
5664 1 2159 2496 2537 2538
5665 2 2481 2497 2498 2499
5666 2 2481 2497 2498 2517
5667 2 2491 2497 2498 2499
5668 2 2491 2497 2498 2517
5669 3 2497 2498 2499 1825
5670 3 2497 2498 2499 2500
5671 3 2517 2498 2499 1825
5672 3 2517 2498 2499 2500
5673 3 2497 2498 2517 1771
5674 3 2497 2498 2517 2518
5675 3 2499 2498 2517 1771
5676 3 2499 2498 2517 2518
5677 2 2482 2501 2502 2503
5678 2 2482 2501 2502 2519
5679 2 2492 2501 2502 2503
5680 2 2492 2501 2502 2519
5681 3 2501 2502 2503 1822
5682 3 2501 2502 2503 2504
5683 3 2519 2502 2503 1822
5684 3 2519 2502 2503 2504
5685 3 2501 2502 2519 1764
5686 3 2501 2502 2519 2520
5687 3 2503 2502 2519 1764
5688 3 2503 2502 2519 2520
5689 2 2487 2505 2506 2507
5690 2 2487 2505 2506 2515
5691 2 2490 2505 2506 2507
5692 2 2490 2505 2506 2515
5693 3 2505 2506 2507 1855
5694 3 2505 2506 2507 2508
5695 3 2515 2506 2507 1855
5696 3 2515 2506 2507 2508
5697 3 2505 2506 2515 1740
5698 3 2505 2506 2515 2516
5699 3 2507 2506 2515 1740
5700 3 2507 2506 2515 2516
5701 2 2488 2509 2510 2511
5702 2 2488 2509 2510 2513
5703 2 2489 2509 2510 2511
5704 2 2489 2509 2510 2513
5705 3 2509 2510 2511 1852
5706 3 2509 2510 2511 2512
5707 3 2513 2510 2511 1852
5708 3 2513 2510 2511 2512
5709 3 2509 2510 2513 1747
5710 3 2509 2510 2513 2514
5711 3 2511 2510 2513 1747
5712 3 2511 2510 2513 2514
5713 2 2485 2521 2522 2523
5714 2 2485 2521 2522 2531
5715 2 2494 2521 2522 2523
5716 2 2494 2521 2522 2531
5717 3 2521 2522 2523 3121
5718 3 2521 2522 2523 2524
5719 3 2531 2522 2523 3121
5720 3 2531 2522 2523 2524
5721 3 2521 2522 2531 3049
5722 3 2521 2522 2531 2532
5723 3 2523 2522 2531 3049
5724 3 2523 2522 2531 2532
5725 2 2486 2525 2526 2527
5726 2 2486 2525 2526 2529
5727 2 2493 2525 2526 2527
5728 2 2493 2525 2526 2529
5729 3 2525 2526 2527 3118
5730 3 2525 2526 2527 2528
5731 3 2529 2526 2527 3118
5732 3 2529 2526 2527 2528
5733 3 2525 2526 2529 3055
5734 3 2525 2526 2529 2530
5735 3 2527 2526 2529 3055
5736 3 2527 2526 2529 2530
5737 2 2483 2533 2534 2535
5738 2 2483 2533 2534 2541
5739 2 2495 2533 2534 2535
5740 2 2495 2533 2534 2541
5741 3 2533 2534 2535 565
5742 3 2533 2534 2535 2536
5743 3 2541 2534 2535 565
5744 3 2541 2534 2535 2536
5745 3 2533 2534 2541 535
5746 3 2533 2534 2541 2542
5747 3 2535 2534 2541 535
5748 3 2535 2534 2541 2542
5749 2 2484 2537 2538 2539
5750 2 2484 2537 2538 2543
5751 2 2496 2537 2538 2539
5752 2 2496 2537 2538 2543
5753 3 2537 2538 2539 562
5754 3 2537 2538 2539 2540
5755 3 2543 2538 2539 562
5756 3 2543 2538 2539 2540
5757 3 2537 2538 2543 529
5758 3 2537 2538 2543 2544
5759 3 2539 2538 2543 529
5760 3 2539 2538 2543 2544
5761 1 2561 2545 2546 2547
5762 1 2561 2545 2546 2558
5763 2 2545 2546 2547 2548
5764 2 2545 2546 2547 2559
5765 2 2558 2546 2547 2548
5766 2 2558 2546 2547 2559
5767 1 2545 2546 2558 2563
5768 1 2547 2546 2558 2563
5769 3 2546 2547 2548 2549
5770 3 2546 2547 2548 983
5771 3 2559 2547 2548 2549
5772 3 2559 2547 2548 983
5773 3 2546 2547 2559 2560
5774 3 2546 2547 2559 965
5775 3 2548 2547 2559 2560
5776 3 2548 2547 2559 965
5777 3 2547 2548 983 964
5778 3 2547 2548 983 984
5779 3 2549 2548 983 964
5780 3 2549 2548 983 984
5781 1 2562 2550 2551 2552
5782 1 2562 2550 2551 2555
5783 2 2550 2551 2552 2553
5784 2 2550 2551 2552 2556
5785 2 2555 2551 2552 2553
5786 2 2555 2551 2552 2556
5787 1 2550 2551 2555 2564
5788 1 2552 2551 2555 2564
5789 3 2551 2552 2553 2554
5790 3 2551 2552 2553 980
5791 3 2556 2552 2553 2554
5792 3 2556 2552 2553 980
5793 3 2551 2552 2556 2557
5794 3 2551 2552 2556 971
5795 3 2553 2552 2556 2557
5796 3 2553 2552 2556 971
5797 3 2552 2553 980 970
5798 3 2552 2553 980 981
5799 3 2554 2553 980 970
5800 3 2554 2553 980 981
5801 3 2552 2556 971 970
5802 3 2552 2556 971 972
5803 3 2557 2556 971 970
5804 3 2557 2556 971 972
5805 3 2547 2559 965 964
5806 3 2547 2559 965 966
5807 3 2560 2559 965 964
5808 3 2560 2559 965 966
5809 1 2563 2565 2566 2567
5810 1 2563 2565 2566 2575
5811 2 2565 2566 2567 2568
5812 2 2565 2566 2567 2576
5813 2 2575 2566 2567 2568
5814 2 2575 2566 2567 2576
5815 1 2565 2566 2575 2581
5816 1 2567 2566 2575 2581
5817 3 2566 2567 2568 2569
5818 3 2566 2567 2568 1843
5819 3 2576 2567 2568 2569
5820 3 2576 2567 2568 1843
5821 3 2566 2567 2576 2577
5822 3 2566 2567 2576 1795
5823 3 2568 2567 2576 2577
5824 3 2568 2567 2576 1795
5825 3 2567 2568 1843 1794
5826 3 2567 2568 1843 1844
5827 3 2569 2568 1843 1794
5828 3 2569 2568 1843 1844
5829 1 2583 2570 2571 2572
5830 1 2583 2570 2571 2578
5831 2 2570 2571 2572 2573
5832 2 2570 2571 2572 2579
5833 2 2578 2571 2572 2573
5834 2 2578 2571 2572 2579
5835 1 2570 2571 2578 2582
5836 1 2572 2571 2578 2582
5837 3 2571 2572 2573 2574
5838 3 2571 2572 2573 1840
5839 3 2579 2572 2573 2574
5840 3 2579 2572 2573 1840
5841 3 2571 2572 2579 2580
5842 3 2571 2572 2579 1789
5843 3 2573 2572 2579 2580
5844 3 2573 2572 2579 1789
5845 3 2572 2573 1840 1788
5846 3 2572 2573 1840 1841
5847 3 2574 2573 1840 1788
5848 3 2574 2573 1840 1841
5849 3 2567 2576 1795 1794
5850 3 2567 2576 1795 1796
5851 3 2577 2576 1795 1794
5852 3 2577 2576 1795 1796
5853 3 2572 2579 1789 1788
5854 3 2572 2579 1789 1790
5855 3 2580 2579 1789 1788
5856 3 2580 2579 1789 1790
5857 1 2581 2585 2586 2587
5858 1 2581 2585 2586 2702
5859 2 2585 2586 2587 2588
5860 2 2585 2586 2587 2703
5861 2 2702 2586 2587 2588
5862 2 2702 2586 2587 2703
5863 1 2585 2586 2702 2561
5864 1 2587 2586 2702 2561
5865 3 2586 2587 2588 2589
5866 3 2586 2587 2588 3363
5867 3 2703 2587 2588 2589
5868 3 2703 2587 2588 3363
5869 3 2586 2587 2703 2704
5870 3 2586 2587 2703 3355
5871 3 2588 2587 2703 2704
5872 3 2588 2587 2703 3355
5873 3 2587 2588 3363 3354
5874 3 2587 2588 3363 3364
5875 3 2589 2588 3363 3354
5876 3 2589 2588 3363 3364
5877 1 2590 2592 2593 2594
5878 1 2590 2592 2593 2699
5879 2 2592 2593 2594 2595
5880 2 2592 2593 2594 2700
5881 2 2699 2593 2594 2595
5882 2 2699 2593 2594 2700
5883 1 2592 2593 2699 2600
5884 1 2594 2593 2699 2600
5885 3 2593 2594 2595 2596
5886 3 2593 2594 2595 3361
5887 3 2700 2594 2595 2596
5888 3 2700 2594 2595 3361
5889 3 2593 2594 2700 2701
5890 3 2593 2594 2700 3359
5891 3 2595 2594 2700 2701
5892 3 2595 2594 2700 3359
5893 3 2594 2595 3361 3358
5894 3 2594 2595 3361 3362
5895 3 2596 2595 3361 3358
5896 3 2596 2595 3361 3362
5897 1 2607 2609 2610 2611
5898 1 2607 2609 2610 2669
5899 2 2609 2610 2611 2612
5900 2 2609 2610 2611 2670
5901 2 2669 2610 2611 2612
5902 2 2669 2610 2611 2670
5903 1 2609 2610 2669 2639
5904 1 2611 2610 2669 2639
5905 3 2610 2611 2612 2613
5906 3 2610 2611 2612 3367
5907 3 2670 2611 2612 2613
5908 3 2670 2611 2612 3367
5909 3 2610 2611 2670 2671
5910 3 2610 2611 2670 3351
5911 3 2612 2611 2670 2671
5912 3 2612 2611 2670 3351
5913 3 2611 2612 3367 3350
5914 3 2611 2612 3367 3368
5915 3 2613 2612 3367 3350
5916 3 2613 2612 3367 3368
5917 1 2614 2616 2617 2618
5918 1 2614 2616 2617 2672
5919 2 2616 2617 2618 2619
5920 2 2616 2617 2618 2673
5921 2 2672 2617 2618 2619
5922 2 2672 2617 2618 2673
5923 1 2616 2617 2672 2627
5924 1 2618 2617 2672 2627
5925 3 2617 2618 2619 2620
5926 3 2617 2618 2619 3365
5927 3 2673 2618 2619 2620
5928 3 2673 2618 2619 3365
5929 3 2617 2618 2673 2674
5930 3 2617 2618 2673 3347
5931 3 2619 2618 2673 2674
5932 3 2619 2618 2673 3347
5933 3 2618 2619 3365 3346
5934 3 2618 2619 3365 3366
5935 3 2620 2619 3365 3346
5936 3 2620 2619 3365 3366
5937 1 2621 2622 2623 2624
5938 1 2621 2622 2623 2696
5939 2 2622 2623 2624 2625
5940 2 2622 2623 2624 2697
5941 2 2696 2623 2624 2625
5942 2 2696 2623 2624 2697
5943 1 2622 2623 2696 2645
5944 1 2624 2623 2696 2645
5945 3 2623 2624 2625 2626
5946 3 2623 2624 2625 2107
5947 3 2697 2624 2625 2626
5948 3 2697 2624 2625 2107
5949 3 2623 2624 2697 2698
5950 3 2623 2624 2697 2099
5951 3 2625 2624 2697 2698
5952 3 2625 2624 2697 2099
5953 3 2624 2625 2107 2098
5954 3 2624 2625 2107 2108
5955 3 2626 2625 2107 2098
5956 3 2626 2625 2107 2108
5957 1 2627 2628 2629 2630
5958 1 2627 2628 2629 2693
5959 2 2628 2629 2630 2631
5960 2 2628 2629 2630 2694
5961 2 2693 2629 2630 2631
5962 2 2693 2629 2630 2694
5963 1 2628 2629 2693 2657
5964 1 2630 2629 2693 2657
5965 3 2629 2630 2631 2632
5966 3 2629 2630 2631 2105
5967 3 2694 2630 2631 2632
5968 3 2694 2630 2631 2105
5969 3 2629 2630 2694 2695
5970 3 2629 2630 2694 2103
5971 3 2631 2630 2694 2695
5972 3 2631 2630 2694 2103
5973 3 2630 2631 2105 2102
5974 3 2630 2631 2105 2106
5975 3 2632 2631 2105 2102
5976 3 2632 2631 2105 2106
5977 1 2633 2634 2635 2636
5978 1 2633 2634 2635 2687
5979 2 2634 2635 2636 2637
5980 2 2634 2635 2636 2688
5981 2 2687 2635 2636 2637
5982 2 2687 2635 2636 2688
5983 1 2634 2635 2687 2663
5984 1 2636 2635 2687 2663
5985 3 2635 2636 2637 1731
5986 3 2635 2636 2637 2638
5987 3 2688 2636 2637 1731
5988 3 2688 2636 2637 2638
5989 3 2635 2636 2688 1725
5990 3 2635 2636 2688 2689
5991 3 2637 2636 2688 1725
5992 3 2637 2636 2688 2689
5993 1 2639 2640 2641 2642
5994 1 2639 2640 2641 2690
5995 2 2640 2641 2642 2643
5996 2 2640 2641 2642 2691
5997 2 2690 2641 2642 2643
5998 2 2690 2641 2642 2691
5999 1 2640 2641 2690 2651
6000 1 2642 2641 2690 2651
6001 3 2641 2642 2643 1728
6002 3 2641 2642 2643 2644
6003 3 2691 2642 2643 1728
6004 3 2691 2642 2643 2644
6005 3 2641 2642 2691 1720
6006 3 2641 2642 2691 2692
6007 3 2643 2642 2691 1720
6008 3 2643 2642 2691 2692
6009 1 2645 2646 2647 2648
6010 1 2645 2646 2647 2681
6011 2 2646 2647 2648 2649
6012 2 2646 2647 2648 2682
6013 2 2681 2647 2648 2649
6014 2 2681 2647 2648 2682
6015 1 2646 2647 2681 2603
6016 1 2648 2647 2681 2603
6017 3 2647 2648 2649 2650
6018 3 2647 2648 2649 1271
6019 3 2682 2648 2649 2650
6020 3 2682 2648 2649 1271
6021 3 2647 2648 2682 2683
6022 3 2647 2648 2682 1267
6023 3 2649 2648 2682 2683
6024 3 2649 2648 2682 1267
6025 3 2648 2649 1271 1266
6026 3 2648 2649 1271 1272
6027 3 2650 2649 1271 1266
6028 3 2650 2649 1271 1272
6029 1 2651 2652 2653 2654
6030 1 2651 2652 2653 2684
6031 2 2652 2653 2654 2655
6032 2 2652 2653 2654 2685
6033 2 2684 2653 2654 2655
6034 2 2684 2653 2654 2685
6035 1 2652 2653 2684 2607
6036 1 2654 2653 2684 2607
6037 3 2653 2654 2655 2656
6038 3 2653 2654 2655 1269
6039 3 2685 2654 2655 2656
6040 3 2685 2654 2655 1269
6041 3 2653 2654 2685 2686
6042 3 2653 2654 2685 1263
6043 3 2655 2654 2685 2686
6044 3 2655 2654 2685 1263
6045 3 2654 2655 1269 1262
6046 3 2654 2655 1269 1270
6047 3 2656 2655 1269 1262
6048 3 2656 2655 1269 1270
6049 1 2657 2658 2659 2660
6050 1 2657 2658 2659 2678
6051 2 2658 2659 2660 2661
6052 2 2658 2659 2660 2679
6053 2 2678 2659 2660 2661
6054 2 2678 2659 2660 2679
6055 1 2658 2659 2678 2614
6056 1 2660 2659 2678 2614
6057 3 2659 2660 2661 863
6058 3 2659 2660 2661 2662
6059 3 2679 2660 2661 863
6060 3 2679 2660 2661 2662
6061 3 2659 2660 2679 852
6062 3 2659 2660 2679 2680
6063 3 2661 2660 2679 852
6064 3 2661 2660 2679 2680
6065 1 2663 2664 2665 2666
6066 1 2663 2664 2665 2675
6067 2 2664 2665 2666 2667
6068 2 2664 2665 2666 2676
6069 2 2675 2665 2666 2667
6070 2 2675 2665 2666 2676
6071 1 2664 2665 2675 2605
6072 1 2666 2665 2675 2605
6073 3 2665 2666 2667 860
6074 3 2665 2666 2667 2668
6075 3 2676 2666 2667 860
6076 3 2676 2666 2667 2668
6077 3 2665 2666 2676 857
6078 3 2665 2666 2676 2677
6079 3 2667 2666 2676 857
6080 3 2667 2666 2676 2677
6081 3 2611 2670 3351 3350
6082 3 2611 2670 3351 3352
6083 3 2671 2670 3351 3350
6084 3 2671 2670 3351 3352
6085 3 2618 2673 3347 3346
6086 3 2618 2673 3347 3348
6087 3 2674 2673 3347 3346
6088 3 2674 2673 3347 3348
6089 3 2648 2682 1267 1266
6090 3 2648 2682 1267 1268
6091 3 2683 2682 1267 1266
6092 3 2683 2682 1267 1268
6093 3 2654 2685 1263 1262
6094 3 2654 2685 1263 1264
6095 3 2686 2685 1263 1262
6096 3 2686 2685 1263 1264
6097 3 2630 2694 2103 2102
6098 3 2630 2694 2103 2104
6099 3 2695 2694 2103 2102
6100 3 2695 2694 2103 2104
6101 3 2624 2697 2099 2098
6102 3 2624 2697 2099 2100
6103 3 2698 2697 2099 2098
6104 3 2698 2697 2099 2100
6105 3 2594 2700 3359 3358
6106 3 2594 2700 3359 3360
6107 3 2701 2700 3359 3358
6108 3 2701 2700 3359 3360
6109 3 2587 2703 3355 3354
6110 3 2587 2703 3355 3356
6111 3 2704 2703 3355 3354
6112 3 2704 2703 3355 3356
6113 1 2705 2706 2707 2708
6114 1 2705 2706 2707 2820
6115 2 2706 2707 2708 2709
6116 2 2706 2707 2708 2821
6117 2 2820 2707 2708 2709
6118 2 2820 2707 2708 2821
6119 1 2706 2707 2820 2564
6120 1 2708 2707 2820 2564
6121 3 2707 2708 2709 2710
6122 3 2707 2708 2709 2797
6123 3 2821 2708 2709 2710
6124 3 2821 2708 2709 2797
6125 3 2707 2708 2821 2752
6126 3 2707 2708 2821 2822
6127 3 2709 2708 2821 2752
6128 3 2709 2708 2821 2822
6129 3 2708 2709 2797 2751
6130 3 2708 2709 2797 2798
6131 3 2710 2709 2797 2751
6132 3 2710 2709 2797 2798
6133 1 2711 2712 2713 2714
6134 1 2711 2712 2713 2817
6135 2 2712 2713 2714 2715
6136 2 2712 2713 2714 2818
6137 2 2817 2713 2714 2715
6138 2 2817 2713 2714 2818
6139 1 2712 2713 2817 2583
6140 1 2714 2713 2817 2583
6141 3 2713 2714 2715 2716
6142 3 2713 2714 2715 2794
6143 3 2818 2714 2715 2716
6144 3 2818 2714 2715 2794
6145 3 2713 2714 2818 2757
6146 3 2713 2714 2818 2819
6147 3 2715 2714 2818 2757
6148 3 2715 2714 2818 2819
6149 3 2714 2715 2794 2756
6150 3 2714 2715 2794 2795
6151 3 2716 2715 2794 2756
6152 3 2716 2715 2794 2795
6153 1 2717 2718 2719 2720
6154 1 2717 2718 2719 2823
6155 2 2718 2719 2720 2721
6156 2 2718 2719 2720 2824
6157 2 2823 2719 2720 2721
6158 2 2823 2719 2720 2824
6159 1 2718 2719 2823 2602
6160 1 2720 2719 2823 2602
6161 3 2719 2720 2721 2722
6162 3 2719 2720 2721 2803
6163 3 2824 2720 2721 2722
6164 3 2824 2720 2721 2803
6165 3 2719 2720 2824 2767
6166 3 2719 2720 2824 2825
6167 3 2721 2720 2824 2767
6168 3 2721 2720 2824 2825
6169 3 2720 2721 2803 2766
6170 3 2720 2721 2803 2804
6171 3 2722 2721 2803 2766
6172 3 2722 2721 2803 2804
6173 1 2723 2724 2725 2726
6174 1 2723 2724 2725 2826
6175 2 2724 2725 2726 2727
6176 2 2724 2725 2726 2827
6177 2 2826 2725 2726 2727
6178 2 2826 2725 2726 2827
6179 1 2724 2725 2826 2563
6180 1 2726 2725 2826 2563
6181 3 2725 2726 2727 2728
6182 3 2725 2726 2727 2800
6183 3 2827 2726 2727 2728
6184 3 2827 2726 2727 2800
6185 3 2725 2726 2827 2762
6186 3 2725 2726 2827 2828
6187 3 2727 2726 2827 2762
6188 3 2727 2726 2827 2828
6189 3 2726 2727 2800 2761
6190 3 2726 2727 2800 2801
6191 3 2728 2727 2800 2761
6192 3 2728 2727 2800 2801
6193 1 2562 2729 2730 2731
6194 1 2562 2729 2730 2835
6195 2 2729 2730 2731 2732
6196 2 2729 2730 2731 2836
6197 2 2835 2730 2731 2732
6198 2 2835 2730 2731 2836
6199 1 2729 2730 2835 2705
6200 1 2731 2730 2835 2705
6201 3 2730 2731 2732 2733
6202 3 2730 2731 2732 2809
6203 3 2836 2731 2732 2733
6204 3 2836 2731 2732 2809
6205 3 2730 2731 2836 2791
6206 3 2730 2731 2836 2837
6207 3 2732 2731 2836 2791
6208 3 2732 2731 2836 2837
6209 3 2731 2732 2809 2790
6210 3 2731 2732 2809 2810
6211 3 2733 2732 2809 2790
6212 3 2733 2732 2809 2810
6213 1 2600 2734 2735 2736
6214 1 2600 2734 2735 2838
6215 2 2734 2735 2736 2737
6216 2 2734 2735 2736 2839
6217 2 2838 2735 2736 2737
6218 2 2838 2735 2736 2839
6219 1 2734 2735 2838 2717
6220 1 2736 2735 2838 2717
6221 3 2735 2736 2737 2738
6222 3 2735 2736 2737 2806
6223 3 2839 2736 2737 2738
6224 3 2839 2736 2737 2806
6225 3 2735 2736 2839 2785
6226 3 2735 2736 2839 2840
6227 3 2737 2736 2839 2785
6228 3 2737 2736 2839 2840
6229 3 2736 2737 2806 2784
6230 3 2736 2737 2806 2807
6231 3 2738 2737 2806 2784
6232 3 2738 2737 2806 2807
6233 1 2561 2739 2740 2741
6234 1 2561 2739 2740 2832
6235 2 2739 2740 2741 2742
6236 2 2739 2740 2741 2833
6237 2 2832 2740 2741 2742
6238 2 2832 2740 2741 2833
6239 1 2739 2740 2832 2723
6240 1 2741 2740 2832 2723
6241 3 2740 2741 2742 2743
6242 3 2740 2741 2742 2815
6243 3 2833 2741 2742 2743
6244 3 2833 2741 2742 2815
6245 3 2740 2741 2833 2773
6246 3 2740 2741 2833 2834
6247 3 2742 2741 2833 2773
6248 3 2742 2741 2833 2834
6249 3 2741 2742 2815 2772
6250 3 2741 2742 2815 2816
6251 3 2743 2742 2815 2772
6252 3 2743 2742 2815 2816
6253 1 2601 2744 2745 2746
6254 1 2601 2744 2745 2829
6255 2 2744 2745 2746 2747
6256 2 2744 2745 2746 2830
6257 2 2829 2745 2746 2747
6258 2 2829 2745 2746 2830
6259 1 2744 2745 2829 2711
6260 1 2746 2745 2829 2711
6261 3 2745 2746 2747 2748
6262 3 2745 2746 2747 2812
6263 3 2830 2746 2747 2748
6264 3 2830 2746 2747 2812
6265 3 2745 2746 2830 2779
6266 3 2745 2746 2830 2831
6267 3 2747 2746 2830 2779
6268 3 2747 2746 2830 2831
6269 3 2746 2747 2812 2778
6270 3 2746 2747 2812 2813
6271 3 2748 2747 2812 2778
6272 3 2748 2747 2812 2813
6273 1 2651 2749 2750 2751
6274 1 2651 2749 2750 2796
6275 2 2749 2750 2751 2752
6276 2 2749 2750 2751 2797
6277 2 2796 2750 2751 2752
6278 2 2796 2750 2751 2797
6279 1 2749 2750 2796 2769
6280 1 2751 2750 2796 2769
6281 3 2750 2751 2752 2753
6282 3 2750 2751 2752 2821
6283 3 2797 2751 2752 2753
6284 3 2797 2751 2752 2821
6285 3 2750 2751 2797 2709
6286 3 2750 2751 2797 2798
6287 3 2752 2751 2797 2709
6288 3 2752 2751 2797 2798
6289 3 2751 2752 2821 2708
6290 3 2751 2752 2821 2822
6291 3 2753 2752 2821 2708
6292 3 2753 2752 2821 2822
6293 1 2657 2754 2755 2756
6294 1 2657 2754 2755 2793
6295 2 2754 2755 2756 2757
6296 2 2754 2755 2756 2794
6297 2 2793 2755 2756 2757
6298 2 2793 2755 2756 2794
6299 1 2754 2755 2793 2781
6300 1 2756 2755 2793 2781
6301 3 2755 2756 2757 2758
6302 3 2755 2756 2757 2818
6303 3 2794 2756 2757 2758
6304 3 2794 2756 2757 2818
6305 3 2755 2756 2794 2715
6306 3 2755 2756 2794 2795
6307 3 2757 2756 2794 2715
6308 3 2757 2756 2794 2795
6309 3 2756 2757 2818 2714
6310 3 2756 2757 2818 2819
6311 3 2758 2757 2818 2714
6312 3 2758 2757 2818 2819
6313 1 2645 2759 2760 2761
6314 1 2645 2759 2760 2799
6315 2 2759 2760 2761 2762
6316 2 2759 2760 2761 2800
6317 2 2799 2760 2761 2762
6318 2 2799 2760 2761 2800
6319 1 2759 2760 2799 2787
6320 1 2761 2760 2799 2787
6321 3 2760 2761 2762 2763
6322 3 2760 2761 2762 2827
6323 3 2800 2761 2762 2763
6324 3 2800 2761 2762 2827
6325 3 2760 2761 2800 2727
6326 3 2760 2761 2800 2801
6327 3 2762 2761 2800 2727
6328 3 2762 2761 2800 2801
6329 3 2761 2762 2827 2726
6330 3 2761 2762 2827 2828
6331 3 2763 2762 2827 2726
6332 3 2763 2762 2827 2828
6333 1 2663 2764 2765 2766
6334 1 2663 2764 2765 2802
6335 2 2764 2765 2766 2767
6336 2 2764 2765 2766 2803
6337 2 2802 2765 2766 2767
6338 2 2802 2765 2766 2803
6339 1 2764 2765 2802 2775
6340 1 2766 2765 2802 2775
6341 3 2765 2766 2767 2768
6342 3 2765 2766 2767 2824
6343 3 2803 2766 2767 2768
6344 3 2803 2766 2767 2824
6345 3 2765 2766 2803 2721
6346 3 2765 2766 2803 2804
6347 3 2767 2766 2803 2721
6348 3 2767 2766 2803 2804
6349 3 2766 2767 2824 2720
6350 3 2766 2767 2824 2825
6351 3 2768 2767 2824 2720
6352 3 2768 2767 2824 2825
6353 1 2769 2770 2771 2772
6354 1 2769 2770 2771 2814
6355 2 2770 2771 2772 2773
6356 2 2770 2771 2772 2815
6357 2 2814 2771 2772 2773
6358 2 2814 2771 2772 2815
6359 1 2770 2771 2814 2607
6360 1 2772 2771 2814 2607
6361 3 2771 2772 2773 2774
6362 3 2771 2772 2773 2833
6363 3 2815 2772 2773 2774
6364 3 2815 2772 2773 2833
6365 3 2771 2772 2815 2742
6366 3 2771 2772 2815 2816
6367 3 2773 2772 2815 2742
6368 3 2773 2772 2815 2816
6369 3 2772 2773 2833 2741
6370 3 2772 2773 2833 2834
6371 3 2774 2773 2833 2741
6372 3 2774 2773 2833 2834
6373 1 2775 2776 2777 2778
6374 1 2775 2776 2777 2811
6375 2 2776 2777 2778 2779
6376 2 2776 2777 2778 2812
6377 2 2811 2777 2778 2779
6378 2 2811 2777 2778 2812
6379 1 2776 2777 2811 2605
6380 1 2778 2777 2811 2605
6381 3 2777 2778 2779 2780
6382 3 2777 2778 2779 2830
6383 3 2812 2778 2779 2780
6384 3 2812 2778 2779 2830
6385 3 2777 2778 2812 2747
6386 3 2777 2778 2812 2813
6387 3 2779 2778 2812 2747
6388 3 2779 2778 2812 2813
6389 3 2778 2779 2830 2746
6390 3 2778 2779 2830 2831
6391 3 2780 2779 2830 2746
6392 3 2780 2779 2830 2831
6393 1 2781 2782 2783 2784
6394 1 2781 2782 2783 2805
6395 2 2782 2783 2784 2785
6396 2 2782 2783 2784 2806
6397 2 2805 2783 2784 2785
6398 2 2805 2783 2784 2806
6399 1 2782 2783 2805 2614
6400 1 2784 2783 2805 2614
6401 3 2783 2784 2785 2786
6402 3 2783 2784 2785 2839
6403 3 2806 2784 2785 2786
6404 3 2806 2784 2785 2839
6405 3 2783 2784 2806 2737
6406 3 2783 2784 2806 2807
6407 3 2785 2784 2806 2737
6408 3 2785 2784 2806 2807
6409 3 2784 2785 2839 2736
6410 3 2784 2785 2839 2840
6411 3 2786 2785 2839 2736
6412 3 2786 2785 2839 2840
6413 1 2787 2788 2789 2790
6414 1 2787 2788 2789 2808
6415 2 2788 2789 2790 2791
6416 2 2788 2789 2790 2809
6417 2 2808 2789 2790 2791
6418 2 2808 2789 2790 2809
6419 1 2788 2789 2808 2603
6420 1 2790 2789 2808 2603
6421 3 2789 2790 2791 2792
6422 3 2789 2790 2791 2836
6423 3 2809 2790 2791 2792
6424 3 2809 2790 2791 2836
6425 3 2789 2790 2809 2732
6426 3 2789 2790 2809 2810
6427 3 2791 2790 2809 2732
6428 3 2791 2790 2809 2810
6429 3 2790 2791 2836 2731
6430 3 2790 2791 2836 2837
6431 3 2792 2791 2836 2731
6432 3 2792 2791 2836 2837
6433 1 2711 2841 2842 2843
6434 1 2711 2841 2842 2902
6435 2 2841 2842 2843 2844
6436 2 2841 2842 2843 2903
6437 2 2902 2842 2843 2844
6438 2 2902 2842 2843 2903
6439 1 2841 2842 2902 2582
6440 1 2843 2842 2902 2582
6441 3 2842 2843 2844 2845
6442 3 2842 2843 2844 2885
6443 3 2903 2843 2844 2845
6444 3 2903 2843 2844 2885
6445 3 2842 2843 2903 2874
6446 3 2842 2843 2903 2904
6447 3 2844 2843 2903 2874
6448 3 2844 2843 2903 2904
6449 3 2843 2844 2885 2873
6450 3 2843 2844 2885 2886
6451 3 2845 2844 2885 2873
6452 3 2845 2844 2885 2886
6453 1 2717 2846 2847 2848
6454 1 2717 2846 2847 2899
6455 2 2846 2847 2848 2849
6456 2 2846 2847 2848 2900
6457 2 2899 2847 2848 2849
6458 2 2899 2847 2848 2900
6459 1 2846 2847 2899 2590
6460 1 2848 2847 2899 2590
6461 3 2847 2848 2849 2850
6462 3 2847 2848 2849 2882
6463 3 2900 2848 2849 2850
6464 3 2900 2848 2849 2882
6465 3 2847 2848 2900 2879
6466 3 2847 2848 2900 2901
6467 3 2849 2848 2900 2879
6468 3 2849 2848 2900 2901
6469 3 2848 2849 2882 2878
6470 3 2848 2849 2882 2883
6471 3 2850 2849 2882 2878
6472 3 2850 2849 2882 2883
6473 1 2705 2851 2852 2853
6474 1 2705 2851 2852 2893
6475 2 2851 2852 2853 2854
6476 2 2851 2852 2853 2894
6477 2 2893 2852 2853 2854
6478 2 2893 2852 2853 2894
6479 1 2851 2852 2893 2598
6480 1 2853 2852 2893 2598
6481 3 2852 2853 2854 2855
6482 3 2852 2853 2854 2891
6483 3 2894 2853 2854 2855
6484 3 2894 2853 2854 2891
6485 3 2852 2853 2894 2869
6486 3 2852 2853 2894 2895
6487 3 2854 2853 2894 2869
6488 3 2854 2853 2894 2895
6489 3 2853 2854 2891 2868
6490 3 2853 2854 2891 2892
6491 3 2855 2854 2891 2868
6492 3 2855 2854 2891 2892
6493 1 2723 2856 2857 2858
6494 1 2723 2856 2857 2896
6495 2 2856 2857 2858 2859
6496 2 2856 2857 2858 2897
6497 2 2896 2857 2858 2859
6498 2 2896 2857 2858 2897
6499 1 2856 2857 2896 2581
6500 1 2858 2857 2896 2581
6501 3 2857 2858 2859 2860
6502 3 2857 2858 2859 2888
6503 3 2897 2858 2859 2860
6504 3 2897 2858 2859 2888
6505 3 2857 2858 2897 2864
6506 3 2857 2858 2897 2898
6507 3 2859 2858 2897 2864
6508 3 2859 2858 2897 2898
6509 3 2858 2859 2888 2863
6510 3 2858 2859 2888 2889
6511 3 2860 2859 2888 2863
6512 3 2860 2859 2888 2889
6513 1 2627 2861 2862 2863
6514 1 2627 2861 2862 2887
6515 2 2861 2862 2863 2864
6516 2 2861 2862 2863 2888
6517 2 2887 2862 2863 2864
6518 2 2887 2862 2863 2888
6519 1 2861 2862 2887 2781
6520 1 2863 2862 2887 2781
6521 3 2862 2863 2864 2865
6522 3 2862 2863 2864 2897
6523 3 2888 2863 2864 2865
6524 3 2888 2863 2864 2897
6525 3 2862 2863 2888 2859
6526 3 2862 2863 2888 2889
6527 3 2864 2863 2888 2859
6528 3 2864 2863 2888 2889
6529 3 2863 2864 2897 2858
6530 3 2863 2864 2897 2898
6531 3 2865 2864 2897 2858
6532 3 2865 2864 2897 2898
6533 1 2633 2866 2867 2868
6534 1 2633 2866 2867 2890
6535 2 2866 2867 2868 2869
6536 2 2866 2867 2868 2891
6537 2 2890 2867 2868 2869
6538 2 2890 2867 2868 2891
6539 1 2866 2867 2890 2775
6540 1 2868 2867 2890 2775
6541 3 2867 2868 2869 2870
6542 3 2867 2868 2869 2894
6543 3 2891 2868 2869 2870
6544 3 2891 2868 2869 2894
6545 3 2867 2868 2891 2854
6546 3 2867 2868 2891 2892
6547 3 2869 2868 2891 2854
6548 3 2869 2868 2891 2892
6549 3 2868 2869 2894 2853
6550 3 2868 2869 2894 2895
6551 3 2870 2869 2894 2853
6552 3 2870 2869 2894 2895
6553 1 2621 2871 2872 2873
6554 1 2621 2871 2872 2884
6555 2 2871 2872 2873 2874
6556 2 2871 2872 2873 2885
6557 2 2884 2872 2873 2874
6558 2 2884 2872 2873 2885
6559 1 2871 2872 2884 2787
6560 1 2873 2872 2884 2787
6561 3 2872 2873 2874 2875
6562 3 2872 2873 2874 2903
6563 3 2885 2873 2874 2875
6564 3 2885 2873 2874 2903
6565 3 2872 2873 2885 2844
6566 3 2872 2873 2885 2886
6567 3 2874 2873 2885 2844
6568 3 2874 2873 2885 2886
6569 3 2873 2874 2903 2843
6570 3 2873 2874 2903 2904
6571 3 2875 2874 2903 2843
6572 3 2875 2874 2903 2904
6573 1 2639 2876 2877 2878
6574 1 2639 2876 2877 2881
6575 2 2876 2877 2878 2879
6576 2 2876 2877 2878 2882
6577 2 2881 2877 2878 2879
6578 2 2881 2877 2878 2882
6579 1 2876 2877 2881 2769
6580 1 2878 2877 2881 2769
6581 3 2877 2878 2879 2880
6582 3 2877 2878 2879 2900
6583 3 2882 2878 2879 2880
6584 3 2882 2878 2879 2900
6585 3 2877 2878 2882 2849
6586 3 2877 2878 2882 2883
6587 3 2879 2878 2882 2849
6588 3 2879 2878 2882 2883
6589 3 2878 2879 2900 2848
6590 3 2878 2879 2900 2901
6591 3 2880 2879 2900 2848
6592 3 2880 2879 2900 2901
6593 1 2582 2905 2921 2915
6594 1 2582 2905 2921 2922
6595 1 2598 2906 2925 2916
6596 1 2598 2906 2925 2926
6597 1 2600 2907 2957 2919
6598 1 2600 2907 2957 2958
6599 1 2601 2908 2961 2920
6600 1 2601 2908 2961 2962
6601 1 2564 2909 2945 2918
6602 1 2564 2909 2945 2946
6603 1 2602 2910 2949 2917
6604 1 2602 2910 2949 2950
6605 1 2603 2911 2929 2914
6606 1 2603 2911 2929 2930
6607 1 2605 2912 2933 2913
6608 1 2605 2912 2933 2934
6609 1 2633 2913 2933 2912
6610 1 2633 2913 2933 2934
6611 1 2621 2914 2929 2911
6612 1 2621 2914 2929 2930
6613 1 2601 2915 2921 2905
6614 1 2601 2915 2921 2922
6615 1 2562 2916 2925 2906
6616 1 2562 2916 2925 2926
6617 1 2590 2917 2949 2910
6618 1 2590 2917 2949 2950
6619 1 2598 2918 2945 2909
6620 1 2598 2918 2945 2946
6621 1 2602 2919 2957 2907
6622 1 2602 2919 2957 2958
6623 1 2583 2920 2961 2908
6624 1 2583 2920 2961 2962
6625 2 2905 2921 2922 2923
6626 2 2905 2921 2922 2941
6627 2 2915 2921 2922 2923
6628 2 2915 2921 2922 2941
6629 3 2921 2922 2923 3097
6630 3 2921 2922 2923 2924
6631 3 2941 2922 2923 3097
6632 3 2941 2922 2923 2924
6633 3 2921 2922 2941 3043
6634 3 2921 2922 2941 2942
6635 3 2923 2922 2941 3043
6636 3 2923 2922 2941 2942
6637 2 2906 2925 2926 2927
6638 2 2906 2925 2926 2943
6639 2 2916 2925 2926 2927
6640 2 2916 2925 2926 2943
6641 3 2925 2926 2927 3094
6642 3 2925 2926 2927 2928
6643 3 2943 2926 2927 3094
6644 3 2943 2926 2927 2928
6645 3 2925 2926 2943 3036
6646 3 2925 2926 2943 2944
6647 3 2927 2926 2943 3036
6648 3 2927 2926 2943 2944
6649 2 2911 2929 2930 2931
6650 2 2911 2929 2930 2939
6651 2 2914 2929 2930 2931
6652 2 2914 2929 2930 2939
6653 3 2929 2930 2931 3127
6654 3 2929 2930 2931 2932
6655 3 2939 2930 2931 3127
6656 3 2939 2930 2931 2932
6657 3 2929 2930 2939 3012
6658 3 2929 2930 2939 2940
6659 3 2931 2930 2939 3012
6660 3 2931 2930 2939 2940
6661 2 2912 2933 2934 2935
6662 2 2912 2933 2934 2937
6663 2 2913 2933 2934 2935
6664 2 2913 2933 2934 2937
6665 3 2933 2934 2935 3124
6666 3 2933 2934 2935 2936
6667 3 2937 2934 2935 3124
6668 3 2937 2934 2935 2936
6669 3 2933 2934 2937 3019
6670 3 2933 2934 2937 2938
6671 3 2935 2934 2937 3019
6672 3 2935 2934 2937 2938
6673 2 2909 2945 2946 2947
6674 2 2909 2945 2946 2955
6675 2 2918 2945 2946 2947
6676 2 2918 2945 2946 2955
6677 3 2945 2946 2947 1849
6678 3 2945 2946 2947 2948
6679 3 2955 2946 2947 1849
6680 3 2955 2946 2947 2948
6681 3 2945 2946 2955 1777
6682 3 2945 2946 2955 2956
6683 3 2947 2946 2955 1777
6684 3 2947 2946 2955 2956
6685 2 2910 2949 2950 2951
6686 2 2910 2949 2950 2953
6687 2 2917 2949 2950 2951
6688 2 2917 2949 2950 2953
6689 3 2949 2950 2951 1846
6690 3 2949 2950 2951 2952
6691 3 2953 2950 2951 1846
6692 3 2953 2950 2951 2952
6693 3 2949 2950 2953 1783
6694 3 2949 2950 2953 2954
6695 3 2951 2950 2953 1783
6696 3 2951 2950 2953 2954
6697 2 2907 2957 2958 2959
6698 2 2907 2957 2958 2965
6699 2 2919 2957 2958 2959
6700 2 2919 2957 2958 2965
6701 3 2957 2958 2959 989
6702 3 2957 2958 2959 2960
6703 3 2965 2958 2959 989
6704 3 2965 2958 2959 2960
6705 3 2957 2958 2965 959
6706 3 2957 2958 2965 2966
6707 3 2959 2958 2965 959
6708 3 2959 2958 2965 2966
6709 2 2908 2961 2962 2963
6710 2 2908 2961 2962 2967
6711 2 2920 2961 2962 2963
6712 2 2920 2961 2962 2967
6713 3 2961 2962 2963 986
6714 3 2961 2962 2963 2964
6715 3 2967 2962 2963 986
6716 3 2967 2962 2963 2964
6717 3 2961 2962 2967 953
6718 3 2961 2962 2967 2968
6719 3 2963 2962 2967 953
6720 3 2963 2962 2967 2968
6721 1 2985 2969 2970 2971
6722 1 2985 2969 2970 2982
6723 2 2969 2970 2971 2972
6724 2 2969 2970 2971 2983
6725 2 2982 2970 2971 2972
6726 2 2982 2970 2971 2983
6727 1 2969 2970 2982 2987
6728 1 2971 2970 2982 2987
6729 3 2970 2971 2972 2973
6730 3 2970 2971 2972 1407
6731 3 2983 2971 2972 2973
6732 3 2983 2971 2972 1407
6733 3 2970 2971 2983 2984
6734 3 2970 2971 2983 1389
6735 3 2972 2971 2983 2984
6736 3 2972 2971 2983 1389
6737 3 2971 2972 1407 1388
6738 3 2971 2972 1407 1408
6739 3 2973 2972 1407 1388
6740 3 2973 2972 1407 1408
6741 1 2986 2974 2975 2976
6742 1 2986 2974 2975 2979
6743 2 2974 2975 2976 2977
6744 2 2974 2975 2976 2980
6745 2 2979 2975 2976 2977
6746 2 2979 2975 2976 2980
6747 1 2974 2975 2979 2988
6748 1 2976 2975 2979 2988
6749 3 2975 2976 2977 2978
6750 3 2975 2976 2977 1404
6751 3 2980 2976 2977 2978
6752 3 2980 2976 2977 1404
6753 3 2975 2976 2980 2981
6754 3 2975 2976 2980 1395
6755 3 2977 2976 2980 2981
6756 3 2977 2976 2980 1395
6757 3 2976 2977 1404 1394
6758 3 2976 2977 1404 1405
6759 3 2978 2977 1404 1394
6760 3 2978 2977 1404 1405
6761 3 2976 2980 1395 1394
6762 3 2976 2980 1395 1396
6763 3 2981 2980 1395 1394
6764 3 2981 2980 1395 1396
6765 3 2971 2983 1389 1388
6766 3 2971 2983 1389 1390
6767 3 2984 2983 1389 1388
6768 3 2984 2983 1389 1390
6769 1 2987 2989 2990 2991
6770 1 2987 2989 2990 2999
6771 2 2989 2990 2991 2992
6772 2 2989 2990 2991 3000
6773 2 2999 2990 2991 2992
6774 2 2999 2990 2991 3000
6775 1 2989 2990 2999 3005
6776 1 2991 2990 2999 3005
6777 3 2990 2991 2992 2993
6778 3 2990 2991 2992 2267
6779 3 3000 2991 2992 2993
6780 3 3000 2991 2992 2267
6781 3 2990 2991 3000 3001
6782 3 2990 2991 3000 2219
6783 3 2992 2991 3000 3001
6784 3 2992 2991 3000 2219
6785 3 2991 2992 2267 2218
6786 3 2991 2992 2267 2268
6787 3 2993 2992 2267 2218
6788 3 2993 2992 2267 2268
6789 1 3007 2994 2995 2996
6790 1 3007 2994 2995 3002
6791 2 2994 2995 2996 2997
6792 2 2994 2995 2996 3003
6793 2 3002 2995 2996 2997
6794 2 3002 2995 2996 3003
6795 1 2994 2995 3002 3006
6796 1 2996 2995 3002 3006
6797 3 2995 2996 2997 2998
6798 3 2995 2996 2997 2264
6799 3 3003 2996 2997 2998
6800 3 3003 2996 2997 2264
6801 3 2995 2996 3003 3004
6802 3 2995 2996 3003 2213
6803 3 2997 2996 3003 3004
6804 3 2997 2996 3003 2213
6805 3 2996 2997 2264 2212
6806 3 2996 2997 2264 2265
6807 3 2998 2997 2264 2212
6808 3 2998 2997 2264 2265
6809 3 2991 3000 2219 2218
6810 3 2991 3000 2219 2220
6811 3 3001 3000 2219 2218
6812 3 3001 3000 2219 2220
6813 3 2996 3003 2213 2212
6814 3 2996 3003 2213 2214
6815 3 3004 3003 2213 2212
6816 3 3004 3003 2213 2214
6817 1 3005 3009 3010 3011
6818 1 3005 3009 3010 3126
6819 2 3009 3010 3011 3012
6820 2 3009 3010 3011 3127
6821 2 3126 3010 3011 3012
6822 2 3126 3010 3011 3127
6823 1 3009 3010 3126 2985
6824 1 3011 3010 3126 2985
6825 3 3010 3011 3012 3013
6826 3 3010 3011 3012 2939
6827 3 3127 3011 3012 3013
6828 3 3127 3011 3012 2939
6829 3 3010 3011 3127 3128
6830 3 3010 3011 3127 2931
6831 3 3012 3011 3127 3128
6832 3 3012 3011 3127 2931
6833 3 3011 3012 2939 2930
6834 3 3011 3012 2939 2940
6835 3 3013 3012 2939 2930
6836 3 3013 3012 2939 2940
6837 1 3014 3016 3017 3018
6838 1 3014 3016 3017 3123
6839 2 3016 3017 3018 3019
6840 2 3016 3017 3018 3124
6841 2 3123 3017 3018 3019
6842 2 3123 3017 3018 3124
6843 1 3016 3017 3123 3024
6844 1 3018 3017 3123 3024
6845 3 3017 3018 3019 3020
6846 3 3017 3018 3019 2937
6847 3 3124 3018 3019 3020
6848 3 3124 3018 3019 2937
6849 3 3017 3018 3124 3125
6850 3 3017 3018 3124 2935
6851 3 3019 3018 3124 3125
6852 3 3019 3018 3124 2935
6853 3 3018 3019 2937 2934
6854 3 3018 3019 2937 2938
6855 3 3020 3019 2937 2934
6856 3 3020 3019 2937 2938
6857 1 3031 3033 3034 3035
6858 1 3031 3033 3034 3093
6859 2 3033 3034 3035 3036
6860 2 3033 3034 3035 3094
6861 2 3093 3034 3035 3036
6862 2 3093 3034 3035 3094
6863 1 3033 3034 3093 3063
6864 1 3035 3034 3093 3063
6865 3 3034 3035 3036 3037
6866 3 3034 3035 3036 2943
6867 3 3094 3035 3036 3037
6868 3 3094 3035 3036 2943
6869 3 3034 3035 3094 3095
6870 3 3034 3035 3094 2927
6871 3 3036 3035 3094 3095
6872 3 3036 3035 3094 2927
6873 3 3035 3036 2943 2926
6874 3 3035 3036 2943 2944
6875 3 3037 3036 2943 2926
6876 3 3037 3036 2943 2944
6877 1 3038 3040 3041 3042
6878 1 3038 3040 3041 3096
6879 2 3040 3041 3042 3043
6880 2 3040 3041 3042 3097
6881 2 3096 3041 3042 3043
6882 2 3096 3041 3042 3097
6883 1 3040 3041 3096 3051
6884 1 3042 3041 3096 3051
6885 3 3041 3042 3043 3044
6886 3 3041 3042 3043 2941
6887 3 3097 3042 3043 3044
6888 3 3097 3042 3043 2941
6889 3 3041 3042 3097 3098
6890 3 3041 3042 3097 2923
6891 3 3043 3042 3097 3098
6892 3 3043 3042 3097 2923
6893 3 3042 3043 2941 2922
6894 3 3042 3043 2941 2942
6895 3 3044 3043 2941 2922
6896 3 3044 3043 2941 2942
6897 1 3045 3046 3047 3048
6898 1 3045 3046 3047 3120
6899 2 3046 3047 3048 3049
6900 2 3046 3047 3048 3121
6901 2 3120 3047 3048 3049
6902 2 3120 3047 3048 3121
6903 1 3046 3047 3120 3069
6904 1 3048 3047 3120 3069
6905 3 3047 3048 3049 3050
6906 3 3047 3048 3049 2531
6907 3 3121 3048 3049 3050
6908 3 3121 3048 3049 2531
6909 3 3047 3048 3121 3122
6910 3 3047 3048 3121 2523
6911 3 3049 3048 3121 3122
6912 3 3049 3048 3121 2523
6913 3 3048 3049 2531 2522
6914 3 3048 3049 2531 2532
6915 3 3050 3049 2531 2522
6916 3 3050 3049 2531 2532
6917 1 3051 3052 3053 3054
6918 1 3051 3052 3053 3117
6919 2 3052 3053 3054 3055
6920 2 3052 3053 3054 3118
6921 2 3117 3053 3054 3055
6922 2 3117 3053 3054 3118
6923 1 3052 3053 3117 3081
6924 1 3054 3053 3117 3081
6925 3 3053 3054 3055 3056
6926 3 3053 3054 3055 2529
6927 3 3118 3054 3055 3056
6928 3 3118 3054 3055 2529
6929 3 3053 3054 3118 3119
6930 3 3053 3054 3118 2527
6931 3 3055 3054 3118 3119
6932 3 3055 3054 3118 2527
6933 3 3054 3055 2529 2526
6934 3 3054 3055 2529 2530
6935 3 3056 3055 2529 2526
6936 3 3056 3055 2529 2530
6937 1 3057 3058 3059 3060
6938 1 3057 3058 3059 3111
6939 2 3058 3059 3060 3061
6940 2 3058 3059 3060 3112
6941 2 3111 3059 3060 3061
6942 2 3111 3059 3060 3112
6943 1 3058 3059 3111 3087
6944 1 3060 3059 3111 3087
6945 3 3059 3060 3061 2155
6946 3 3059 3060 3061 3062
6947 3 3112 3060 3061 2155
6948 3 3112 3060 3061 3062
6949 3 3059 3060 3112 2149
6950 3 3059 3060 3112 3113
6951 3 3061 3060 3112 2149
6952 3 3061 3060 3112 3113
6953 1 3063 3064 3065 3066
6954 1 3063 3064 3065 3114
6955 2 3064 3065 3066 3067
6956 2 3064 3065 3066 3115
6957 2 3114 3065 3066 3067
6958 2 3114 3065 3066 3115
6959 1 3064 3065 3114 3075
6960 1 3066 3065 3114 3075
6961 3 3065 3066 3067 2152
6962 3 3065 3066 3067 3068
6963 3 3115 3066 3067 2152
6964 3 3115 3066 3067 3068
6965 3 3065 3066 3115 2144
6966 3 3065 3066 3115 3116
6967 3 3067 3066 3115 2144
6968 3 3067 3066 3115 3116
6969 1 3069 3070 3071 3072
6970 1 3069 3070 3071 3105
6971 2 3070 3071 3072 3073
6972 2 3070 3071 3072 3106
6973 2 3105 3071 3072 3073
6974 2 3105 3071 3072 3106
6975 1 3070 3071 3105 3027
6976 1 3072 3071 3105 3027
6977 3 3071 3072 3073 3074
6978 3 3071 3072 3073 1695
6979 3 3106 3072 3073 3074
6980 3 3106 3072 3073 1695
6981 3 3071 3072 3106 3107
6982 3 3071 3072 3106 1691
6983 3 3073 3072 3106 3107
6984 3 3073 3072 3106 1691
6985 3 3072 3073 1695 1690
6986 3 3072 3073 1695 1696
6987 3 3074 3073 1695 1690
6988 3 3074 3073 1695 1696
6989 1 3075 3076 3077 3078
6990 1 3075 3076 3077 3108
6991 2 3076 3077 3078 3079
6992 2 3076 3077 3078 3109
6993 2 3108 3077 3078 3079
6994 2 3108 3077 3078 3109
6995 1 3076 3077 3108 3031
6996 1 3078 3077 3108 3031
6997 3 3077 3078 3079 3080
6998 3 3077 3078 3079 1693
6999 3 3109 3078 3079 3080
7000 3 3109 3078 3079 1693
7001 3 3077 3078 3109 3110
7002 3 3077 3078 3109 1687
7003 3 3079 3078 3109 3110
7004 3 3079 3078 3109 1687
7005 3 3078 3079 1693 1686
7006 3 3078 3079 1693 1694
7007 3 3080 3079 1693 1686
7008 3 3080 3079 1693 1694
7009 1 3081 3082 3083 3084
7010 1 3081 3082 3083 3102
7011 2 3082 3083 3084 3085
7012 2 3082 3083 3084 3103
7013 2 3102 3083 3084 3085
7014 2 3102 3083 3084 3103
7015 1 3082 3083 3102 3038
7016 1 3084 3083 3102 3038
7017 3 3083 3084 3085 1287
7018 3 3083 3084 3085 3086
7019 3 3103 3084 3085 1287
7020 3 3103 3084 3085 3086
7021 3 3083 3084 3103 1276
7022 3 3083 3084 3103 3104
7023 3 3085 3084 3103 1276
7024 3 3085 3084 3103 3104
7025 1 3087 3088 3089 3090
7026 1 3087 3088 3089 3099
7027 2 3088 3089 3090 3091
7028 2 3088 3089 3090 3100
7029 2 3099 3089 3090 3091
7030 2 3099 3089 3090 3100
7031 1 3088 3089 3099 3029
7032 1 3090 3089 3099 3029
7033 3 3089 3090 3091 1284
7034 3 3089 3090 3091 3092
7035 3 3100 3090 3091 1284
7036 3 3100 3090 3091 3092
7037 3 3089 3090 3100 1281
7038 3 3089 3090 3100 3101
7039 3 3091 3090 3100 1281
7040 3 3091 3090 3100 3101
7041 3 3035 3094 2927 2926
7042 3 3035 3094 2927 2928
7043 3 3095 3094 2927 2926
7044 3 3095 3094 2927 2928
7045 3 3042 3097 2923 2922
7046 3 3042 3097 2923 2924
7047 3 3098 3097 2923 2922
7048 3 3098 3097 2923 2924
7049 3 3072 3106 1691 1690
7050 3 3072 3106 1691 1692
7051 3 3107 3106 1691 1690
7052 3 3107 3106 1691 1692
7053 3 3078 3109 1687 1686
7054 3 3078 3109 1687 1688
7055 3 3110 3109 1687 1686
7056 3 3110 3109 1687 1688
7057 3 3054 3118 2527 2526
7058 3 3054 3118 2527 2528
7059 3 3119 3118 2527 2526
7060 3 3119 3118 2527 2528
7061 3 3048 3121 2523 2522
7062 3 3048 3121 2523 2524
7063 3 3122 3121 2523 2522
7064 3 3122 3121 2523 2524
7065 3 3018 3124 2935 2934
7066 3 3018 3124 2935 2936
7067 3 3125 3124 2935 2934
7068 3 3125 3124 2935 2936
7069 3 3011 3127 2931 2930
7070 3 3011 3127 2931 2932
7071 3 3128 3127 2931 2930
7072 3 3128 3127 2931 2932
7073 1 3129 3130 3131 3132
7074 1 3129 3130 3131 3244
7075 2 3130 3131 3132 3133
7076 2 3130 3131 3132 3245
7077 2 3244 3131 3132 3133
7078 2 3244 3131 3132 3245
7079 1 3130 3131 3244 2988
7080 1 3132 3131 3244 2988
7081 3 3131 3132 3133 3134
7082 3 3131 3132 3133 3221
7083 3 3245 3132 3133 3134
7084 3 3245 3132 3133 3221
7085 3 3131 3132 3245 3176
7086 3 3131 3132 3245 3246
7087 3 3133 3132 3245 3176
7088 3 3133 3132 3245 3246
7089 3 3132 3133 3221 3175
7090 3 3132 3133 3221 3222
7091 3 3134 3133 3221 3175
7092 3 3134 3133 3221 3222
7093 1 3135 3136 3137 3138
7094 1 3135 3136 3137 3241
7095 2 3136 3137 3138 3139
7096 2 3136 3137 3138 3242
7097 2 3241 3137 3138 3139
7098 2 3241 3137 3138 3242
7099 1 3136 3137 3241 3007
7100 1 3138 3137 3241 3007
7101 3 3137 3138 3139 3140
7102 3 3137 3138 3139 3218
7103 3 3242 3138 3139 3140
7104 3 3242 3138 3139 3218
7105 3 3137 3138 3242 3181
7106 3 3137 3138 3242 3243
7107 3 3139 3138 3242 3181
7108 3 3139 3138 3242 3243
7109 3 3138 3139 3218 3180
7110 3 3138 3139 3218 3219
7111 3 3140 3139 3218 3180
7112 3 3140 3139 3218 3219
7113 1 3141 3142 3143 3144
7114 1 3141 3142 3143 3247
7115 2 3142 3143 3144 3145
7116 2 3142 3143 3144 3248
7117 2 3247 3143 3144 3145
7118 2 3247 3143 3144 3248
7119 1 3142 3143 3247 3026
7120 1 3144 3143 3247 3026
7121 3 3143 3144 3145 3146
7122 3 3143 3144 3145 3227
7123 3 3248 3144 3145 3146
7124 3 3248 3144 3145 3227
7125 3 3143 3144 3248 3191
7126 3 3143 3144 3248 3249
7127 3 3145 3144 3248 3191
7128 3 3145 3144 3248 3249
7129 3 3144 3145 3227 3190
7130 3 3144 3145 3227 3228
7131 3 3146 3145 3227 3190
7132 3 3146 3145 3227 3228
7133 1 3147 3148 3149 3150
7134 1 3147 3148 3149 3250
7135 2 3148 3149 3150 3151
7136 2 3148 3149 3150 3251
7137 2 3250 3149 3150 3151
7138 2 3250 3149 3150 3251
7139 1 3148 3149 3250 2987
7140 1 3150 3149 3250 2987
7141 3 3149 3150 3151 3152
7142 3 3149 3150 3151 3224
7143 3 3251 3150 3151 3152
7144 3 3251 3150 3151 3224
7145 3 3149 3150 3251 3186
7146 3 3149 3150 3251 3252
7147 3 3151 3150 3251 3186
7148 3 3151 3150 3251 3252
7149 3 3150 3151 3224 3185
7150 3 3150 3151 3224 3225
7151 3 3152 3151 3224 3185
7152 3 3152 3151 3224 3225
7153 1 2986 3153 3154 3155
7154 1 2986 3153 3154 3259
7155 2 3153 3154 3155 3156
7156 2 3153 3154 3155 3260
7157 2 3259 3154 3155 3156
7158 2 3259 3154 3155 3260
7159 1 3153 3154 3259 3129
7160 1 3155 3154 3259 3129
7161 3 3154 3155 3156 3157
7162 3 3154 3155 3156 3233
7163 3 3260 3155 3156 3157
7164 3 3260 3155 3156 3233
7165 3 3154 3155 3260 3215
7166 3 3154 3155 3260 3261
7167 3 3156 3155 3260 3215
7168 3 3156 3155 3260 3261
7169 3 3155 3156 3233 3214
7170 3 3155 3156 3233 3234
7171 3 3157 3156 3233 3214
7172 3 3157 3156 3233 3234
7173 1 3024 3158 3159 3160
7174 1 3024 3158 3159 3262
7175 2 3158 3159 3160 3161
7176 2 3158 3159 3160 3263
7177 2 3262 3159 3160 3161
7178 2 3262 3159 3160 3263
7179 1 3158 3159 3262 3141
7180 1 3160 3159 3262 3141
7181 3 3159 3160 3161 3162
7182 3 3159 3160 3161 3230
7183 3 3263 3160 3161 3162
7184 3 3263 3160 3161 3230
7185 3 3159 3160 3263 3209
7186 3 3159 3160 3263 3264
7187 3 3161 3160 3263 3209
7188 3 3161 3160 3263 3264
7189 3 3160 3161 3230 3208
7190 3 3160 3161 3230 3231
7191 3 3162 3161 3230 3208
7192 3 3162 3161 3230 3231
7193 1 2985 3163 3164 3165
7194 1 2985 3163 3164 3256
7195 2 3163 3164 3165 3166
7196 2 3163 3164 3165 3257
7197 2 3256 3164 3165 3166
7198 2 3256 3164 3165 3257
7199 1 3163 3164 3256 3147
7200 1 3165 3164 3256 3147
7201 3 3164 3165 3166 3167
7202 3 3164 3165 3166 3239
7203 3 3257 3165 3166 3167
7204 3 3257 3165 3166 3239
7205 3 3164 3165 3257 3197
7206 3 3164 3165 3257 3258
7207 3 3166 3165 3257 3197
7208 3 3166 3165 3257 3258
7209 3 3165 3166 3239 3196
7210 3 3165 3166 3239 3240
7211 3 3167 3166 3239 3196
7212 3 3167 3166 3239 3240
7213 1 3025 3168 3169 3170
7214 1 3025 3168 3169 3253
7215 2 3168 3169 3170 3171
7216 2 3168 3169 3170 3254
7217 2 3253 3169 3170 3171
7218 2 3253 3169 3170 3254
7219 1 3168 3169 3253 3135
7220 1 3170 3169 3253 3135
7221 3 3169 3170 3171 3172
7222 3 3169 3170 3171 3236
7223 3 3254 3170 3171 3172
7224 3 3254 3170 3171 3236
7225 3 3169 3170 3254 3203
7226 3 3169 3170 3254 3255
7227 3 3171 3170 3254 3203
7228 3 3171 3170 3254 3255
7229 3 3170 3171 3236 3202
7230 3 3170 3171 3236 3237
7231 3 3172 3171 3236 3202
7232 3 3172 3171 3236 3237
7233 1 3075 3173 3174 3175
7234 1 3075 3173 3174 3220
7235 2 3173 3174 3175 3176
7236 2 3173 3174 3175 3221
7237 2 3220 3174 3175 3176
7238 2 3220 3174 3175 3221
7239 1 3173 3174 3220 3193
7240 1 3175 3174 3220 3193
7241 3 3174 3175 3176 3177
7242 3 3174 3175 3176 3245
7243 3 3221 3175 3176 3177
7244 3 3221 3175 3176 3245
7245 3 3174 3175 3221 3133
7246 3 3174 3175 3221 3222
7247 3 3176 3175 3221 3133
7248 3 3176 3175 3221 3222
7249 3 3175 3176 3245 3132
7250 3 3175 3176 3245 3246
7251 3 3177 3176 3245 3132
7252 3 3177 3176 3245 3246
7253 1 3081 3178 3179 3180
7254 1 3081 3178 3179 3217
7255 2 3178 3179 3180 3181
7256 2 3178 3179 3180 3218
7257 2 3217 3179 3180 3181
7258 2 3217 3179 3180 3218
7259 1 3178 3179 3217 3205
7260 1 3180 3179 3217 3205
7261 3 3179 3180 3181 3182
7262 3 3179 3180 3181 3242
7263 3 3218 3180 3181 3182
7264 3 3218 3180 3181 3242
7265 3 3179 3180 3218 3139
7266 3 3179 3180 3218 3219
7267 3 3181 3180 3218 3139
7268 3 3181 3180 3218 3219
7269 3 3180 3181 3242 3138
7270 3 3180 3181 3242 3243
7271 3 3182 3181 3242 3138
7272 3 3182 3181 3242 3243
7273 1 3069 3183 3184 3185
7274 1 3069 3183 3184 3223
7275 2 3183 3184 3185 3186
7276 2 3183 3184 3185 3224
7277 2 3223 3184 3185 3186
7278 2 3223 3184 3185 3224
7279 1 3183 3184 3223 3211
7280 1 3185 3184 3223 3211
7281 3 3184 3185 3186 3187
7282 3 3184 3185 3186 3251
7283 3 3224 3185 3186 3187
7284 3 3224 3185 3186 3251
7285 3 3184 3185 3224 3151
7286 3 3184 3185 3224 3225
7287 3 3186 3185 3224 3151
7288 3 3186 3185 3224 3225
7289 3 3185 3186 3251 3150
7290 3 3185 3186 3251 3252
7291 3 3187 3186 3251 3150
7292 3 3187 3186 3251 3252
7293 1 3087 3188 3189 3190
7294 1 3087 3188 3189 3226
7295 2 3188 3189 3190 3191
7296 2 3188 3189 3190 3227
7297 2 3226 3189 3190 3191
7298 2 3226 3189 3190 3227
7299 1 3188 3189 3226 3199
7300 1 3190 3189 3226 3199
7301 3 3189 3190 3191 3192
7302 3 3189 3190 3191 3248
7303 3 3227 3190 3191 3192
7304 3 3227 3190 3191 3248
7305 3 3189 3190 3227 3145
7306 3 3189 3190 3227 3228
7307 3 3191 3190 3227 3145
7308 3 3191 3190 3227 3228
7309 3 3190 3191 3248 3144
7310 3 3190 3191 3248 3249
7311 3 3192 3191 3248 3144
7312 3 3192 3191 3248 3249
7313 1 3193 3194 3195 3196
7314 1 3193 3194 3195 3238
7315 2 3194 3195 3196 3197
7316 2 3194 3195 3196 3239
7317 2 3238 3195 3196 3197
7318 2 3238 3195 3196 3239
7319 1 3194 3195 3238 3031
7320 1 3196 3195 3238 3031
7321 3 3195 3196 3197 3198
7322 3 3195 3196 3197 3257
7323 3 3239 3196 3197 3198
7324 3 3239 3196 3197 3257
7325 3 3195 3196 3239 3166
7326 3 3195 3196 3239 3240
7327 3 3197 3196 3239 3166
7328 3 3197 3196 3239 3240
7329 3 3196 3197 3257 3165
7330 3 3196 3197 3257 3258
7331 3 3198 3197 3257 3165
7332 3 3198 3197 3257 3258
7333 1 3199 3200 3201 3202
7334 1 3199 3200 3201 3235
7335 2 3200 3201 3202 3203
7336 2 3200 3201 3202 3236
7337 2 3235 3201 3202 3203
7338 2 3235 3201 3202 3236
7339 1 3200 3201 3235 3029
7340 1 3202 3201 3235 3029
7341 3 3201 3202 3203 3204
7342 3 3201 3202 3203 3254
7343 3 3236 3202 3203 3204
7344 3 3236 3202 3203 3254
7345 3 3201 3202 3236 3171
7346 3 3201 3202 3236 3237
7347 3 3203 3202 3236 3171
7348 3 3203 3202 3236 3237
7349 3 3202 3203 3254 3170
7350 3 3202 3203 3254 3255
7351 3 3204 3203 3254 3170
7352 3 3204 3203 3254 3255
7353 1 3205 3206 3207 3208
7354 1 3205 3206 3207 3229
7355 2 3206 3207 3208 3209
7356 2 3206 3207 3208 3230
7357 2 3229 3207 3208 3209
7358 2 3229 3207 3208 3230
7359 1 3206 3207 3229 3038
7360 1 3208 3207 3229 3038
7361 3 3207 3208 3209 3210
7362 3 3207 3208 3209 3263
7363 3 3230 3208 3209 3210
7364 3 3230 3208 3209 3263
7365 3 3207 3208 3230 3161
7366 3 3207 3208 3230 3231
7367 3 3209 3208 3230 3161
7368 3 3209 3208 3230 3231
7369 3 3208 3209 3263 3160
7370 3 3208 3209 3263 3264
7371 3 3210 3209 3263 3160
7372 3 3210 3209 3263 3264
7373 1 3211 3212 3213 3214
7374 1 3211 3212 3213 3232
7375 2 3212 3213 3214 3215
7376 2 3212 3213 3214 3233
7377 2 3232 3213 3214 3215
7378 2 3232 3213 3214 3233
7379 1 3212 3213 3232 3027
7380 1 3214 3213 3232 3027
7381 3 3213 3214 3215 3216
7382 3 3213 3214 3215 3260
7383 3 3233 3214 3215 3216
7384 3 3233 3214 3215 3260
7385 3 3213 3214 3233 3156
7386 3 3213 3214 3233 3234
7387 3 3215 3214 3233 3156
7388 3 3215 3214 3233 3234
7389 3 3214 3215 3260 3155
7390 3 3214 3215 3260 3261
7391 3 3216 3215 3260 3155
7392 3 3216 3215 3260 3261
7393 1 3135 3265 3266 3267
7394 1 3135 3265 3266 3326
7395 2 3265 3266 3267 3268
7396 2 3265 3266 3267 3327
7397 2 3326 3266 3267 3268
7398 2 3326 3266 3267 3327
7399 1 3265 3266 3326 3006
7400 1 3267 3266 3326 3006
7401 3 3266 3267 3268 3269
7402 3 3266 3267 3268 3309
7403 3 3327 3267 3268 3269
7404 3 3327 3267 3268 3309
7405 3 3266 3267 3327 3298
7406 3 3266 3267 3327 3328
7407 3 3268 3267 3327 3298
7408 3 3268 3267 3327 3328
7409 3 3267 3268 3309 3297
7410 3 3267 3268 3309 3310
7411 3 3269 3268 3309 3297
7412 3 3269 3268 3309 3310
7413 1 3141 3270 3271 3272
7414 1 3141 3270 3271 3323
7415 2 3270 3271 3272 3273
7416 2 3270 3271 3272 3324
7417 2 3323 3271 3272 3273
7418 2 3323 3271 3272 3324
7419 1 3270 3271 3323 3014
7420 1 3272 3271 3323 3014
7421 3 3271 3272 3273 3274
7422 3 3271 3272 3273 3306
7423 3 3324 3272 3273 3274
7424 3 3324 3272 3273 3306
7425 3 3271 3272 3324 3303
7426 3 3271 3272 3324 3325
7427 3 3273 3272 3324 3303
7428 3 3273 3272 3324 3325
7429 3 3272 3273 3306 3302
7430 3 3272 3273 3306 3307
7431 3 3274 3273 3306 3302
7432 3 3274 3273 3306 3307
7433 1 3129 3275 3276 3277
7434 1 3129 3275 3276 3317
7435 2 3275 3276 3277 3278
7436 2 3275 3276 3277 3318
7437 2 3317 3276 3277 3278
7438 2 3317 3276 3277 3318
7439 1 3275 3276 3317 3022
7440 1 3277 3276 3317 3022
7441 3 3276 3277 3278 3279
7442 3 3276 3277 3278 3315
7443 3 3318 3277 3278 3279
7444 3 3318 3277 3278 3315
7445 3 3276 3277 3318 3293
7446 3 3276 3277 3318 3319
7447 3 3278 3277 3318 3293
7448 3 3278 3277 3318 3319
7449 3 3277 3278 3315 3292
7450 3 3277 3278 3315 3316
7451 3 3279 3278 3315 3292
7452 3 3279 3278 3315 3316
7453 1 3147 3280 3281 3282
7454 1 3147 3280 3281 3320
7455 2 3280 3281 3282 3283
7456 2 3280 3281 3282 3321
7457 2 3320 3281 3282 3283
7458 2 3320 3281 3282 3321
7459 1 3280 3281 3320 3005
7460 1 3282 3281 3320 3005
7461 3 3281 3282 3283 3284
7462 3 3281 3282 3283 3312
7463 3 3321 3282 3283 3284
7464 3 3321 3282 3283 3312
7465 3 3281 3282 3321 3288
7466 3 3281 3282 3321 3322
7467 3 3283 3282 3321 3288
7468 3 3283 3282 3321 3322
7469 3 3282 3283 3312 3287
7470 3 3282 3283 3312 3313
7471 3 3284 3283 3312 3287
7472 3 3284 3283 3312 3313
7473 1 3051 3285 3286 3287
7474 1 3051 3285 3286 3311
7475 2 3285 3286 3287 3288
7476 2 3285 3286 3287 3312
7477 2 3311 3286 3287 3288
7478 2 3311 3286 3287 3312
7479 1 3285 3286 3311 3205
7480 1 3287 3286 3311 3205
7481 3 3286 3287 3288 3289
7482 3 3286 3287 3288 3321
7483 3 3312 3287 3288 3289
7484 3 3312 3287 3288 3321
7485 3 3286 3287 3312 3283
7486 3 3286 3287 3312 3313
7487 3 3288 3287 3312 3283
7488 3 3288 3287 3312 3313
7489 3 3287 3288 3321 3282
7490 3 3287 3288 3321 3322
7491 3 3289 3288 3321 3282
7492 3 3289 3288 3321 3322
7493 1 3057 3290 3291 3292
7494 1 3057 3290 3291 3314
7495 2 3290 3291 3292 3293
7496 2 3290 3291 3292 3315
7497 2 3314 3291 3292 3293
7498 2 3314 3291 3292 3315
7499 1 3290 3291 3314 3199
7500 1 3292 3291 3314 3199
7501 3 3291 3292 3293 3294
7502 3 3291 3292 3293 3318
7503 3 3315 3292 3293 3294
7504 3 3315 3292 3293 3318
7505 3 3291 3292 3315 3278
7506 3 3291 3292 3315 3316
7507 3 3293 3292 3315 3278
7508 3 3293 3292 3315 3316
7509 3 3292 3293 3318 3277
7510 3 3292 3293 3318 3319
7511 3 3294 3293 3318 3277
7512 3 3294 3293 3318 3319
7513 1 3045 3295 3296 3297
7514 1 3045 3295 3296 3308
7515 2 3295 3296 3297 3298
7516 2 3295 3296 3297 3309
7517 2 3308 3296 3297 3298
7518 2 3308 3296 3297 3309
7519 1 3295 3296 3308 3211
7520 1 3297 3296 3308 3211
7521 3 3296 3297 3298 3299
7522 3 3296 3297 3298 3327
7523 3 3309 3297 3298 3299
7524 3 3309 3297 3298 3327
7525 3 3296 3297 3309 3268
7526 3 3296 3297 3309 3310
7527 3 3298 3297 3309 3268
7528 3 3298 3297 3309 3310
7529 3 3297 3298 3327 3267
7530 3 3297 3298 3327 3328
7531 3 3299 3298 3327 3267
7532 3 3299 3298 3327 3328
7533 1 3063 3300 3301 3302
7534 1 3063 3300 3301 3305
7535 2 3300 3301 3302 3303
7536 2 3300 3301 3302 3306
7537 2 3305 3301 3302 3303
7538 2 3305 3301 3302 3306
7539 1 3300 3301 3305 3193
7540 1 3302 3301 3305 3193
7541 3 3301 3302 3303 3304
7542 3 3301 3302 3303 3324
7543 3 3306 3302 3303 3304
7544 3 3306 3302 3303 3324
7545 3 3301 3302 3306 3273
7546 3 3301 3302 3306 3307
7547 3 3303 3302 3306 3273
7548 3 3303 3302 3306 3307
7549 3 3302 3303 3324 3272
7550 3 3302 3303 3324 3325
7551 3 3304 3303 3324 3272
7552 3 3304 3303 3324 3325
7553 1 3006 3329 3345 3339
7554 1 3006 3329 3345 3346
7555 1 3022 3330 3349 3340
7556 1 3022 3330 3349 3350
7557 1 3024 3331 3381 3343
7558 1 3024 3331 3381 3382
7559 1 3025 3332 3385 3344
7560 1 3025 3332 3385 3386
7561 1 2988 3333 3369 3342
7562 1 2988 3333 3369 3370
7563 1 3026 3334 3373 3341
7564 1 3026 3334 3373 3374
7565 1 3027 3335 3353 3338
7566 1 3027 3335 3353 3354
7567 1 3029 3336 3357 3337
7568 1 3029 3336 3357 3358
7569 1 3057 3337 3357 3336
7570 1 3057 3337 3357 3358
7571 1 3045 3338 3353 3335
7572 1 3045 3338 3353 3354
7573 1 3025 3339 3345 3329
7574 1 3025 3339 3345 3346
7575 1 2986 3340 3349 3330
7576 1 2986 3340 3349 3350
7577 1 3014 3341 3373 3334
7578 1 3014 3341 3373 3374
7579 1 3022 3342 3369 3333
7580 1 3022 3342 3369 3370
7581 1 3026 3343 3381 3331
7582 1 3026 3343 3381 3382
7583 1 3007 3344 3385 3332
7584 1 3007 3344 3385 3386
7585 2 3329 3345 3346 3347
7586 2 3329 3345 3346 3365
7587 2 3339 3345 3346 3347
7588 2 3339 3345 3346 3365
7589 3 3345 3346 3347 2673
7590 3 3345 3346 3347 3348
7591 3 3365 3346 3347 2673
7592 3 3365 3346 3347 3348
7593 3 3345 3346 3365 2619
7594 3 3345 3346 3365 3366
7595 3 3347 3346 3365 2619
7596 3 3347 3346 3365 3366
7597 2 3330 3349 3350 3351
7598 2 3330 3349 3350 3367
7599 2 3340 3349 3350 3351
7600 2 3340 3349 3350 3367
7601 3 3349 3350 3351 2670
7602 3 3349 3350 3351 3352
7603 3 3367 3350 3351 2670
7604 3 3367 3350 3351 3352
7605 3 3349 3350 3367 2612
7606 3 3349 3350 3367 3368
7607 3 3351 3350 3367 2612
7608 3 3351 3350 3367 3368
7609 2 3335 3353 3354 3355
7610 2 3335 3353 3354 3363
7611 2 3338 3353 3354 3355
7612 2 3338 3353 3354 3363
7613 3 3353 3354 3355 2703
7614 3 3353 3354 3355 3356
7615 3 3363 3354 3355 2703
7616 3 3363 3354 3355 3356
7617 3 3353 3354 3363 2588
7618 3 3353 3354 3363 3364
7619 3 3355 3354 3363 2588
7620 3 3355 3354 3363 3364
7621 2 3336 3357 3358 3359
7622 2 3336 3357 3358 3361
7623 2 3337 3357 3358 3359
7624 2 3337 3357 3358 3361
7625 3 3357 3358 3359 2700
7626 3 3357 3358 3359 3360
7627 3 3361 3358 3359 2700
7628 3 3361 3358 3359 3360
7629 3 3357 3358 3361 2595
7630 3 3357 3358 3361 3362
7631 3 3359 3358 3361 2595
7632 3 3359 3358 3361 3362
7633 2 3333 3369 3370 3371
7634 2 3333 3369 3370 3379
7635 2 3342 3369 3370 3371
7636 2 3342 3369 3370 3379
7637 3 3369 3370 3371 2273
7638 3 3369 3370 3371 3372
7639 3 3379 3370 3371 2273
7640 3 3379 3370 3371 3372
7641 3 3369 3370 3379 2201
7642 3 3369 3370 3379 3380
7643 3 3371 3370 3379 2201
7644 3 3371 3370 3379 3380
7645 2 3334 3373 3374 3375
7646 2 3334 3373 3374 3377
7647 2 3341 3373 3374 3375
7648 2 3341 3373 3374 3377
7649 3 3373 3374 3375 2270
7650 3 3373 3374 3375 3376
7651 3 3377 3374 3375 2270
7652 3 3377 3374 3375 3376
7653 3 3373 3374 3377 2207
7654 3 3373 3374 3377 3378
7655 3 3375 3374 3377 2207
7656 3 3375 3374 3377 3378
7657 2 3331 3381 3382 3383
7658 2 3331 3381 3382 3389
7659 2 3343 3381 3382 3383
7660 2 3343 3381 3382 3389
7661 3 3381 3382 3383 1413
7662 3 3381 3382 3383 3384
7663 3 3389 3382 3383 1413
7664 3 3389 3382 3383 3384
7665 3 3381 3382 3389 1383
7666 3 3381 3382 3389 3390
7667 3 3383 3382 3389 1383
7668 3 3383 3382 3389 3390
7669 2 3332 3385 3386 3387
7670 2 3332 3385 3386 3391
7671 2 3344 3385 3386 3387
7672 2 3344 3385 3386 3391
7673 3 3385 3386 3387 1410
7674 3 3385 3386 3387 3388
7675 3 3391 3386 3387 1410
7676 3 3391 3386 3387 3388
7677 3 3385 3386 3391 1377
7678 3 3385 3386 3391 3392
7679 3 3387 3386 3391 1377
7680 3 3387 3386 3391 3392

Impropers

1 1 2 1 3 14
2 1 3 2 4 15
3 1 2 3 1 14
4 1 4 3 5 1831
5 1 15 3 16 1813
6 1 3 4 2 15
7 1 1831 4 1812 1832
8 1 4 5 3 1831
9 1 7 6 8 11
10 1 8 7 9 12
11 1 7 8 6 11
12 1 9 8 10 1828
13 1 12 8 13 1819
14 1 8 9 7 12
15 1 1828 9 1818 1829
16 1 9 10 8 1828
17 1 7 11 6 8
18 1 8 12 7 9
19 1 1819 12 1818 1820
20 1 12 13 8 1819
21 1 2 14 1 3
22 1 3 15 2 4
23 1 1813 15 1812 1814
24 1 15 16 3 1813
25 1 22 21 23 31
26 1 23 22 24 32
27 1 22 23 21 31
28 1 24 23 25 995
29 1 32 23 33 947
30 1 23 24 22 32
31 1 995 24 946 996
32 1 24 25 23 995
33 1 27 26 28 34
34 1 28 27 29 35
35 1 27 28 26 34
36 1 29 28 30 992
37 1 35 28 36 941
38 1 28 29 27 35
39 1 992 29 940 993
40 1 29 30 28 992
41 1 22 31 21 23
42 1 23 32 22 24
43 1 947 32 946 948
44 1 32 33 23 947
45 1 27 34 26 28
46 1 28 35 27 29
47 1 941 35 940 942
48 1 35 36 28 941
49 1 42 41 43 158
50 1 43 42 44 159
51 1 42 43 41 158
52 1 44 43 45 819
53 1 159 43 160 811
54 1 43 44 42 159
55 1 819 44 810 820
56 1 44 45 43 819
57 1 49 48 50 155
58 1 50 49 51 156
59 1 49 50 48 155
60 1 51 50 52 817
61 1 156 50 157 815
62 1 50 51 49 156
63 1 817 51 814 818
64 1 51 52 50 817
65 1 66 65 67 125
66 1 67 66 68 126
67 1 66 67 65 125
68 1 68 67 69 823
69 1 126 67 127 807
70 1 67 68 66 126
71 1 823 68 806 824
72 1 68 69 67 823
73 1 73 72 74 128
74 1 74 73 75 129
75 1 73 74 72 128
76 1 75 74 76 821
77 1 129 74 130 803
78 1 74 75 73 129
79 1 821 75 802 822
80 1 75 76 74 821
81 1 79 78 80 152
82 1 80 79 81 153
83 1 79 80 78 152
84 1 81 80 82 1259
85 1 153 80 154 1251
86 1 80 81 79 153
87 1 1259 81 1250 1260
88 1 81 82 80 1259
89 1 85 84 86 149
90 1 86 85 87 150
91 1 85 86 84 149
92 1 87 86 88 1257
93 1 150 86 151 1255
94 1 86 87 85 150
95 1 1257 87 1254 1258
96 1 87 88 86 1257
97 1 91 90 92 143
98 1 92 91 93 144
99 1 91 92 90 143
100 1 93 92 883 94
101 1 144 92 877 145
102 1 92 93 91 144
103 1 883 93 876 884
104 1 93 94 883 92
105 1 97 96 98 146
106 1 98 97 99 147
107 1 97 98 96 146
108 1 99 98 880 100
109 1 147 98 872 148
110 1 98 99 97 147
111 1 880 99 871 881
112 1 99 100 880 98
113 1 103 102 104 137
114 1 104 103 105 138
115 1 103 104 102 137
116 1 105 104 106 2119
117 1 138 104 139 2115
118 1 104 105 103 138
119 1 2119 105 2114 2120
120 1 105 106 104 2119
121 1 109 108 110 140
122 1 110 109 111 141
123 1 109 110 108 140
124 1 111 110 112 2117
125 1 141 110 142 2111
126 1 110 111 109 141
127 1 2117 111 2110 2118
128 1 111 112 110 2117
129 1 115 114 116 134
130 1 116 115 117 135
131 1 115 116 114 134
132 1 117 116 1711 118
133 1 135 116 1700 136
134 1 116 117 115 135
135 1 1711 117 1699 1712
136 1 117 118 1711 116
137 1 121 120 122 131
138 1 122 121 123 132
139 1 121 122 120 131
140 1 123 122 1708 124
141 1 132 122 1705 133
142 1 122 123 121 132
143 1 1708 123 1704 1709
144 1 123 124 1708 122
145 1 66 125 65 67
146 1 67 126 66 68
147 1 807 126 806 808
148 1 126 127 67 807
149 1 73 128 72 74
150 1 74 129 73 75
151 1 803 129 802 804
152 1 129 130 74 803
153 1 121 131 120 122
154 1 122 132 121 123
155 1 1705 132 1704 1706
156 1 132 133 1705 122
157 1 115 134 114 116
158 1 116 135 115 117
159 1 1700 135 1699 1701
160 1 135 136 1700 116
161 1 103 137 102 104
162 1 104 138 103 105
163 1 2115 138 2114 2116
164 1 138 139 104 2115
165 1 109 140 108 110
166 1 110 141 109 111
167 1 2111 141 2110 2112
168 1 141 142 110 2111
169 1 91 143 90 92
170 1 92 144 91 93
171 1 877 144 876 878
172 1 144 145 877 92
173 1 97 146 96 98
174 1 98 147 97 99
175 1 872 147 871 873
176 1 147 148 872 98
177 1 85 149 84 86
178 1 86 150 85 87
179 1 1255 150 1254 1256
180 1 150 151 86 1255
181 1 79 152 78 80
182 1 80 153 79 81
183 1 1251 153 1250 1252
184 1 153 154 80 1251
185 1 49 155 48 50
186 1 50 156 49 51
187 1 815 156 814 816
188 1 156 157 50 815
189 1 42 158 41 43
190 1 43 159 42 44
191 1 811 159 810 812
192 1 159 160 43 811
193 1 163 162 164 276
194 1 164 163 165 277
195 1 163 164 162 276
196 1 165 164 166 253
197 1 277 164 208 278
198 1 164 165 163 277
199 1 253 165 207 254
200 1 165 166 164 253
201 1 169 168 170 273
202 1 170 169 171 274
203 1 169 170 168 273
204 1 171 170 172 250
205 1 274 170 213 275
206 1 170 171 169 274
207 1 250 171 212 251
208 1 171 172 170 250
209 1 175 174 176 279
210 1 176 175 177 280
211 1 175 176 174 279
212 1 177 176 178 259
213 1 280 176 223 281
214 1 176 177 175 280
215 1 259 177 222 260
216 1 177 178 176 259
217 1 181 180 182 282
218 1 182 181 183 283
219 1 181 182 180 282
220 1 183 182 184 256
221 1 283 182 218 284
222 1 182 183 181 283
223 1 256 183 217 257
224 1 183 184 182 256
225 1 186 185 187 291
226 1 187 186 188 292
227 1 186 187 185 291
228 1 188 187 189 265
229 1 292 187 247 293
230 1 187 188 186 292
231 1 265 188 246 266
232 1 188 189 187 265
233 1 191 190 192 294
234 1 192 191 193 295
235 1 191 192 190 294
236 1 193 192 194 262
237 1 295 192 241 296
238 1 192 193 191 295
239 1 262 193 240 263
240 1 193 194 192 262
241 1 196 195 197 288
242 1 197 196 198 289
243 1 196 197 195 288
244 1 198 197 199 271
245 1 289 197 229 290
246 1 197 198 196 289
247 1 271 198 228 272
248 1 198 199 197 271
249 1 201 200 202 285
250 1 202 201 203 286
251 1 201 202 200 285
252 1 203 202 204 268
253 1 286 202 235 287
254 1 202 203 201 286
255 1 268 203 234 269
256 1 203 204 202 268
257 1 206 205 207 252
258 1 207 206 208 253
259 1 206 207 205 252
260 1 208 207 209 277
261 1 253 207 165 254
262 1 207 208 206 253
263 1 277 208 164 278
264 1 208 209 207 277
265 1 211 210 212 249
266 1 212 211 213 250
267 1 211 212 210 249
268 1 213 212 214 274
269 1 250 212 171 251
270 1 212 213 211 250
271 1 274 213 170 275
272 1 213 214 212 274
273 1 216 215 217 255
274 1 217 216 218 256
275 1 216 217 215 255
276 1 218 217 219 283
277 1 256 217 183 257
278 1 217 218 216 256
279 1 283 218 182 284
280 1 218 219 217 283
281 1 221 220 222 258
282 1 222 221 223 259
283 1 221 222 220 258
284 1 223 222 224 280
285 1 259 222 177 260
286 1 222 223 221 259
287 1 280 223 176 281
288 1 223 224 222 280
289 1 227 226 228 270
290 1 228 227 229 271
291 1 227 228 226 270
292 1 229 228 230 289
293 1 271 228 198 272
294 1 228 229 227 271
295 1 289 229 197 290
296 1 229 230 228 289
297 1 233 232 234 267
298 1 234 233 235 268
299 1 233 234 232 267
300 1 235 234 236 286
301 1 268 234 203 269
302 1 234 235 233 268
303 1 286 235 202 287
304 1 235 236 234 286
305 1 239 238 240 261
306 1 240 239 241 262
307 1 239 240 238 261
308 1 241 240 242 295
309 1 262 240 193 263
310 1 240 241 239 262
311 1 295 241 192 296
312 1 241 242 240 295
313 1 245 244 246 264
314 1 246 245 247 265
315 1 245 246 244 264
316 1 247 246 248 292
317 1 265 246 188 266
318 1 246 247 245 265
319 1 292 247 187 293
320 1 247 248 246 292
321 1 211 249 210 212
322 1 171 250 170 172
323 1 212 250 211 213
324 1 250 251 171 212
325 1 206 252 205 207
326 1 165 253 164 166
327 1 207 253 206 208
328 1 253 254 165 207
329 1 216 255 215 217
330 1 183 256 182 184
331 1 217 256 216 218
332 1 256 257 183 217
333 1 221 258 220 222
334 1 177 259 176 178
335 1 222 259 221 223
336 1 259 260 177 222
337 1 239 261 238 240
338 1 193 262 192 194
339 1 240 262 239 241
340 1 262 263 193 240
341 1 245 264 244 246
342 1 188 265 187 189
343 1 246 265 245 247
344 1 265 266 188 246
345 1 233 267 232 234
346 1 203 268 202 204
347 1 234 268 233 235
348 1 268 269 203 234
349 1 227 270 226 228
350 1 198 271 197 199
351 1 228 271 227 229
352 1 271 272 198 228
353 1 169 273 168 170
354 1 170 274 169 171
355 1 213 274 212 214
356 1 274 275 170 213
357 1 163 276 162 164
358 1 164 277 163 165
359 1 208 277 207 209
360 1 277 278 164 208
361 1 175 279 174 176
362 1 176 280 175 177
363 1 223 280 222 224
364 1 280 281 176 223
365 1 181 282 180 182
366 1 182 283 181 183
367 1 218 283 217 219
368 1 283 284 182 218
369 1 201 285 200 202
370 1 202 286 201 203
371 1 235 286 234 236
372 1 286 287 202 235
373 1 196 288 195 197
374 1 197 289 196 198
375 1 229 289 228 230
376 1 289 290 197 229
377 1 186 291 185 187
378 1 187 292 186 188
379 1 247 292 246 248
380 1 292 293 187 247
381 1 191 294 190 192
382 1 192 295 191 193
383 1 241 295 240 242
384 1 295 296 192 241
385 1 298 297 299 358
386 1 299 298 300 359
387 1 298 299 297 358
388 1 300 299 301 341
389 1 359 299 330 360
390 1 299 300 298 359
391 1 341 300 329 342
392 1 300 301 299 341
393 1 303 302 304 355
394 1 304 303 305 356
395 1 303 304 302 355
396 1 305 304 306 338
397 1 356 304 335 357
398 1 304 305 303 356
399 1 338 305 334 339
400 1 305 306 304 338
401 1 308 307 309 349
402 1 309 308 310 350
403 1 308 309 307 349
404 1 310 309 311 347
405 1 350 309 325 351
406 1 309 310 308 350
407 1 347 310 324 348
408 1 310 311 309 347
409 1 313 312 314 352
410 1 314 313 315 353
411 1 313 314 312 352
412 1 315 314 316 344
413 1 353 314 320 354
414 1 314 315 313 353
415 1 344 315 319 345
416 1 315 316 314 344
417 1 318 317 319 343
418 1 319 318 320 344
419 1 318 319 317 343
420 1 320 319 321 353
421 1 344 319 315 345
422 1 319 320 318 344
423 1 353 320 314 354
424 1 320 321 319 353
425 1 323 322 324 346
426 1 324 323 325 347
427 1 323 324 322 346
428 1 325 324 326 350
429 1 347 324 310 348
430 1 324 325 323 347
431 1 350 325 309 351
432 1 325 326 324 350
433 1 328 327 329 340
434 1 329 328 330 341
435 1 328 329 327 340
436 1 330 329 331 359
437 1 341 329 300 342
438 1 329 330 328 341
439 1 359 330 299 360
440 1 330 331 329 359
441 1 333 332 334 337
442 1 334 333 335 338
443 1 333 334 332 337
444 1 335 334 336 356
445 1 338 334 305 339
446 1 334 335 333 338
447 1 356 335 304 357
448 1 335 336 334 356
449 1 333 337 332 334
450 1 305 338 304 306
451 1 334 338 333 335
452 1 338 339 305 334
453 1 328 340 327 329
454 1 300 341 299 301
455 1 329 341 328 330
456 1 341 342 300 329
457 1 318 343 317 319
458 1 315 344 314 316
459 1 319 344 318 320
460 1 344 345 315 319
461 1 323 346 322 324
462 1 310 347 309 311
463 1 324 347 323 325
464 1 347 348 310 324
465 1 308 349 307 309
466 1 309 350 308 310
467 1 325 350 324 326
468 1 350 351 309 325
469 1 313 352 312 314
470 1 314 353 313 315
471 1 320 353 319 321
472 1 353 354 314 320
473 1 303 355 302 304
474 1 304 356 303 305
475 1 335 356 334 336
476 1 356 357 304 335
477 1 298 358 297 299
478 1 299 359 298 300
479 1 330 359 329 331
480 1 359 360 299 330
481 1 377 361 371 378
482 1 381 362 372 382
483 1 413 363 375 414
484 1 417 364 376 418
485 1 401 365 374 402
486 1 405 366 373 406
487 1 385 367 370 386
488 1 389 368 369 390
489 1 389 369 368 390
490 1 385 370 367 386
491 1 377 371 361 378
492 1 381 372 362 382
493 1 405 373 366 406
494 1 401 374 365 402
495 1 413 375 363 414
496 1 417 376 364 418
497 1 378 377 379 397
498 1 377 378 361 371
499 1 379 378 553 380
500 1 397 378 499 398
501 1 378 379 377 397
502 1 553 379 498 554
503 1 379 380 553 378
504 1 382 381 383 399
505 1 381 382 362 372
506 1 383 382 550 384
507 1 399 382 492 400
508 1 382 383 381 399
509 1 550 383 491 551
510 1 383 384 550 382
511 1 386 385 387 395
512 1 385 386 367 370
513 1 387 386 583 388
514 1 395 386 468 396
515 1 386 387 385 395
516 1 583 387 467 584
517 1 387 388 583 386
518 1 390 389 391 393
519 1 389 390 368 369
520 1 391 390 580 392
521 1 393 390 475 394
522 1 390 391 389 393
523 1 580 391 474 581
524 1 391 392 580 390
525 1 390 393 389 391
526 1 475 393 474 476
527 1 393 394 475 390
528 1 386 395 385 387
529 1 468 395 467 469
530 1 395 396 468 386
531 1 378 397 377 379
532 1 499 397 498 500
533 1 397 398 499 378
534 1 382 399 381 383
535 1 492 399 491 493
536 1 399 400 492 382
537 1 402 401 403 411
538 1 401 402 365 374
539 1 403 402 1001 404
540 1 411 402 929 412
541 1 402 403 401 411
542 1 1001 403 928 1002
543 1 403 404 1001 402
544 1 406 405 407 409
545 1 405 406 366 373
546 1 407 406 998 408
547 1 409 406 935 410
548 1 406 407 405 409
549 1 998 407 934 999
550 1 407 408 998 406
551 1 406 409 405 407
552 1 935 409 934 936
553 1 409 410 935 406
554 1 402 411 401 403
555 1 929 411 928 930
556 1 411 412 929 402
557 1 414 413 415 421
558 1 413 414 363 375
559 1 415 414 1837 416
560 1 421 414 1807 422
561 1 414 415 413 421
562 1 1837 415 1806 1838
563 1 415 416 1837 414
564 1 418 417 419 423
565 1 417 418 364 376
566 1 419 418 1834 420
567 1 423 418 1801 424
568 1 418 419 417 423
569 1 1834 419 1800 1835
570 1 419 420 1834 418
571 1 414 421 413 415
572 1 1807 421 1806 1808
573 1 421 422 1807 414
574 1 418 423 417 419
575 1 1801 423 1800 1802
576 1 423 424 1801 418
577 1 426 425 427 438
578 1 427 426 428 439
579 1 426 427 425 438
580 1 428 427 429 2255
581 1 439 427 440 2237
582 1 427 428 426 439
583 1 2255 428 2236 2256
584 1 428 429 427 2255
585 1 431 430 432 435
586 1 432 431 433 436
587 1 431 432 430 435
588 1 433 432 434 2252
589 1 436 432 437 2243
590 1 432 433 431 436
591 1 2252 433 2242 2253
592 1 433 434 432 2252
593 1 431 435 430 432
594 1 432 436 431 433
595 1 2243 436 2242 2244
596 1 436 437 432 2243
597 1 426 438 425 427
598 1 427 439 426 428
599 1 2237 439 2236 2238
600 1 439 440 427 2237
601 1 446 445 447 455
602 1 447 446 448 456
603 1 446 447 445 455
604 1 448 447 449 1419
605 1 456 447 457 1371
606 1 447 448 446 456
607 1 1419 448 1370 1420
608 1 448 449 447 1419
609 1 451 450 452 458
610 1 452 451 453 459
611 1 451 452 450 458
612 1 453 452 454 1416
613 1 459 452 460 1365
614 1 452 453 451 459
615 1 1416 453 1364 1417
616 1 453 454 452 1416
617 1 446 455 445 447
618 1 447 456 446 448
619 1 1371 456 1370 1372
620 1 456 457 447 1371
621 1 451 458 450 452
622 1 452 459 451 453
623 1 1365 459 1364 1366
624 1 459 460 452 1365
625 1 466 465 467 582
626 1 467 466 468 583
627 1 466 467 465 582
628 1 468 467 469 395
629 1 583 467 584 387
630 1 395 468 386 396
631 1 467 468 466 583
632 1 468 469 467 395
633 1 473 472 474 579
634 1 474 473 475 580
635 1 473 474 472 579
636 1 475 474 476 393
637 1 580 474 581 391
638 1 393 475 390 394
639 1 474 475 473 580
640 1 475 476 474 393
641 1 490 489 491 549
642 1 491 490 492 550
643 1 490 491 489 549
644 1 492 491 493 399
645 1 550 491 551 383
646 1 399 492 382 400
647 1 491 492 490 550
648 1 492 493 491 399
649 1 497 496 498 552
650 1 498 497 499 553
651 1 497 498 496 552
652 1 499 498 500 397
653 1 553 498 554 379
654 1 397 499 378 398
655 1 498 499 497 553
656 1 499 500 498 397
657 1 503 502 504 576
658 1 504 503 505 577
659 1 503 504 502 576
660 1 505 504 506 1683
661 1 577 504 578 1675
662 1 504 505 503 577
663 1 1683 505 1674 1684
664 1 505 506 504 1683
665 1 509 508 510 573
666 1 510 509 511 574
667 1 509 510 508 573
668 1 511 510 512 1681
669 1 574 510 575 1679
670 1 510 511 509 574
671 1 1681 511 1678 1682
672 1 511 512 510 1681
673 1 515 514 516 567
674 1 516 515 517 568
675 1 515 516 514 567
676 1 517 516 1307 518
677 1 568 516 1301 569
678 1 516 517 515 568
679 1 1307 517 1300 1308
680 1 517 518 1307 516
681 1 521 520 522 570
682 1 522 521 523 571
683 1 521 522 520 570
684 1 523 522 1304 524
685 1 571 522 1296 572
686 1 522 523 521 571
687 1 1304 523 1295 1305
688 1 523 524 1304 522
689 1 527 526 528 561
690 1 528 527 529 562
691 1 527 528 526 561
692 1 529 528 530 2543
693 1 562 528 563 2539
694 1 528 529 527 562
695 1 2543 529 2538 2544
696 1 529 530 528 2543
697 1 533 532 534 564
698 1 534 533 535 565
699 1 533 534 532 564
700 1 535 534 536 2541
701 1 565 534 566 2535
702 1 534 535 533 565
703 1 2541 535 2534 2542
704 1 535 536 534 2541
705 1 539 538 540 558
706 1 540 539 541 559
707 1 539 540 538 558
708 1 541 540 2135 542
709 1 559 540 2124 560
710 1 540 541 539 559
711 1 2135 541 2123 2136
712 1 541 542 2135 540
713 1 545 544 546 555
714 1 546 545 547 556
715 1 545 546 544 555
716 1 547 546 2132 548
717 1 556 546 2129 557
718 1 546 547 545 556
719 1 2132 547 2128 2133
720 1 547 548 2132 546
721 1 490 549 489 491
722 1 383 550 382 384
723 1 491 550 490 492
724 1 550 551 491 383
725 1 497 552 496 498
726 1 379 553 378 380
727 1 498 553 497 499
728 1 553 554 498 379
729 1 545 555 544 546
730 1 546 556 545 547
731 1 2129 556 2128 2130
732 1 556 557 2129 546
733 1 539 558 538 540
734 1 540 559 539 541
735 1 2124 559 2123 2125
736 1 559 560 2124 540
737 1 527 561 526 528
738 1 528 562 527 529
739 1 2539 562 2538 2540
740 1 562 563 528 2539
741 1 533 564 532 534
742 1 534 565 533 535
743 1 2535 565 2534 2536
744 1 565 566 534 2535
745 1 515 567 514 516
746 1 516 568 515 517
747 1 1301 568 1300 1302
748 1 568 569 1301 516
749 1 521 570 520 522
750 1 522 571 521 523
751 1 1296 571 1295 1297
752 1 571 572 1296 522
753 1 509 573 508 510
754 1 510 574 509 511
755 1 1679 574 1678 1680
756 1 574 575 510 1679
757 1 503 576 502 504
758 1 504 577 503 505
759 1 1675 577 1674 1676
760 1 577 578 504 1675
761 1 473 579 472 474
762 1 391 580 390 392
763 1 474 580 473 475
764 1 580 581 474 391
765 1 466 582 465 467
766 1 387 583 386 388
767 1 467 583 466 468
768 1 583 584 467 387
769 1 587 586 588 700
770 1 588 587 589 701
771 1 587 588 586 700
772 1 589 588 590 677
773 1 701 588 632 702
774 1 588 589 587 701
775 1 677 589 631 678
776 1 589 590 588 677
777 1 593 592 594 697
778 1 594 593 595 698
779 1 593 594 592 697
780 1 595 594 596 674
781 1 698 594 637 699
782 1 594 595 593 698
783 1 674 595 636 675
784 1 595 596 594 674
785 1 599 598 600 703
786 1 600 599 601 704
787 1 599 600 598 703
788 1 601 600 602 683
789 1 704 600 647 705
790 1 600 601 599 704
791 1 683 601 646 684
792 1 601 602 600 683
793 1 605 604 606 706
794 1 606 605 607 707
795 1 605 606 604 706
796 1 607 606 608 680
797 1 707 606 642 708
798 1 606 607 605 707
799 1 680 607 641 681
800 1 607 608 606 680
801 1 610 609 611 715
802 1 611 610 612 716
803 1 610 611 609 715
804 1 612 611 613 689
805 1 716 611 671 717
806 1 611 612 610 716
807 1 689 612 670 690
808 1 612 613 611 689
809 1 615 614 616 718
810 1 616 615 617 719
811 1 615 616 614 718
812 1 617 616 618 686
813 1 719 616 665 720
814 1 616 617 615 719
815 1 686 617 664 687
816 1 617 618 616 686
817 1 620 619 621 712
818 1 621 620 622 713
819 1 620 621 619 712
820 1 622 621 623 695
821 1 713 621 653 714
822 1 621 622 620 713
823 1 695 622 652 696
824 1 622 623 621 695
825 1 625 624 626 709
826 1 626 625 627 710
827 1 625 626 624 709
828 1 627 626 628 692
829 1 710 626 659 711
830 1 626 627 625 710
831 1 692 627 658 693
832 1 627 628 626 692
833 1 630 629 631 676
834 1 631 630 632 677
835 1 630 631 629 676
836 1 632 631 633 701
837 1 677 631 589 678
838 1 631 632 630 677
839 1 701 632 588 702
840 1 632 633 631 701
841 1 635 634 636 673
842 1 636 635 637 674
843 1 635 636 634 673
844 1 637 636 638 698
845 1 674 636 595 675
846 1 636 637 635 674
847 1 698 637 594 699
848 1 637 638 636 698
849 1 640 639 641 679
850 1 641 640 642 680
851 1 640 641 639 679
852 1 642 641 643 707
853 1 680 641 607 681
854 1 641 642 640 680
855 1 707 642 606 708
856 1 642 643 641 707
857 1 645 644 646 682
858 1 646 645 647 683
859 1 645 646 644 682
860 1 647 646 648 704
861 1 683 646 601 684
862 1 646 647 645 683
863 1 704 647 600 705
864 1 647 648 646 704
865 1 651 650 652 694
866 1 652 651 653 695
867 1 651 652 650 694
868 1 653 652 654 713
869 1 695 652 622 696
870 1 652 653 651 695
871 1 713 653 621 714
872 1 653 654 652 713
873 1 657 656 658 691
874 1 658 657 659 692
875 1 657 658 656 691
876 1 659 658 660 710
877 1 692 658 627 693
878 1 658 659 657 692
879 1 710 659 626 711
880 1 659 660 658 710
881 1 663 662 664 685
882 1 664 663 665 686
883 1 663 664 662 685
884 1 665 664 666 719
885 1 686 664 617 687
886 1 664 665 663 686
887 1 719 665 616 720
888 1 665 666 664 719
889 1 669 668 670 688
890 1 670 669 671 689
891 1 669 670 668 688
892 1 671 670 672 716
893 1 689 670 612 690
894 1 670 671 669 689
895 1 716 671 611 717
896 1 671 672 670 716
897 1 635 673 634 636
898 1 595 674 594 596
899 1 636 674 635 637
900 1 674 675 595 636
901 1 630 676 629 631
902 1 589 677 588 590
903 1 631 677 630 632
904 1 677 678 589 631
905 1 640 679 639 641
906 1 607 680 606 608
907 1 641 680 640 642
908 1 680 681 607 641
909 1 645 682 644 646
910 1 601 683 600 602
911 1 646 683 645 647
912 1 683 684 601 646
913 1 663 685 662 664
914 1 617 686 616 618
915 1 664 686 663 665
916 1 686 687 617 664
917 1 669 688 668 670
918 1 612 689 611 613
919 1 670 689 669 671
920 1 689 690 612 670
921 1 657 691 656 658
922 1 627 692 626 628
923 1 658 692 657 659
924 1 692 693 627 658
925 1 651 694 650 652
926 1 622 695 621 623
927 1 652 695 651 653
928 1 695 696 622 652
929 1 593 697 592 594
930 1 594 698 593 595
931 1 637 698 636 638
932 1 698 699 594 637
933 1 587 700 586 588
934 1 588 701 587 589
935 1 632 701 631 633
936 1 701 702 588 632
937 1 599 703 598 600
938 1 600 704 599 601
939 1 647 704 646 648
940 1 704 705 600 647
941 1 605 706 604 606
942 1 606 707 605 607
943 1 642 707 641 643
944 1 707 708 606 642
945 1 625 709 624 626
946 1 626 710 625 627
947 1 659 710 658 660
948 1 710 711 626 659
949 1 620 712 619 621
950 1 621 713 620 622
951 1 653 713 652 654
952 1 713 714 621 653
953 1 610 715 609 611
954 1 611 716 610 612
955 1 671 716 670 672
956 1 716 717 611 671
957 1 615 718 614 616
958 1 616 719 615 617
959 1 665 719 664 666
960 1 719 720 616 665
961 1 722 721 723 782
962 1 723 722 724 783
963 1 722 723 721 782
964 1 724 723 725 765
965 1 783 723 754 784
966 1 723 724 722 783
967 1 765 724 753 766
968 1 724 725 723 765
969 1 727 726 728 779
970 1 728 727 729 780
971 1 727 728 726 779
972 1 729 728 730 762
973 1 780 728 759 781
974 1 728 729 727 780
975 1 762 729 758 763
976 1 729 730 728 762
977 1 732 731 733 773
978 1 733 732 734 774
979 1 732 733 731 773
980 1 734 733 735 771
981 1 774 733 749 775
982 1 733 734 732 774
983 1 771 734 748 772
984 1 734 735 733 771
985 1 737 736 738 776
986 1 738 737 739 777
987 1 737 738 736 776
988 1 739 738 740 768
989 1 777 738 744 778
990 1 738 739 737 777
991 1 768 739 743 769
992 1 739 740 738 768
993 1 742 741 743 767
994 1 743 742 744 768
995 1 742 743 741 767
996 1 744 743 745 777
997 1 768 743 739 769
998 1 743 744 742 768
999 1 777 744 738 778
1000 1 744 745 743 777
1001 1 747 746 748 770
1002 1 748 747 749 771
1003 1 747 748 746 770
1004 1 749 748 750 774
1005 1 771 748 734 772
1006 1 748 749 747 771
1007 1 774 749 733 775
1008 1 749 750 748 774
1009 1 752 751 753 764
1010 1 753 752 754 765
1011 1 752 753 751 764
1012 1 754 753 755 783
1013 1 765 753 724 766
1014 1 753 754 752 765
1015 1 783 754 723 784
1016 1 754 755 753 783
1017 1 757 756 758 761
1018 1 758 757 759 762
1019 1 757 758 756 761
1020 1 759 758 760 780
1021 1 762 758 729 763
1022 1 758 759 757 762
1023 1 780 759 728 781
1024 1 759 760 758 780
1025 1 757 761 756 758
1026 1 729 762 728 730
1027 1 758 762 757 759
1028 1 762 763 729 758
1029 1 752 764 751 753
1030 1 724 765 723 725
1031 1 753 765 752 754
1032 1 765 766 724 753
1033 1 742 767 741 743
1034 1 739 768 738 740
1035 1 743 768 742 744
1036 1 768 769 739 743
1037 1 747 770 746 748
1038 1 734 771 733 735
1039 1 748 771 747 749
1040 1 771 772 734 748
1041 1 732 773 731 733
1042 1 733 774 732 734
1043 1 749 774 748 750
1044 1 774 775 733 749
1045 1 737 776 736 738
1046 1 738 777 737 739
1047 1 744 777 743 745
1048 1 777 778 738 744
1049 1 727 779 726 728
1050 1 728 780 727 729
1051 1 759 780 758 760
1052 1 780 781 728 759
1053 1 722 782 721 723
1054 1 723 783 722 724
1055 1 754 783 753 755
1056 1 783 784 723 754
1057 1 801 785 795 802
1058 1 805 786 796 806
1059 1 837 787 799 838
1060 1 841 788 800 842
1061 1 825 789 798 826
1062 1 829 790 797 830
1063 1 809 791 794 810
1064 1 813 792 793 814
1065 1 813 793 792 814
1066 1 809 794 791 810
1067 1 801 795 785 802
1068 1 805 796 786 806
1069 1 829 797 790 830
1070 1 825 798 789 826
1071 1 837 799 787 838
1072 1 841 800 788 842
1073 1 802 801 803 821
1074 1 801 802 785 795
1075 1 803 802 129 804
1076 1 821 802 75 822
1077 1 129 803 74 130
1078 1 802 803 801 821
1079 1 803 804 129 802
1080 1 806 805 807 823
1081 1 805 806 786 796
1082 1 807 806 126 808
1083 1 823 806 68 824
1084 1 126 807 67 127
1085 1 806 807 805 823
1086 1 807 808 126 806
1087 1 810 809 811 819
1088 1 809 810 791 794
1089 1 811 810 159 812
1090 1 819 810 44 820
1091 1 159 811 43 160
1092 1 810 811 809 819
1093 1 811 812 159 810
1094 1 814 813 815 817
1095 1 813 814 792 793
1096 1 815 814 156 816
1097 1 817 814 51 818
1098 1 156 815 50 157
1099 1 814 815 813 817
1100 1 815 816 156 814
1101 1 51 817 50 52
1102 1 814 817 813 815
1103 1 817 818 51 814
1104 1 44 819 43 45
1105 1 810 819 809 811
1106 1 819 820 44 810
1107 1 75 821 74 76
1108 1 802 821 801 803
1109 1 821 822 75 802
1110 1 68 823 67 69
1111 1 806 823 805 807
1112 1 823 824 68 806
1113 1 826 825 827 835
1114 1 825 826 789 798
1115 1 827 826 1425 828
1116 1 835 826 1353 836
1117 1 826 827 825 835
1118 1 1425 827 1352 1426
1119 1 827 828 1425 826
1120 1 830 829 831 833
1121 1 829 830 790 797
1122 1 831 830 1422 832
1123 1 833 830 1359 834
1124 1 830 831 829 833
1125 1 1422 831 1358 1423
1126 1 831 832 1422 830
1127 1 830 833 829 831
1128 1 1359 833 1358 1360
1129 1 833 834 1359 830
1130 1 826 835 825 827
1131 1 1353 835 1352 1354
1132 1 835 836 1353 826
1133 1 838 837 839 845
1134 1 837 838 787 799
1135 1 839 838 2261 840
1136 1 845 838 2231 846
1137 1 838 839 837 845
1138 1 2261 839 2230 2262
1139 1 839 840 2261 838
1140 1 842 841 843 847
1141 1 841 842 788 800
1142 1 843 842 2258 844
1143 1 847 842 2225 848
1144 1 842 843 841 847
1145 1 2258 843 2224 2259
1146 1 843 844 2258 842
1147 1 838 845 837 839
1148 1 2231 845 2230 2232
1149 1 845 846 2231 838
1150 1 842 847 841 843
1151 1 2225 847 2224 2226
1152 1 847 848 2225 842
1153 1 850 849 851 862
1154 1 851 850 852 863
1155 1 850 851 849 862
1156 1 852 851 853 2679
1157 1 863 851 864 2661
1158 1 851 852 850 863
1159 1 2679 852 2660 2680
1160 1 852 853 851 2679
1161 1 855 854 856 859
1162 1 856 855 857 860
1163 1 855 856 854 859
1164 1 857 856 858 2676
1165 1 860 856 861 2667
1166 1 856 857 855 860
1167 1 2676 857 2666 2677
1168 1 857 858 856 2676
1169 1 855 859 854 856
1170 1 856 860 855 857
1171 1 2667 860 2666 2668
1172 1 860 861 856 2667
1173 1 850 862 849 851
1174 1 851 863 850 852
1175 1 2661 863 2660 2662
1176 1 863 864 851 2661
1177 1 870 869 871 879
1178 1 871 870 872 880
1179 1 870 871 869 879
1180 1 872 871 873 147
1181 1 880 871 881 99
1182 1 147 872 98 148
1183 1 871 872 870 880
1184 1 872 873 871 147
1185 1 875 874 876 882
1186 1 876 875 877 883
1187 1 875 876 874 882
1188 1 877 876 878 144
1189 1 883 876 884 93
1190 1 144 877 92 145
1191 1 876 877 875 883
1192 1 877 878 876 144
1193 1 870 879 869 871
1194 1 99 880 98 100
1195 1 871 880 870 872
1196 1 880 881 871 99
1197 1 875 882 874 876
1198 1 93 883 92 94
1199 1 876 883 875 877
1200 1 883 884 876 93
1201 1 890 889 891 1006
1202 1 891 890 892 1007
1203 1 890 891 889 1006
1204 1 892 891 893 1667
1205 1 1007 891 1008 1659
1206 1 891 892 890 1007
1207 1 1667 892 1658 1668
1208 1 892 893 891 1667
1209 1 897 896 898 1003
1210 1 898 897 899 1004
1211 1 897 898 896 1003
1212 1 899 898 900 1665
1213 1 1004 898 1005 1663
1214 1 898 899 897 1004
1215 1 1665 899 1662 1666
1216 1 899 900 898 1665
1217 1 914 913 915 973
1218 1 915 914 916 974
1219 1 914 915 913 973
1220 1 916 915 917 1671
1221 1 974 915 975 1655
1222 1 915 916 914 974
1223 1 1671 916 1654 1672
1224 1 916 917 915 1671
1225 1 921 920 922 976
1226 1 922 921 923 977
1227 1 921 922 920 976
1228 1 923 922 924 1669
1229 1 977 922 978 1651
1230 1 922 923 921 977
1231 1 1669 923 1650 1670
1232 1 923 924 922 1669
1233 1 927 926 928 1000
1234 1 928 927 929 1001
1235 1 927 928 926 1000
1236 1 929 928 930 411
1237 1 1001 928 1002 403
1238 1 411 929 402 412
1239 1 928 929 927 1001
1240 1 929 930 928 411
1241 1 933 932 934 997
1242 1 934 933 935 998
1243 1 933 934 932 997
1244 1 935 934 936 409
1245 1 998 934 999 407
1246 1 409 935 406 410
1247 1 934 935 933 998
1248 1 935 936 934 409
1249 1 939 938 940 991
1250 1 940 939 941 992
1251 1 939 940 938 991
1252 1 941 940 35 942
1253 1 992 940 29 993
1254 1 35 941 28 36
1255 1 940 941 939 992
1256 1 941 942 35 940
1257 1 945 944 946 994
1258 1 946 945 947 995
1259 1 945 946 944 994
1260 1 947 946 32 948
1261 1 995 946 24 996
1262 1 32 947 23 33
1263 1 946 947 945 995
1264 1 947 948 32 946
1265 1 951 950 952 985
1266 1 952 951 953 986
1267 1 951 952 950 985
1268 1 953 952 954 2967
1269 1 986 952 987 2963
1270 1 952 953 951 986
1271 1 2967 953 2962 2968
1272 1 953 954 952 2967
1273 1 957 956 958 988
1274 1 958 957 959 989
1275 1 957 958 956 988
1276 1 959 958 960 2965
1277 1 989 958 990 2959
1278 1 958 959 957 989
1279 1 2965 959 2958 2966
1280 1 959 960 958 2965
1281 1 963 962 964 982
1282 1 964 963 965 983
1283 1 963 964 962 982
1284 1 965 964 2559 966
1285 1 983 964 2548 984
1286 1 964 965 963 983
1287 1 2559 965 2547 2560
1288 1 965 966 2559 964
1289 1 969 968 970 979
1290 1 970 969 971 980
1291 1 969 970 968 979
1292 1 971 970 2556 972
1293 1 980 970 2553 981
1294 1 970 971 969 980
1295 1 2556 971 2552 2557
1296 1 971 972 2556 970
1297 1 914 973 913 915
1298 1 915 974 914 916
1299 1 1655 974 1654 1656
1300 1 974 975 915 1655
1301 1 921 976 920 922
1302 1 922 977 921 923
1303 1 1651 977 1650 1652
1304 1 977 978 922 1651
1305 1 969 979 968 970
1306 1 970 980 969 971
1307 1 2553 980 2552 2554
1308 1 980 981 2553 970
1309 1 963 982 962 964
1310 1 964 983 963 965
1311 1 2548 983 2547 2549
1312 1 983 984 2548 964
1313 1 951 985 950 952
1314 1 952 986 951 953
1315 1 2963 986 2962 2964
1316 1 986 987 952 2963
1317 1 957 988 956 958
1318 1 958 989 957 959
1319 1 2959 989 2958 2960
1320 1 989 990 958 2959
1321 1 939 991 938 940
1322 1 29 992 28 30
1323 1 940 992 939 941
1324 1 992 993 29 940
1325 1 945 994 944 946
1326 1 24 995 23 25
1327 1 946 995 945 947
1328 1 995 996 24 946
1329 1 933 997 932 934
1330 1 407 998 406 408
1331 1 934 998 933 935
1332 1 998 999 934 407
1333 1 927 1000 926 928
1334 1 403 1001 402 404
1335 1 928 1001 927 929
1336 1 1001 1002 928 403
1337 1 897 1003 896 898
1338 1 898 1004 897 899
1339 1 1663 1004 1662 1664
1340 1 1004 1005 898 1663
1341 1 890 1006 889 891
1342 1 891 1007 890 892
1343 1 1659 1007 1658 1660
1344 1 1007 1008 891 1659
1345 1 1011 1010 1012 1124
1346 1 1012 1011 1013 1125
1347 1 1011 1012 1010 1124
1348 1 1013 1012 1014 1101
1349 1 1125 1012 1056 1126
1350 1 1012 1013 1011 1125
1351 1 1101 1013 1055 1102
1352 1 1013 1014 1012 1101
1353 1 1017 1016 1018 1121
1354 1 1018 1017 1019 1122
1355 1 1017 1018 1016 1121
1356 1 1019 1018 1020 1098
1357 1 1122 1018 1061 1123
1358 1 1018 1019 1017 1122
1359 1 1098 1019 1060 1099
1360 1 1019 1020 1018 1098
1361 1 1023 1022 1024 1127
1362 1 1024 1023 1025 1128
1363 1 1023 1024 1022 1127
1364 1 1025 1024 1026 1107
1365 1 1128 1024 1071 1129
1366 1 1024 1025 1023 1128
1367 1 1107 1025 1070 1108
1368 1 1025 1026 1024 1107
1369 1 1029 1028 1030 1130
1370 1 1030 1029 1031 1131
1371 1 1029 1030 1028 1130
1372 1 1031 1030 1032 1104
1373 1 1131 1030 1066 1132
1374 1 1030 1031 1029 1131
1375 1 1104 1031 1065 1105
1376 1 1031 1032 1030 1104
1377 1 1034 1033 1035 1139
1378 1 1035 1034 1036 1140
1379 1 1034 1035 1033 1139
1380 1 1036 1035 1037 1113
1381 1 1140 1035 1095 1141
1382 1 1035 1036 1034 1140
1383 1 1113 1036 1094 1114
1384 1 1036 1037 1035 1113
1385 1 1039 1038 1040 1142
1386 1 1040 1039 1041 1143
1387 1 1039 1040 1038 1142
1388 1 1041 1040 1042 1110
1389 1 1143 1040 1089 1144
1390 1 1040 1041 1039 1143
1391 1 1110 1041 1088 1111
1392 1 1041 1042 1040 1110
1393 1 1044 1043 1045 1136
1394 1 1045 1044 1046 1137
1395 1 1044 1045 1043 1136
1396 1 1046 1045 1047 1119
1397 1 1137 1045 1077 1138
1398 1 1045 1046 1044 1137
1399 1 1119 1046 1076 1120
1400 1 1046 1047 1045 1119
1401 1 1049 1048 1050 1133
1402 1 1050 1049 1051 1134
1403 1 1049 1050 1048 1133
1404 1 1051 1050 1052 1116
1405 1 1134 1050 1083 1135
1406 1 1050 1051 1049 1134
1407 1 1116 1051 1082 1117
1408 1 1051 1052 1050 1116
1409 1 1054 1053 1055 1100
1410 1 1055 1054 1056 1101
1411 1 1054 1055 1053 1100
1412 1 1056 1055 1057 1125
1413 1 1101 1055 1013 1102
1414 1 1055 1056 1054 1101
1415 1 1125 1056 1012 1126
1416 1 1056 1057 1055 1125
1417 1 1059 1058 1060 1097
1418 1 1060 1059 1061 1098
1419 1 1059 1060 1058 1097
1420 1 1061 1060 1062 1122
1421 1 1098 1060 1019 1099
1422 1 1060 1061 1059 1098
1423 1 1122 1061 1018 1123
1424 1 1061 1062 1060 1122
1425 1 1064 1063 1065 1103
1426 1 1065 1064 1066 1104
1427 1 1064 1065 1063 1103
1428 1 1066 1065 1067 1131
1429 1 1104 1065 1031 1105
1430 1 1065 1066 1064 1104
1431 1 1131 1066 1030 1132
1432 1 1066 1067 1065 1131
1433 1 1069 1068 1070 1106
1434 1 1070 1069 1071 1107
1435 1 1069 1070 1068 1106
1436 1 1071 1070 1072 1128
1437 1 1107 1070 1025 1108
1438 1 1070 1071 1069 1107
1439 1 1128 1071 1024 1129
1440 1 1071 1072 1070 1128
1441 1 1075 1074 1076 1118
1442 1 1076 1075 1077 1119
1443 1 1075 1076 1074 1118
1444 1 1077 1076 1078 1137
1445 1 1119 1076 1046 1120
1446 1 1076 1077 1075 1119
1447 1 1137 1077 1045 1138
1448 1 1077 1078 1076 1137
1449 1 1081 1080 1082 1115
1450 1 1082 1081 1083 1116
1451 1 1081 1082 1080 1115
1452 1 1083 1082 1084 1134
1453 1 1116 1082 1051 1117
1454 1 1082 1083 1081 1116
1455 1 1134 1083 1050 1135
1456 1 1083 1084 1082 1134
1457 1 1087 1086 1088 1109
1458 1 1088 1087 1089 1110
1459 1 1087 1088 1086 1109
1460 1 1089 1088 1090 1143
1461 1 1110 1088 1041 1111
1462 1 1088 1089 1087 1110
1463 1 1143 1089 1040 1144
1464 1 1089 1090 1088 1143
1465 1 1093 1092 1094 1112
1466 1 1094 1093 1095 1113
1467 1 1093 1094 1092 1112
1468 1 1095 1094 1096 1140
1469 1 1113 1094 1036 1114
1470 1 1094 1095 1093 1113
1471 1 1140 1095 1035 1141
1472 1 1095 1096 1094 1140
1473 1 1059 1097 1058 1060
1474 1 1019 1098 1018 1020
1475 1 1060 1098 1059 1061
1476 1 1098 1099 1019 1060
1477 1 1054 1100 1053 1055
1478 1 1013 1101 1012 1014
1479 1 1055 1101 1054 1056
1480 1 1101 1102 1013 1055
1481 1 1064 1103 1063 1065
1482 1 1031 1104 1030 1032
1483 1 1065 1104 1064 1066
1484 1 1104 1105 1031 1065
1485 1 1069 1106 1068 1070
1486 1 1025 1107 1024 1026
1487 1 1070 1107 1069 1071
1488 1 1107 1108 1025 1070
1489 1 1087 1109 1086 1088
1490 1 1041 1110 1040 1042
1491 1 1088 1110 1087 1089
1492 1 1110 1111 1041 1088
1493 1 1093 1112 1092 1094
1494 1 1036 1113 1035 1037
1495 1 1094 1113 1093 1095
1496 1 1113 1114 1036 1094
1497 1 1081 1115 1080 1082
1498 1 1051 1116 1050 1052
1499 1 1082 1116 1081 1083
1500 1 1116 1117 1051 1082
1501 1 1075 1118 1074 1076
1502 1 1046 1119 1045 1047
1503 1 1076 1119 1075 1077
1504 1 1119 1120 1046 1076
1505 1 1017 1121 1016 1018
1506 1 1018 1122 1017 1019
1507 1 1061 1122 1060 1062
1508 1 1122 1123 1018 1061
1509 1 1011 1124 1010 1012
1510 1 1012 1125 1011 1013
1511 1 1056 1125 1055 1057
1512 1 1125 1126 1012 1056
1513 1 1023 1127 1022 1024
1514 1 1024 1128 1023 1025
1515 1 1071 1128 1070 1072
1516 1 1128 1129 1024 1071
1517 1 1029 1130 1028 1030
1518 1 1030 1131 1029 1031
1519 1 1066 1131 1065 1067
1520 1 1131 1132 1030 1066
1521 1 1049 1133 1048 1050
1522 1 1050 1134 1049 1051
1523 1 1083 1134 1082 1084
1524 1 1134 1135 1050 1083
1525 1 1044 1136 1043 1045
1526 1 1045 1137 1044 1046
1527 1 1077 1137 1076 1078
1528 1 1137 1138 1045 1077
1529 1 1034 1139 1033 1035
1530 1 1035 1140 1034 1036
1531 1 1095 1140 1094 1096
1532 1 1140 1141 1035 1095
1533 1 1039 1142 1038 1040
1534 1 1040 1143 1039 1041
1535 1 1089 1143 1088 1090
1536 1 1143 1144 1040 1089
1537 1 1146 1145 1147 1206
1538 1 1147 1146 1148 1207
1539 1 1146 1147 1145 1206
1540 1 1148 1147 1149 1189
1541 1 1207 1147 1178 1208
1542 1 1147 1148 1146 1207
1543 1 1189 1148 1177 1190
1544 1 1148 1149 1147 1189
1545 1 1151 1150 1152 1203
1546 1 1152 1151 1153 1204
1547 1 1151 1152 1150 1203
1548 1 1153 1152 1154 1186
1549 1 1204 1152 1183 1205
1550 1 1152 1153 1151 1204
1551 1 1186 1153 1182 1187
1552 1 1153 1154 1152 1186
1553 1 1156 1155 1157 1197
1554 1 1157 1156 1158 1198
1555 1 1156 1157 1155 1197
1556 1 1158 1157 1159 1195
1557 1 1198 1157 1173 1199
1558 1 1157 1158 1156 1198
1559 1 1195 1158 1172 1196
1560 1 1158 1159 1157 1195
1561 1 1161 1160 1162 1200
1562 1 1162 1161 1163 1201
1563 1 1161 1162 1160 1200
1564 1 1163 1162 1164 1192
1565 1 1201 1162 1168 1202
1566 1 1162 1163 1161 1201
1567 1 1192 1163 1167 1193
1568 1 1163 1164 1162 1192
1569 1 1166 1165 1167 1191
1570 1 1167 1166 1168 1192
1571 1 1166 1167 1165 1191
1572 1 1168 1167 1169 1201
1573 1 1192 1167 1163 1193
1574 1 1167 1168 1166 1192
1575 1 1201 1168 1162 1202
1576 1 1168 1169 1167 1201
1577 1 1171 1170 1172 1194
1578 1 1172 1171 1173 1195
1579 1 1171 1172 1170 1194
1580 1 1173 1172 1174 1198
1581 1 1195 1172 1158 1196
1582 1 1172 1173 1171 1195
1583 1 1198 1173 1157 1199
1584 1 1173 1174 1172 1198
1585 1 1176 1175 1177 1188
1586 1 1177 1176 1178 1189
1587 1 1176 1177 1175 1188
1588 1 1178 1177 1179 1207
1589 1 1189 1177 1148 1190
1590 1 1177 1178 1176 1189
1591 1 1207 1178 1147 1208
1592 1 1178 1179 1177 1207
1593 1 1181 1180 1182 1185
1594 1 1182 1181 1183 1186
1595 1 1181 1182 1180 1185
1596 1 1183 1182 1184 1204
1597 1 1186 1182 1153 1187
1598 1 1182 1183 1181 1186
1599 1 1204 1183 1152 1205
1600 1 1183 1184 1182 1204
1601 1 1181 1185 1180 1182
1602 1 1153 1186 1152 1154
1603 1 1182 1186 1181 1183
1604 1 1186 1187 1153 1182
1605 1 1176 1188 1175 1177
1606 1 1148 1189 1147 1149
1607 1 1177 1189 1176 1178
1608 1 1189 1190 1148 1177
1609 1 1166 1191 1165 1167
1610 1 1163 1192 1162 1164
1611 1 1167 1192 1166 1168
1612 1 1192 1193 1163 1167
1613 1 1171 1194 1170 1172
1614 1 1158 1195 1157 1159
1615 1 1172 1195 1171 1173
1616 1 1195 1196 1158 1172
1617 1 1156 1197 1155 1157
1618 1 1157 1198 1156 1158
1619 1 1173 1198 1172 1174
1620 1 1198 1199 1157 1173
1621 1 1161 1200 1160 1162
1622 1 1162 1201 1161 1163
1623 1 1168 1201 1167 1169
1624 1 1201 1202 1162 1168
1625 1 1151 1203 1150 1152
1626 1 1152 1204 1151 1153
1627 1 1183 1204 1182 1184
1628 1 1204 1205 1152 1183
1629 1 1146 1206 1145 1147
1630 1 1147 1207 1146 1148
1631 1 1178 1207 1177 1179
1632 1 1207 1208 1147 1178
1633 1 1225 1209 1219 1226
1634 1 1229 1210 1220 1230
1635 1 1261 1211 1223 1262
1636 1 1265 1212 1224 1266
1637 1 1249 1213 1222 1250
1638 1 1253 1214 1221 1254
1639 1 1233 1215 1218 1234
1640 1 1237 1216 1217 1238
1641 1 1237 1217 1216 1238
1642 1 1233 1218 1215 1234
1643 1 1225 1219 1209 1226
1644 1 1229 1220 1210 1230
1645 1 1253 1221 1214 1254
1646 1 1249 1222 1213 1250
1647 1 1261 1223 1211 1262
1648 1 1265 1224 1212 1266
1649 1 1226 1225 1227 1245
1650 1 1225 1226 1209 1219
1651 1 1227 1226 1401 1228
1652 1 1245 1226 1347 1246
1653 1 1226 1227 1225 1245
1654 1 1401 1227 1346 1402
1655 1 1227 1228 1401 1226
1656 1 1230 1229 1231 1247
1657 1 1229 1230 1210 1220
1658 1 1231 1230 1398 1232
1659 1 1247 1230 1340 1248
1660 1 1230 1231 1229 1247
1661 1 1398 1231 1339 1399
1662 1 1231 1232 1398 1230
1663 1 1234 1233 1235 1243
1664 1 1233 1234 1215 1218
1665 1 1235 1234 1431 1236
1666 1 1243 1234 1316 1244
1667 1 1234 1235 1233 1243
1668 1 1431 1235 1315 1432
1669 1 1235 1236 1431 1234
1670 1 1238 1237 1239 1241
1671 1 1237 1238 1216 1217
1672 1 1239 1238 1428 1240
1673 1 1241 1238 1323 1242
1674 1 1238 1239 1237 1241
1675 1 1428 1239 1322 1429
1676 1 1239 1240 1428 1238
1677 1 1238 1241 1237 1239
1678 1 1323 1241 1322 1324
1679 1 1241 1242 1323 1238
1680 1 1234 1243 1233 1235
1681 1 1316 1243 1315 1317
1682 1 1243 1244 1316 1234
1683 1 1226 1245 1225 1227
1684 1 1347 1245 1346 1348
1685 1 1245 1246 1347 1226
1686 1 1230 1247 1229 1231
1687 1 1340 1247 1339 1341
1688 1 1247 1248 1340 1230
1689 1 1250 1249 1251 1259
1690 1 1249 1250 1213 1222
1691 1 1251 1250 153 1252
1692 1 1259 1250 81 1260
1693 1 153 1251 80 154
1694 1 1250 1251 1249 1259
1695 1 1251 1252 153 1250
1696 1 1254 1253 1255 1257
1697 1 1253 1254 1214 1221
1698 1 1255 1254 150 1256
1699 1 1257 1254 87 1258
1700 1 150 1255 86 151
1701 1 1254 1255 1253 1257
1702 1 1255 1256 150 1254
1703 1 87 1257 86 88
1704 1 1254 1257 1253 1255
1705 1 1257 1258 87 1254
1706 1 81 1259 80 82
1707 1 1250 1259 1249 1251
1708 1 1259 1260 81 1250
1709 1 1262 1261 1263 1269
1710 1 1261 1262 1211 1223
1711 1 1263 1262 2685 1264
1712 1 1269 1262 2655 1270
1713 1 1262 1263 1261 1269
1714 1 2685 1263 2654 2686
1715 1 1263 1264 2685 1262
1716 1 1266 1265 1267 1271
1717 1 1265 1266 1212 1224
1718 1 1267 1266 2682 1268
1719 1 1271 1266 2649 1272
1720 1 1266 1267 1265 1271
1721 1 2682 1267 2648 2683
1722 1 1267 1268 2682 1266
1723 1 1262 1269 1261 1263
1724 1 2655 1269 2654 2656
1725 1 1269 1270 2655 1262
1726 1 1266 1271 1265 1267
1727 1 2649 1271 2648 2650
1728 1 1271 1272 2649 1266
1729 1 1274 1273 1275 1286
1730 1 1275 1274 1276 1287
1731 1 1274 1275 1273 1286
1732 1 1276 1275 1277 3103
1733 1 1287 1275 1288 3085
1734 1 1275 1276 1274 1287
1735 1 3103 1276 3084 3104
1736 1 1276 1277 1275 3103
1737 1 1279 1278 1280 1283
1738 1 1280 1279 1281 1284
1739 1 1279 1280 1278 1283
1740 1 1281 1280 1282 3100
1741 1 1284 1280 1285 3091
1742 1 1280 1281 1279 1284
1743 1 3100 1281 3090 3101
1744 1 1281 1282 1280 3100
1745 1 1279 1283 1278 1280
1746 1 1280 1284 1279 1281
1747 1 3091 1284 3090 3092
1748 1 1284 1285 1280 3091
1749 1 1274 1286 1273 1275
1750 1 1275 1287 1274 1276
1751 1 3085 1287 3084 3086
1752 1 1287 1288 1275 3085
1753 1 1294 1293 1295 1303
1754 1 1295 1294 1296 1304
1755 1 1294 1295 1293 1303
1756 1 1296 1295 1297 571
1757 1 1304 1295 1305 523
1758 1 571 1296 522 572
1759 1 1295 1296 1294 1304
1760 1 1296 1297 1295 571
1761 1 1299 1298 1300 1306
1762 1 1300 1299 1301 1307
1763 1 1299 1300 1298 1306
1764 1 1301 1300 1302 568
1765 1 1307 1300 1308 517
1766 1 568 1301 516 569
1767 1 1300 1301 1299 1307
1768 1 1301 1302 1300 568
1769 1 1294 1303 1293 1295
1770 1 523 1304 522 524
1771 1 1295 1304 1294 1296
1772 1 1304 1305 1295 523
1773 1 1299 1306 1298 1300
1774 1 517 1307 516 518
1775 1 1300 1307 1299 1301
1776 1 1307 1308 1300 517
1777 1 1314 1313 1315 1430
1778 1 1315 1314 1316 1431
1779 1 1314 1315 1313 1430
1780 1 1316 1315 1317 1243
1781 1 1431 1315 1432 1235
1782 1 1243 1316 1234 1244
1783 1 1315 1316 1314 1431
1784 1 1316 1317 1315 1243
1785 1 1321 1320 1322 1427
1786 1 1322 1321 1323 1428
1787 1 1321 1322 1320 1427
1788 1 1323 1322 1324 1241
1789 1 1428 1322 1429 1239
1790 1 1241 1323 1238 1242
1791 1 1322 1323 1321 1428
1792 1 1323 1324 1322 1241
1793 1 1338 1337 1339 1397
1794 1 1339 1338 1340 1398
1795 1 1338 1339 1337 1397
1796 1 1340 1339 1341 1247
1797 1 1398 1339 1399 1231
1798 1 1247 1340 1230 1248
1799 1 1339 1340 1338 1398
1800 1 1340 1341 1339 1247
1801 1 1345 1344 1346 1400
1802 1 1346 1345 1347 1401
1803 1 1345 1346 1344 1400
1804 1 1347 1346 1348 1245
1805 1 1401 1346 1402 1227
1806 1 1245 1347 1226 1246
1807 1 1346 1347 1345 1401
1808 1 1347 1348 1346 1245
1809 1 1351 1350 1352 1424
1810 1 1352 1351 1353 1425
1811 1 1351 1352 1350 1424
1812 1 1353 1352 1354 835
1813 1 1425 1352 1426 827
1814 1 835 1353 826 836
1815 1 1352 1353 1351 1425
1816 1 1353 1354 1352 835
1817 1 1357 1356 1358 1421
1818 1 1358 1357 1359 1422
1819 1 1357 1358 1356 1421
1820 1 1359 1358 1360 833
1821 1 1422 1358 1423 831
1822 1 833 1359 830 834
1823 1 1358 1359 1357 1422
1824 1 1359 1360 1358 833
1825 1 1363 1362 1364 1415
1826 1 1364 1363 1365 1416
1827 1 1363 1364 1362 1415
1828 1 1365 1364 459 1366
1829 1 1416 1364 453 1417
1830 1 459 1365 452 460
1831 1 1364 1365 1363 1416
1832 1 1365 1366 459 1364
1833 1 1369 1368 1370 1418
1834 1 1370 1369 1371 1419
1835 1 1369 1370 1368 1418
1836 1 1371 1370 456 1372
1837 1 1419 1370 448 1420
1838 1 456 1371 447 457
1839 1 1370 1371 1369 1419
1840 1 1371 1372 456 1370
1841 1 1375 1374 1376 1409
1842 1 1376 1375 1377 1410
1843 1 1375 1376 1374 1409
1844 1 1377 1376 1378 3391
1845 1 1410 1376 1411 3387
1846 1 1376 1377 1375 1410
1847 1 3391 1377 3386 3392
1848 1 1377 1378 1376 3391
1849 1 1381 1380 1382 1412
1850 1 1382 1381 1383 1413
1851 1 1381 1382 1380 1412
1852 1 1383 1382 1384 3389
1853 1 1413 1382 1414 3383
1854 1 1382 1383 1381 1413
1855 1 3389 1383 3382 3390
1856 1 1383 1384 1382 3389
1857 1 1387 1386 1388 1406
1858 1 1388 1387 1389 1407
1859 1 1387 1388 1386 1406
1860 1 1389 1388 2983 1390
1861 1 1407 1388 2972 1408
1862 1 1388 1389 1387 1407
1863 1 2983 1389 2971 2984
1864 1 1389 1390 2983 1388
1865 1 1393 1392 1394 1403
1866 1 1394 1393 1395 1404
1867 1 1393 1394 1392 1403
1868 1 1395 1394 2980 1396
1869 1 1404 1394 2977 1405
1870 1 1394 1395 1393 1404
1871 1 2980 1395 2976 2981
1872 1 1395 1396 2980 1394
1873 1 1338 1397 1337 1339
1874 1 1231 1398 1230 1232
1875 1 1339 1398 1338 1340
1876 1 1398 1399 1339 1231
1877 1 1345 1400 1344 1346
1878 1 1227 1401 1226 1228
1879 1 1346 1401 1345 1347
1880 1 1401 1402 1346 1227
1881 1 1393 1403 1392 1394
1882 1 1394 1404 1393 1395
1883 1 2977 1404 2976 2978
1884 1 1404 1405 2977 1394
1885 1 1387 1406 1386 1388
1886 1 1388 1407 1387 1389
1887 1 2972 1407 2971 2973
1888 1 1407 1408 2972 1388
1889 1 1375 1409 1374 1376
1890 1 1376 1410 1375 1377
1891 1 3387 1410 3386 3388
1892 1 1410 1411 1376 3387
1893 1 1381 1412 1380 1382
1894 1 1382 1413 1381 1383
1895 1 3383 1413 3382 3384
1896 1 1413 1414 1382 3383
1897 1 1363 1415 1362 1364
1898 1 453 1416 452 454
1899 1 1364 1416 1363 1365
1900 1 1416 1417 453 1364
1901 1 1369 1418 1368 1370
1902 1 448 1419 447 449
1903 1 1370 1419 1369 1371
1904 1 1419 1420 448 1370
1905 1 1357 1421 1356 1358
1906 1 831 1422 830 832
1907 1 1358 1422 1357 1359
1908 1 1422 1423 1358 831
1909 1 1351 1424 1350 1352
1910 1 827 1425 826 828
1911 1 1352 1425 1351 1353
1912 1 1425 1426 1352 827
1913 1 1321 1427 1320 1322
1914 1 1239 1428 1238 1240
1915 1 1322 1428 1321 1323
1916 1 1428 1429 1322 1239
1917 1 1314 1430 1313 1315
1918 1 1235 1431 1234 1236
1919 1 1315 1431 1314 1316
1920 1 1431 1432 1315 1235
1921 1 1435 1434 1436 1548
1922 1 1436 1435 1437 1549
1923 1 1435 1436 1434 1548
1924 1 1437 1436 1438 1525
1925 1 1549 1436 1480 1550
1926 1 1436 1437 1435 1549
1927 1 1525 1437 1479 1526
1928 1 1437 1438 1436 1525
1929 1 1441 1440 1442 1545
1930 1 1442 1441 1443 1546
1931 1 1441 1442 1440 1545
1932 1 1443 1442 1444 1522
1933 1 1546 1442 1485 1547
1934 1 1442 1443 1441 1546
1935 1 1522 1443 1484 1523
1936 1 1443 1444 1442 1522
1937 1 1447 1446 1448 1551
1938 1 1448 1447 1449 1552
1939 1 1447 1448 1446 1551
1940 1 1449 1448 1450 1531
1941 1 1552 1448 1495 1553
1942 1 1448 1449 1447 1552
1943 1 1531 1449 1494 1532
1944 1 1449 1450 1448 1531
1945 1 1453 1452 1454 1554
1946 1 1454 1453 1455 1555
1947 1 1453 1454 1452 1554
1948 1 1455 1454 1456 1528
1949 1 1555 1454 1490 1556
1950 1 1454 1455 1453 1555
1951 1 1528 1455 1489 1529
1952 1 1455 1456 1454 1528
1953 1 1458 1457 1459 1563
1954 1 1459 1458 1460 1564
1955 1 1458 1459 1457 1563
1956 1 1460 1459 1461 1537
1957 1 1564 1459 1519 1565
1958 1 1459 1460 1458 1564
1959 1 1537 1460 1518 1538
1960 1 1460 1461 1459 1537
1961 1 1463 1462 1464 1566
1962 1 1464 1463 1465 1567
1963 1 1463 1464 1462 1566
1964 1 1465 1464 1466 1534
1965 1 1567 1464 1513 1568
1966 1 1464 1465 1463 1567
1967 1 1534 1465 1512 1535
1968 1 1465 1466 1464 1534
1969 1 1468 1467 1469 1560
1970 1 1469 1468 1470 1561
1971 1 1468 1469 1467 1560
1972 1 1470 1469 1471 1543
1973 1 1561 1469 1501 1562
1974 1 1469 1470 1468 1561
1975 1 1543 1470 1500 1544
1976 1 1470 1471 1469 1543
1977 1 1473 1472 1474 1557
1978 1 1474 1473 1475 1558
1979 1 1473 1474 1472 1557
1980 1 1475 1474 1476 1540
1981 1 1558 1474 1507 1559
1982 1 1474 1475 1473 1558
1983 1 1540 1475 1506 1541
1984 1 1475 1476 1474 1540
1985 1 1478 1477 1479 1524
1986 1 1479 1478 1480 1525
1987 1 1478 1479 1477 1524
1988 1 1480 1479 1481 1549
1989 1 1525 1479 1437 1526
1990 1 1479 1480 1478 1525
1991 1 1549 1480 1436 1550
1992 1 1480 1481 1479 1549
1993 1 1483 1482 1484 1521
1994 1 1484 1483 1485 1522
1995 1 1483 1484 1482 1521
1996 1 1485 1484 1486 1546
1997 1 1522 1484 1443 1523
1998 1 1484 1485 1483 1522
1999 1 1546 1485 1442 1547
2000 1 1485 1486 1484 1546
2001 1 1488 1487 1489 1527
2002 1 1489 1488 1490 1528
2003 1 1488 1489 1487 1527
2004 1 1490 1489 1491 1555
2005 1 1528 1489 1455 1529
2006 1 1489 1490 1488 1528
2007 1 1555 1490 1454 1556
2008 1 1490 1491 1489 1555
2009 1 1493 1492 1494 1530
2010 1 1494 1493 1495 1531
2011 1 1493 1494 1492 1530
2012 1 1495 1494 1496 1552
2013 1 1531 1494 1449 1532
2014 1 1494 1495 1493 1531
2015 1 1552 1495 1448 1553
2016 1 1495 1496 1494 1552
2017 1 1499 1498 1500 1542
2018 1 1500 1499 1501 1543
2019 1 1499 1500 1498 1542
2020 1 1501 1500 1502 1561
2021 1 1543 1500 1470 1544
2022 1 1500 1501 1499 1543
2023 1 1561 1501 1469 1562
2024 1 1501 1502 1500 1561
2025 1 1505 1504 1506 1539
2026 1 1506 1505 1507 1540
2027 1 1505 1506 1504 1539
2028 1 1507 1506 1508 1558
2029 1 1540 1506 1475 1541
2030 1 1506 1507 1505 1540
2031 1 1558 1507 1474 1559
2032 1 1507 1508 1506 1558
2033 1 1511 1510 1512 1533
2034 1 1512 1511 1513 1534
2035 1 1511 1512 1510 1533
2036 1 1513 1512 1514 1567
2037 1 1534 1512 1465 1535
2038 1 1512 1513 1511 1534
2039 1 1567 1513 1464 1568
2040 1 1513 1514 1512 1567
2041 1 1517 1516 1518 1536
2042 1 1518 1517 1519 1537
2043 1 1517 1518 1516 1536
2044 1 1519 1518 1520 1564
2045 1 1537 1518 1460 1538
2046 1 1518 1519 1517 1537
2047 1 1564 1519 1459 1565
2048 1 1519 1520 1518 1564
2049 1 1483 1521 1482 1484
2050 1 1443 1522 1442 1444
2051 1 1484 1522 1483 1485
2052 1 1522 1523 1443 1484
2053 1 1478 1524 1477 1479
2054 1 1437 1525 1436 1438
2055 1 1479 1525 1478 1480
2056 1 1525 1526 1437 1479
2057 1 1488 1527 1487 1489
2058 1 1455 1528 1454 1456
2059 1 1489 1528 1488 1490
2060 1 1528 1529 1455 1489
2061 1 1493 1530 1492 1494
2062 1 1449 1531 1448 1450
2063 1 1494 1531 1493 1495
2064 1 1531 1532 1449 1494
2065 1 1511 1533 1510 1512
2066 1 1465 1534 1464 1466
2067 1 1512 1534 1511 1513
2068 1 1534 1535 1465 1512
2069 1 1517 1536 1516 1518
2070 1 1460 1537 1459 1461
2071 1 1518 1537 1517 1519
2072 1 1537 1538 1460 1518
2073 1 1505 1539 1504 1506
2074 1 1475 1540 1474 1476
2075 1 1506 1540 1505 1507
2076 1 1540 1541 1475 1506
2077 1 1499 1542 1498 1500
2078 1 1470 1543 1469 1471
2079 1 1500 1543 1499 1501
2080 1 1543 1544 1470 1500
2081 1 1441 1545 1440 1442
2082 1 1442 1546 1441 1443
2083 1 1485 1546 1484 1486
2084 1 1546 1547 1442 1485
2085 1 1435 1548 1434 1436
2086 1 1436 1549 1435 1437
2087 1 1480 1549 1479 1481
2088 1 1549 1550 1436 1480
2089 1 1447 1551 1446 1448
2090 1 1448 1552 1447 1449
2091 1 1495 1552 1494 1496
2092 1 1552 1553 1448 1495
2093 1 1453 1554 1452 1454
2094 1 1454 1555 1453 1455
2095 1 1490 1555 1489 1491
2096 1 1555 1556 1454 1490
2097 1 1473 1557 1472 1474
2098 1 1474 1558 1473 1475
2099 1 1507 1558 1506 1508
2100 1 1558 1559 1474 1507
2101 1 1468 1560 1467 1469
2102 1 1469 1561 1468 1470
2103 1 1501 1561 1500 1502
2104 1 1561 1562 1469 1501
2105 1 1458 1563 1457 1459
2106 1 1459 1564 1458 1460
2107 1 1519 1564 1518 1520
2108 1 1564 1565 1459 1519
2109 1 1463 1566 1462 1464
2110 1 1464 1567 1463 1465
2111 1 1513 1567 1512 1514
2112 1 1567 1568 1464 1513
2113 1 1570 1569 1571 1630
2114 1 1571 1570 1572 1631
2115 1 1570 1571 1569 1630
2116 1 1572 1571 1573 1613
2117 1 1631 1571 1602 1632
2118 1 1571 1572 1570 1631
2119 1 1613 1572 1601 1614
2120 1 1572 1573 1571 1613
2121 1 1575 1574 1576 1627
2122 1 1576 1575 1577 1628
2123 1 1575 1576 1574 1627
2124 1 1577 1576 1578 1610
2125 1 1628 1576 1607 1629
2126 1 1576 1577 1575 1628
2127 1 1610 1577 1606 1611
2128 1 1577 1578 1576 1610
2129 1 1580 1579 1581 1621
2130 1 1581 1580 1582 1622
2131 1 1580 1581 1579 1621
2132 1 1582 1581 1583 1619
2133 1 1622 1581 1597 1623
2134 1 1581 1582 1580 1622
2135 1 1619 1582 1596 1620
2136 1 1582 1583 1581 1619
2137 1 1585 1584 1586 1624
2138 1 1586 1585 1587 1625
2139 1 1585 1586 1584 1624
2140 1 1587 1586 1588 1616
2141 1 1625 1586 1592 1626
2142 1 1586 1587 1585 1625
2143 1 1616 1587 1591 1617
2144 1 1587 1588 1586 1616
2145 1 1590 1589 1591 1615
2146 1 1591 1590 1592 1616
2147 1 1590 1591 1589 1615
2148 1 1592 1591 1593 1625
2149 1 1616 1591 1587 1617
2150 1 1591 1592 1590 1616
2151 1 1625 1592 1586 1626
2152 1 1592 1593 1591 1625
2153 1 1595 1594 1596 1618
2154 1 1596 1595 1597 1619
2155 1 1595 1596 1594 1618
2156 1 1597 1596 1598 1622
2157 1 1619 1596 1582 1620
2158 1 1596 1597 1595 1619
2159 1 1622 1597 1581 1623
2160 1 1597 1598 1596 1622
2161 1 1600 1599 1601 1612
2162 1 1601 1600 1602 1613
2163 1 1600 1601 1599 1612
2164 1 1602 1601 1603 1631
2165 1 1613 1601 1572 1614
2166 1 1601 1602 1600 1613
2167 1 1631 1602 1571 1632
2168 1 1602 1603 1601 1631
2169 1 1605 1604 1606 1609
2170 1 1606 1605 1607 1610
2171 1 1605 1606 1604 1609
2172 1 1607 1606 1608 1628
2173 1 1610 1606 1577 1611
2174 1 1606 1607 1605 1610
2175 1 1628 1607 1576 1629
2176 1 1607 1608 1606 1628
2177 1 1605 1609 1604 1606
2178 1 1577 1610 1576 1578
2179 1 1606 1610 1605 1607
2180 1 1610 1611 1577 1606
2181 1 1600 1612 1599 1601
2182 1 1572 1613 1571 1573
2183 1 1601 1613 1600 1602
2184 1 1613 1614 1572 1601
2185 1 1590 1615 1589 1591
2186 1 1587 1616 1586 1588
2187 1 1591 1616 1590 1592
2188 1 1616 1617 1587 1591
2189 1 1595 1618 1594 1596
2190 1 1582 1619 1581 1583
2191 1 1596 1619 1595 1597
2192 1 1619 1620 1582 1596
2193 1 1580 1621 1579 1581
2194 1 1581 1622 1580 1582
2195 1 1597 1622 1596 1598
2196 1 1622 1623 1581 1597
2197 1 1585 1624 1584 1586
2198 1 1586 1625 1585 1587
2199 1 1592 1625 1591 1593
2200 1 1625 1626 1586 1592
2201 1 1575 1627 1574 1576
2202 1 1576 1628 1575 1577
2203 1 1607 1628 1606 1608
2204 1 1628 1629 1576 1607
2205 1 1570 1630 1569 1571
2206 1 1571 1631 1570 1572
2207 1 1602 1631 1601 1603
2208 1 1631 1632 1571 1602
2209 1 1649 1633 1643 1650
2210 1 1653 1634 1644 1654
2211 1 1685 1635 1647 1686
2212 1 1689 1636 1648 1690
2213 1 1673 1637 1646 1674
2214 1 1677 1638 1645 1678
2215 1 1657 1639 1642 1658
2216 1 1661 1640 1641 1662
2217 1 1661 1641 1640 1662
2218 1 1657 1642 1639 1658
2219 1 1649 1643 1633 1650
2220 1 1653 1644 1634 1654
2221 1 1677 1645 1638 1678
2222 1 1673 1646 1637 1674
2223 1 1685 1647 1635 1686
2224 1 1689 1648 1636 1690
2225 1 1650 1649 1651 1669
2226 1 1649 1650 1633 1643
2227 1 1651 1650 977 1652
2228 1 1669 1650 923 1670
2229 1 977 1651 922 978
2230 1 1650 1651 1649 1669
2231 1 1651 1652 977 1650
2232 1 1654 1653 1655 1671
2233 1 1653 1654 1634 1644
2234 1 1655 1654 974 1656
2235 1 1671 1654 916 1672
2236 1 974 1655 915 975
2237 1 1654 1655 1653 1671
2238 1 1655 1656 974 1654
2239 1 1658 1657 1659 1667
2240 1 1657 1658 1639 1642
2241 1 1659 1658 1007 1660
2242 1 1667 1658 892 1668
2243 1 1007 1659 891 1008
2244 1 1658 1659 1657 1667
2245 1 1659 1660 1007 1658
2246 1 1662 1661 1663 1665
2247 1 1661 1662 1640 1641
2248 1 1663 1662 1004 1664
2249 1 1665 1662 899 1666
2250 1 1004 1663 898 1005
2251 1 1662 1663 1661 1665
2252 1 1663 1664 1004 1662
2253 1 899 1665 898 900
2254 1 1662 1665 1661 1663
2255 1 1665 1666 899 1662
2256 1 892 1667 891 893
2257 1 1658 1667 1657 1659
2258 1 1667 1668 892 1658
2259 1 923 1669 922 924
2260 1 1650 1669 1649 1651
2261 1 1669 1670 923 1650
2262 1 916 1671 915 917
2263 1 1654 1671 1653 1655
2264 1 1671 1672 916 1654
2265 1 1674 1673 1675 1683
2266 1 1673 1674 1637 1646
2267 1 1675 1674 577 1676
2268 1 1683 1674 505 1684
2269 1 577 1675 504 578
2270 1 1674 1675 1673 1683
2271 1 1675 1676 577 1674
2272 1 1678 1677 1679 1681
2273 1 1677 1678 1638 1645
2274 1 1679 1678 574 1680
2275 1 1681 1678 511 1682
2276 1 574 1679 510 575
2277 1 1678 1679 1677 1681
2278 1 1679 1680 574 1678
2279 1 511 1681 510 512
2280 1 1678 1681 1677 1679
2281 1 1681 1682 511 1678
2282 1 505 1683 504 506
2283 1 1674 1683 1673 1675
2284 1 1683 1684 505 1674
2285 1 1686 1685 1687 1693
2286 1 1685 1686 1635 1647
2287 1 1687 1686 3109 1688
2288 1 1693 1686 3079 1694
2289 1 1686 1687 1685 1693
2290 1 3109 1687 3078 3110
2291 1 1687 1688 3109 1686
2292 1 1690 1689 1691 1695
2293 1 1689 1690 1636 1648
2294 1 1691 1690 3106 1692
2295 1 1695 1690 3073 1696
2296 1 1690 1691 1689 1695
2297 1 3106 1691 3072 3107
2298 1 1691 1692 3106 1690
2299 1 1686 1693 1685 1687
2300 1 3079 1693 3078 3080
2301 1 1693 1694 3079 1686
2302 1 1690 1695 1689 1691
2303 1 3073 1695 3072 3074
2304 1 1695 1696 3073 1690
2305 1 1698 1697 1699 1710
2306 1 1699 1698 1700 1711
2307 1 1698 1699 1697 1710
2308 1 1700 1699 1701 135
2309 1 1711 1699 1712 117
2310 1 135 1700 116 136
2311 1 1699 1700 1698 1711
2312 1 1700 1701 1699 135
2313 1 1703 1702 1704 1707
2314 1 1704 1703 1705 1708
2315 1 1703 1704 1702 1707
2316 1 1705 1704 1706 132
2317 1 1708 1704 1709 123
2318 1 132 1705 122 133
2319 1 1704 1705 1703 1708
2320 1 1705 1706 1704 132
2321 1 1703 1707 1702 1704
2322 1 123 1708 122 124
2323 1 1704 1708 1703 1705
2324 1 1708 1709 1704 123
2325 1 1698 1710 1697 1699
2326 1 117 1711 116 118
2327 1 1699 1711 1698 1700
2328 1 1711 1712 1699 117
2329 1 1718 1717 1719 1727
2330 1 1719 1718 1720 1728
2331 1 1718 1719 1717 1727
2332 1 1720 1719 1721 2691
2333 1 1728 1719 1729 2643
2334 1 1719 1720 1718 1728
2335 1 2691 1720 2642 2692
2336 1 1720 1721 1719 2691
2337 1 1723 1722 1724 1730
2338 1 1724 1723 1725 1731
2339 1 1723 1724 1722 1730
2340 1 1725 1724 1726 2688
2341 1 1731 1724 1732 2637
2342 1 1724 1725 1723 1731
2343 1 2688 1725 2636 2689
2344 1 1725 1726 1724 2688
2345 1 1718 1727 1717 1719
2346 1 1719 1728 1718 1720
2347 1 2643 1728 2642 2644
2348 1 1728 1729 1719 2643
2349 1 1723 1730 1722 1724
2350 1 1724 1731 1723 1725
2351 1 2637 1731 2636 2638
2352 1 1731 1732 1724 2637
2353 1 1738 1737 1739 1854
2354 1 1739 1738 1740 1855
2355 1 1738 1739 1737 1854
2356 1 1740 1739 1741 2515
2357 1 1855 1739 1856 2507
2358 1 1739 1740 1738 1855
2359 1 2515 1740 2506 2516
2360 1 1740 1741 1739 2515
2361 1 1745 1744 1746 1851
2362 1 1746 1745 1747 1852
2363 1 1745 1746 1744 1851
2364 1 1747 1746 1748 2513
2365 1 1852 1746 1853 2511
2366 1 1746 1747 1745 1852
2367 1 2513 1747 2510 2514
2368 1 1747 1748 1746 2513
2369 1 1762 1761 1763 1821
2370 1 1763 1762 1764 1822
2371 1 1762 1763 1761 1821
2372 1 1764 1763 1765 2519
2373 1 1822 1763 1823 2503
2374 1 1763 1764 1762 1822
2375 1 2519 1764 2502 2520
2376 1 1764 1765 1763 2519
2377 1 1769 1768 1770 1824
2378 1 1770 1769 1771 1825
2379 1 1769 1770 1768 1824
2380 1 1771 1770 1772 2517
2381 1 1825 1770 1826 2499
2382 1 1770 1771 1769 1825
2383 1 2517 1771 2498 2518
2384 1 1771 1772 1770 2517
2385 1 1775 1774 1776 1848
2386 1 1776 1775 1777 1849
2387 1 1775 1776 1774 1848
2388 1 1777 1776 1778 2955
2389 1 1849 1776 1850 2947
2390 1 1776 1777 1775 1849
2391 1 2955 1777 2946 2956
2392 1 1777 1778 1776 2955
2393 1 1781 1780 1782 1845
2394 1 1782 1781 1783 1846
2395 1 1781 1782 1780 1845
2396 1 1783 1782 1784 2953
2397 1 1846 1782 1847 2951
2398 1 1782 1783 1781 1846
2399 1 2953 1783 2950 2954
2400 1 1783 1784 1782 2953
2401 1 1787 1786 1788 1839
2402 1 1788 1787 1789 1840
2403 1 1787 1788 1786 1839
2404 1 1789 1788 2579 1790
2405 1 1840 1788 2573 1841
2406 1 1788 1789 1787 1840
2407 1 2579 1789 2572 2580
2408 1 1789 1790 2579 1788
2409 1 1793 1792 1794 1842
2410 1 1794 1793 1795 1843
2411 1 1793 1794 1792 1842
2412 1 1795 1794 2576 1796
2413 1 1843 1794 2568 1844
2414 1 1794 1795 1793 1843
2415 1 2576 1795 2567 2577
2416 1 1795 1796 2576 1794
2417 1 1799 1798 1800 1833
2418 1 1800 1799 1801 1834
2419 1 1799 1800 1798 1833
2420 1 1801 1800 1802 423
2421 1 1834 1800 1835 419
2422 1 423 1801 418 424
2423 1 1800 1801 1799 1834
2424 1 1801 1802 1800 423
2425 1 1805 1804 1806 1836
2426 1 1806 1805 1807 1837
2427 1 1805 1806 1804 1836
2428 1 1807 1806 1808 421
2429 1 1837 1806 1838 415
2430 1 421 1807 414 422
2431 1 1806 1807 1805 1837
2432 1 1807 1808 1806 421
2433 1 1811 1810 1812 1830
2434 1 1812 1811 1813 1831
2435 1 1811 1812 1810 1830
2436 1 1813 1812 15 1814
2437 1 1831 1812 4 1832
2438 1 15 1813 3 16
2439 1 1812 1813 1811 1831
2440 1 1813 1814 15 1812
2441 1 1817 1816 1818 1827
2442 1 1818 1817 1819 1828
2443 1 1817 1818 1816 1827
2444 1 1819 1818 12 1820
2445 1 1828 1818 9 1829
2446 1 12 1819 8 13
2447 1 1818 1819 1817 1828
2448 1 1819 1820 12 1818
2449 1 1762 1821 1761 1763
2450 1 1763 1822 1762 1764
2451 1 2503 1822 2502 2504
2452 1 1822 1823 1763 2503
2453 1 1769 1824 1768 1770
2454 1 1770 1825 1769 1771
2455 1 2499 1825 2498 2500
2456 1 1825 1826 1770 2499
2457 1 1817 1827 1816 1818
2458 1 9 1828 8 10
2459 1 1818 1828 1817 1819
2460 1 1828 1829 9 1818
2461 1 1811 1830 1810 1812
2462 1 4 1831 3 5
2463 1 1812 1831 1811 1813
2464 1 1831 1832 4 1812
2465 1 1799 1833 1798 1800
2466 1 419 1834 418 420
2467 1 1800 1834 1799 1801
2468 1 1834 1835 1800 419
2469 1 1805 1836 1804 1806
2470 1 415 1837 414 416
2471 1 1806 1837 1805 1807
2472 1 1837 1838 1806 415
2473 1 1787 1839 1786 1788
2474 1 1788 1840 1787 1789
2475 1 2573 1840 2572 2574
2476 1 1840 1841 2573 1788
2477 1 1793 1842 1792 1794
2478 1 1794 1843 1793 1795
2479 1 2568 1843 2567 2569
2480 1 1843 1844 2568 1794
2481 1 1781 1845 1780 1782
2482 1 1782 1846 1781 1783
2483 1 2951 1846 2950 2952
2484 1 1846 1847 1782 2951
2485 1 1775 1848 1774 1776
2486 1 1776 1849 1775 1777
2487 1 2947 1849 2946 2948
2488 1 1849 1850 1776 2947
2489 1 1745 1851 1744 1746
2490 1 1746 1852 1745 1747
2491 1 2511 1852 2510 2512
2492 1 1852 1853 1746 2511
2493 1 1738 1854 1737 1739
2494 1 1739 1855 1738 1740
2495 1 2507 1855 2506 2508
2496 1 1855 1856 1739 2507
2497 1 1859 1858 1860 1972
2498 1 1860 1859 1861 1973
2499 1 1859 1860 1858 1972
2500 1 1861 1860 1862 1949
2501 1 1973 1860 1904 1974
2502 1 1860 1861 1859 1973
2503 1 1949 1861 1903 1950
2504 1 1861 1862 1860 1949
2505 1 1865 1864 1866 1969
2506 1 1866 1865 1867 1970
2507 1 1865 1866 1864 1969
2508 1 1867 1866 1868 1946
2509 1 1970 1866 1909 1971
2510 1 1866 1867 1865 1970
2511 1 1946 1867 1908 1947
2512 1 1867 1868 1866 1946
2513 1 1871 1870 1872 1975
2514 1 1872 1871 1873 1976
2515 1 1871 1872 1870 1975
2516 1 1873 1872 1874 1955
2517 1 1976 1872 1919 1977
2518 1 1872 1873 1871 1976
2519 1 1955 1873 1918 1956
2520 1 1873 1874 1872 1955
2521 1 1877 1876 1878 1978
2522 1 1878 1877 1879 1979
2523 1 1877 1878 1876 1978
2524 1 1879 1878 1880 1952
2525 1 1979 1878 1914 1980
2526 1 1878 1879 1877 1979
2527 1 1952 1879 1913 1953
2528 1 1879 1880 1878 1952
2529 1 1882 1881 1883 1987
2530 1 1883 1882 1884 1988
2531 1 1882 1883 1881 1987
2532 1 1884 1883 1885 1961
2533 1 1988 1883 1943 1989
2534 1 1883 1884 1882 1988
2535 1 1961 1884 1942 1962
2536 1 1884 1885 1883 1961
2537 1 1887 1886 1888 1990
2538 1 1888 1887 1889 1991
2539 1 1887 1888 1886 1990
2540 1 1889 1888 1890 1958
2541 1 1991 1888 1937 1992
2542 1 1888 1889 1887 1991
2543 1 1958 1889 1936 1959
2544 1 1889 1890 1888 1958
2545 1 1892 1891 1893 1984
2546 1 1893 1892 1894 1985
2547 1 1892 1893 1891 1984
2548 1 1894 1893 1895 1967
2549 1 1985 1893 1925 1986
2550 1 1893 1894 1892 1985
2551 1 1967 1894 1924 1968
2552 1 1894 1895 1893 1967
2553 1 1897 1896 1898 1981
2554 1 1898 1897 1899 1982
2555 1 1897 1898 1896 1981
2556 1 1899 1898 1900 1964
2557 1 1982 1898 1931 1983
2558 1 1898 1899 1897 1982
2559 1 1964 1899 1930 1965
2560 1 1899 1900 1898 1964
2561 1 1902 1901 1903 1948
2562 1 1903 1902 1904 1949
2563 1 1902 1903 1901 1948
2564 1 1904 1903 1905 1973
2565 1 1949 1903 1861 1950
2566 1 1903 1904 1902 1949
2567 1 1973 1904 1860 1974
2568 1 1904 1905 1903 1973
2569 1 1907 1906 1908 1945
2570 1 1908 1907 1909 1946
2571 1 1907 1908 1906 1945
2572 1 1909 1908 1910 1970
2573 1 1946 1908 1867 1947
2574 1 1908 1909 1907 1946
2575 1 1970 1909 1866 1971
2576 1 1909 1910 1908 1970
2577 1 1912 1911 1913 1951
2578 1 1913 1912 1914 1952
2579 1 1912 1913 1911 1951
2580 1 1914 1913 1915 1979
2581 1 1952 1913 1879 1953
2582 1 1913 1914 1912 1952
2583 1 1979 1914 1878 1980
2584 1 1914 1915 1913 1979
2585 1 1917 1916 1918 1954
2586 1 1918 1917 1919 1955
2587 1 1917 1918 1916 1954
2588 1 1919 1918 1920 1976
2589 1 1955 1918 1873 1956
2590 1 1918 1919 1917 1955
2591 1 1976 1919 1872 1977
2592 1 1919 1920 1918 1976
2593 1 1923 1922 1924 1966
2594 1 1924 1923 1925 1967
2595 1 1923 1924 1922 1966
2596 1 1925 1924 1926 1985
2597 1 1967 1924 1894 1968
2598 1 1924 1925 1923 1967
2599 1 1985 1925 1893 1986
2600 1 1925 1926 1924 1985
2601 1 1929 1928 1930 1963
2602 1 1930 1929 1931 1964
2603 1 1929 1930 1928 1963
2604 1 1931 1930 1932 1982
2605 1 1964 1930 1899 1965
2606 1 1930 1931 1929 1964
2607 1 1982 1931 1898 1983
2608 1 1931 1932 1930 1982
2609 1 1935 1934 1936 1957
2610 1 1936 1935 1937 1958
2611 1 1935 1936 1934 1957
2612 1 1937 1936 1938 1991
2613 1 1958 1936 1889 1959
2614 1 1936 1937 1935 1958
2615 1 1991 1937 1888 1992
2616 1 1937 1938 1936 1991
2617 1 1941 1940 1942 1960
2618 1 1942 1941 1943 1961
2619 1 1941 1942 1940 1960
2620 1 1943 1942 1944 1988
2621 1 1961 1942 1884 1962
2622 1 1942 1943 1941 1961
2623 1 1988 1943 1883 1989
2624 1 1943 1944 1942 1988
2625 1 1907 1945 1906 1908
2626 1 1867 1946 1866 1868
2627 1 1908 1946 1907 1909
2628 1 1946 1947 1867 1908
2629 1 1902 1948 1901 1903
2630 1 1861 1949 1860 1862
2631 1 1903 1949 1902 1904
2632 1 1949 1950 1861 1903
2633 1 1912 1951 1911 1913
2634 1 1879 1952 1878 1880
2635 1 1913 1952 1912 1914
2636 1 1952 1953 1879 1913
2637 1 1917 1954 1916 1918
2638 1 1873 1955 1872 1874
2639 1 1918 1955 1917 1919
2640 1 1955 1956 1873 1918
2641 1 1935 1957 1934 1936
2642 1 1889 1958 1888 1890
2643 1 1936 1958 1935 1937
2644 1 1958 1959 1889 1936
2645 1 1941 1960 1940 1942
2646 1 1884 1961 1883 1885
2647 1 1942 1961 1941 1943
2648 1 1961 1962 1884 1942
2649 1 1929 1963 1928 1930
2650 1 1899 1964 1898 1900
2651 1 1930 1964 1929 1931
2652 1 1964 1965 1899 1930
2653 1 1923 1966 1922 1924
2654 1 1894 1967 1893 1895
2655 1 1924 1967 1923 1925
2656 1 1967 1968 1894 1924
2657 1 1865 1969 1864 1866
2658 1 1866 1970 1865 1867
2659 1 1909 1970 1908 1910
2660 1 1970 1971 1866 1909
2661 1 1859 1972 1858 1860
2662 1 1860 1973 1859 1861
2663 1 1904 1973 1903 1905
2664 1 1973 1974 1860 1904
2665 1 1871 1975 1870 1872
2666 1 1872 1976 1871 1873
2667 1 1919 1976 1918 1920
2668 1 1976 1977 1872 1919
2669 1 1877 1978 1876 1878
2670 1 1878 1979 1877 1879
2671 1 1914 1979 1913 1915
2672 1 1979 1980 1878 1914
2673 1 1897 1981 1896 1898
2674 1 1898 1982 1897 1899
2675 1 1931 1982 1930 1932
2676 1 1982 1983 1898 1931
2677 1 1892 1984 1891 1893
2678 1 1893 1985 1892 1894
2679 1 1925 1985 1924 1926
2680 1 1985 1986 1893 1925
2681 1 1882 1987 1881 1883
2682 1 1883 1988 1882 1884
2683 1 1943 1988 1942 1944
2684 1 1988 1989 1883 1943
2685 1 1887 1990 1886 1888
2686 1 1888 1991 1887 1889
2687 1 1937 1991 1936 1938
2688 1 1991 1992 1888 1937
2689 1 1994 1993 1995 2054
2690 1 1995 1994 1996 2055
2691 1 1994 1995 1993 2054
2692 1 1996 1995 1997 2037
2693 1 2055 1995 2026 2056
2694 1 1995 1996 1994 2055
2695 1 2037 1996 2025 2038
2696 1 1996 1997 1995 2037
2697 1 1999 1998 2000 2051
2698 1 2000 1999 2001 2052
2699 1 1999 2000 1998 2051
2700 1 2001 2000 2002 2034
2701 1 2052 2000 2031 2053
2702 1 2000 2001 1999 2052
2703 1 2034 2001 2030 2035
2704 1 2001 2002 2000 2034
2705 1 2004 2003 2005 2045
2706 1 2005 2004 2006 2046
2707 1 2004 2005 2003 2045
2708 1 2006 2005 2007 2043
2709 1 2046 2005 2021 2047
2710 1 2005 2006 2004 2046
2711 1 2043 2006 2020 2044
2712 1 2006 2007 2005 2043
2713 1 2009 2008 2010 2048
2714 1 2010 2009 2011 2049
2715 1 2009 2010 2008 2048
2716 1 2011 2010 2012 2040
2717 1 2049 2010 2016 2050
2718 1 2010 2011 2009 2049
2719 1 2040 2011 2015 2041
2720 1 2011 2012 2010 2040
2721 1 2014 2013 2015 2039
2722 1 2015 2014 2016 2040
2723 1 2014 2015 2013 2039
2724 1 2016 2015 2017 2049
2725 1 2040 2015 2011 2041
2726 1 2015 2016 2014 2040
2727 1 2049 2016 2010 2050
2728 1 2016 2017 2015 2049
2729 1 2019 2018 2020 2042
2730 1 2020 2019 2021 2043
2731 1 2019 2020 2018 2042
2732 1 2021 2020 2022 2046
2733 1 2043 2020 2006 2044
2734 1 2020 2021 2019 2043
2735 1 2046 2021 2005 2047
2736 1 2021 2022 2020 2046
2737 1 2024 2023 2025 2036
2738 1 2025 2024 2026 2037
2739 1 2024 2025 2023 2036
2740 1 2026 2025 2027 2055
2741 1 2037 2025 1996 2038
2742 1 2025 2026 2024 2037
2743 1 2055 2026 1995 2056
2744 1 2026 2027 2025 2055
2745 1 2029 2028 2030 2033
2746 1 2030 2029 2031 2034
2747 1 2029 2030 2028 2033
2748 1 2031 2030 2032 2052
2749 1 2034 2030 2001 2035
2750 1 2030 2031 2029 2034
2751 1 2052 2031 2000 2053
2752 1 2031 2032 2030 2052
2753 1 2029 2033 2028 2030
2754 1 2001 2034 2000 2002
2755 1 2030 2034 2029 2031
2756 1 2034 2035 2001 2030
2757 1 2024 2036 2023 2025
2758 1 1996 2037 1995 1997
2759 1 2025 2037 2024 2026
2760 1 2037 2038 1996 2025
2761 1 2014 2039 2013 2015
2762 1 2011 2040 2010 2012
2763 1 2015 2040 2014 2016
2764 1 2040 2041 2011 2015
2765 1 2019 2042 2018 2020
2766 1 2006 2043 2005 2007
2767 1 2020 2043 2019 2021
2768 1 2043 2044 2006 2020
2769 1 2004 2045 2003 2005
2770 1 2005 2046 2004 2006
2771 1 2021 2046 2020 2022
2772 1 2046 2047 2005 2021
2773 1 2009 2048 2008 2010
2774 1 2010 2049 2009 2011
2775 1 2016 2049 2015 2017
2776 1 2049 2050 2010 2016
2777 1 1999 2051 1998 2000
2778 1 2000 2052 1999 2001
2779 1 2031 2052 2030 2032
2780 1 2052 2053 2000 2031
2781 1 1994 2054 1993 1995
2782 1 1995 2055 1994 1996
2783 1 2026 2055 2025 2027
2784 1 2055 2056 1995 2026
2785 1 2073 2057 2067 2074
2786 1 2077 2058 2068 2078
2787 1 2109 2059 2071 2110
2788 1 2113 2060 2072 2114
2789 1 2097 2061 2070 2098
2790 1 2101 2062 2069 2102
2791 1 2081 2063 2066 2082
2792 1 2085 2064 2065 2086
2793 1 2085 2065 2064 2086
2794 1 2081 2066 2063 2082
2795 1 2073 2067 2057 2074
2796 1 2077 2068 2058 2078
2797 1 2101 2069 2062 2102
2798 1 2097 2070 2061 2098
2799 1 2109 2071 2059 2110
2800 1 2113 2072 2060 2114
2801 1 2074 2073 2075 2093
2802 1 2073 2074 2057 2067
2803 1 2075 2074 2249 2076
2804 1 2093 2074 2195 2094
2805 1 2074 2075 2073 2093
2806 1 2249 2075 2194 2250
2807 1 2075 2076 2249 2074
2808 1 2078 2077 2079 2095
2809 1 2077 2078 2058 2068
2810 1 2079 2078 2246 2080
2811 1 2095 2078 2188 2096
2812 1 2078 2079 2077 2095
2813 1 2246 2079 2187 2247
2814 1 2079 2080 2246 2078
2815 1 2082 2081 2083 2091
2816 1 2081 2082 2063 2066
2817 1 2083 2082 2279 2084
2818 1 2091 2082 2164 2092
2819 1 2082 2083 2081 2091
2820 1 2279 2083 2163 2280
2821 1 2083 2084 2279 2082
2822 1 2086 2085 2087 2089
2823 1 2085 2086 2064 2065
2824 1 2087 2086 2276 2088
2825 1 2089 2086 2171 2090
2826 1 2086 2087 2085 2089
2827 1 2276 2087 2170 2277
2828 1 2087 2088 2276 2086
2829 1 2086 2089 2085 2087
2830 1 2171 2089 2170 2172
2831 1 2089 2090 2171 2086
2832 1 2082 2091 2081 2083
2833 1 2164 2091 2163 2165
2834 1 2091 2092 2164 2082
2835 1 2074 2093 2073 2075
2836 1 2195 2093 2194 2196
2837 1 2093 2094 2195 2074
2838 1 2078 2095 2077 2079
2839 1 2188 2095 2187 2189
2840 1 2095 2096 2188 2078
2841 1 2098 2097 2099 2107
2842 1 2097 2098 2061 2070
2843 1 2099 2098 2697 2100
2844 1 2107 2098 2625 2108
2845 1 2098 2099 2097 2107
2846 1 2697 2099 2624 2698
2847 1 2099 2100 2697 2098
2848 1 2102 2101 2103 2105
2849 1 2101 2102 2062 2069
2850 1 2103 2102 2694 2104
2851 1 2105 2102 2631 2106
2852 1 2102 2103 2101 2105
2853 1 2694 2103 2630 2695
2854 1 2103 2104 2694 2102
2855 1 2102 2105 2101 2103
2856 1 2631 2105 2630 2632
2857 1 2105 2106 2631 2102
2858 1 2098 2107 2097 2099
2859 1 2625 2107 2624 2626
2860 1 2107 2108 2625 2098
2861 1 2110 2109 2111 2117
2862 1 2109 2110 2059 2071
2863 1 2111 2110 141 2112
2864 1 2117 2110 111 2118
2865 1 141 2111 110 142
2866 1 2110 2111 2109 2117
2867 1 2111 2112 141 2110
2868 1 2114 2113 2115 2119
2869 1 2113 2114 2060 2072
2870 1 2115 2114 138 2116
2871 1 2119 2114 105 2120
2872 1 138 2115 104 139
2873 1 2114 2115 2113 2119
2874 1 2115 2116 138 2114
2875 1 111 2117 110 112
2876 1 2110 2117 2109 2111
2877 1 2117 2118 111 2110
2878 1 105 2119 104 106
2879 1 2114 2119 2113 2115
2880 1 2119 2120 105 2114
2881 1 2122 2121 2123 2134
2882 1 2123 2122 2124 2135
2883 1 2122 2123 2121 2134
2884 1 2124 2123 2125 559
2885 1 2135 2123 2136 541
2886 1 559 2124 540 560
2887 1 2123 2124 2122 2135
2888 1 2124 2125 2123 559
2889 1 2127 2126 2128 2131
2890 1 2128 2127 2129 2132
2891 1 2127 2128 2126 2131
2892 1 2129 2128 2130 556
2893 1 2132 2128 2133 547
2894 1 556 2129 546 557
2895 1 2128 2129 2127 2132
2896 1 2129 2130 2128 556
2897 1 2127 2131 2126 2128
2898 1 547 2132 546 548
2899 1 2128 2132 2127 2129
2900 1 2132 2133 2128 547
2901 1 2122 2134 2121 2123
2902 1 541 2135 540 542
2903 1 2123 2135 2122 2124
2904 1 2135 2136 2123 541
2905 1 2142 2141 2143 2151
2906 1 2143 2142 2144 2152
2907 1 2142 2143 2141 2151
2908 1 2144 2143 2145 3115
2909 1 2152 2143 2153 3067
2910 1 2143 2144 2142 2152
2911 1 3115 2144 3066 3116
2912 1 2144 2145 2143 3115
2913 1 2147 2146 2148 2154
2914 1 2148 2147 2149 2155
2915 1 2147 2148 2146 2154
2916 1 2149 2148 2150 3112
2917 1 2155 2148 2156 3061
2918 1 2148 2149 2147 2155
2919 1 3112 2149 3060 3113
2920 1 2149 2150 2148 3112
2921 1 2142 2151 2141 2143
2922 1 2143 2152 2142 2144
2923 1 3067 2152 3066 3068
2924 1 2152 2153 2143 3067
2925 1 2147 2154 2146 2148
2926 1 2148 2155 2147 2149
2927 1 3061 2155 3060 3062
2928 1 2155 2156 2148 3061
2929 1 2162 2161 2163 2278
2930 1 2163 2162 2164 2279
2931 1 2162 2163 2161 2278
2932 1 2164 2163 2165 2091
2933 1 2279 2163 2280 2083
2934 1 2091 2164 2082 2092
2935 1 2163 2164 2162 2279
2936 1 2164 2165 2163 2091
2937 1 2169 2168 2170 2275
2938 1 2170 2169 2171 2276
2939 1 2169 2170 2168 2275
2940 1 2171 2170 2172 2089
2941 1 2276 2170 2277 2087
2942 1 2089 2171 2086 2090
2943 1 2170 2171 2169 2276
2944 1 2171 2172 2170 2089
2945 1 2186 2185 2187 2245
2946 1 2187 2186 2188 2246
2947 1 2186 2187 2185 2245
2948 1 2188 2187 2189 2095
2949 1 2246 2187 2247 2079
2950 1 2095 2188 2078 2096
2951 1 2187 2188 2186 2246
2952 1 2188 2189 2187 2095
2953 1 2193 2192 2194 2248
2954 1 2194 2193 2195 2249
2955 1 2193 2194 2192 2248
2956 1 2195 2194 2196 2093
2957 1 2249 2194 2250 2075
2958 1 2093 2195 2074 2094
2959 1 2194 2195 2193 2249
2960 1 2195 2196 2194 2093
2961 1 2199 2198 2200 2272
2962 1 2200 2199 2201 2273
2963 1 2199 2200 2198 2272
2964 1 2201 2200 2202 3379
2965 1 2273 2200 2274 3371
2966 1 2200 2201 2199 2273
2967 1 3379 2201 3370 3380
2968 1 2201 2202 2200 3379
2969 1 2205 2204 2206 2269
2970 1 2206 2205 2207 2270
2971 1 2205 2206 2204 2269
2972 1 2207 2206 2208 3377
2973 1 2270 2206 2271 3375
2974 1 2206 2207 2205 2270
2975 1 3377 2207 3374 3378
2976 1 2207 2208 2206 3377
2977 1 2211 2210 2212 2263
2978 1 2212 2211 2213 2264
2979 1 2211 2212 2210 2263
2980 1 2213 2212 3003 2214
2981 1 2264 2212 2997 2265
2982 1 2212 2213 2211 2264
2983 1 3003 2213 2996 3004
2984 1 2213 2214 3003 2212
2985 1 2217 2216 2218 2266
2986 1 2218 2217 2219 2267
2987 1 2217 2218 2216 2266
2988 1 2219 2218 3000 2220
2989 1 2267 2218 2992 2268
2990 1 2218 2219 2217 2267
2991 1 3000 2219 2991 3001
2992 1 2219 2220 3000 2218
2993 1 2223 2222 2224 2257
2994 1 2224 2223 2225 2258
2995 1 2223 2224 2222 2257
2996 1 2225 2224 2226 847
2997 1 2258 2224 2259 843
2998 1 847 2225 842 848
2999 1 2224 2225 2223 2258
3000 1 2225 2226 2224 847
3001 1 2229 2228 2230 2260
3002 1 2230 2229 2231 2261
3003 1 2229 2230 2228 2260
3004 1 2231 2230 2232 845
3005 1 2261 2230 2262 839
3006 1 845 2231 838 846
3007 1 2230 2231 2229 2261
3008 1 2231 2232 2230 845
3009 1 2235 2234 2236 2254
3010 1 2236 2235 2237 2255
3011 1 2235 2236 2234 2254
3012 1 2237 2236 439 2238
3013 1 2255 2236 428 2256
3014 1 439 2237 427 440
3015 1 2236 2237 2235 2255
3016 1 2237 2238 439 2236
3017 1 2241 2240 2242 2251
3018 1 2242 2241 2243 2252
3019 1 2241 2242 2240 2251
3020 1 2243 2242 436 2244
3021 1 2252 2242 433 2253
3022 1 436 2243 432 437
3023 1 2242 2243 2241 2252
3024 1 2243 2244 436 2242
3025 1 2186 2245 2185 2187
3026 1 2079 2246 2078 2080
3027 1 2187 2246 2186 2188
3028 1 2246 2247 2187 2079
3029 1 2193 2248 2192 2194
3030 1 2075 2249 2074 2076
3031 1 2194 2249 2193 2195
3032 1 2249 2250 2194 2075
3033 1 2241 2251 2240 2242
3034 1 433 2252 432 434
3035 1 2242 2252 2241 2243
3036 1 2252 2253 433 2242
3037 1 2235 2254 2234 2236
3038 1 428 2255 427 429
3039 1 2236 2255 2235 2237
3040 1 2255 2256 428 2236
3041 1 2223 2257 2222 2224
3042 1 843 2258 842 844
3043 1 2224 2258 2223 2225
3044 1 2258 2259 2224 843
3045 1 2229 2260 2228 2230
3046 1 839 2261 838 840
3047 1 2230 2261 2229 2231
3048 1 2261 2262 2230 839
3049 1 2211 2263 2210 2212
3050 1 2212 2264 2211 2213
3051 1 2997 2264 2996 2998
3052 1 2264 2265 2997 2212
3053 1 2217 2266 2216 2218
3054 1 2218 2267 2217 2219
3055 1 2992 2267 2991 2993
3056 1 2267 2268 2992 2218
3057 1 2205 2269 2204 2206
3058 1 2206 2270 2205 2207
3059 1 3375 2270 3374 3376
3060 1 2270 2271 2206 3375
3061 1 2199 2272 2198 2200
3062 1 2200 2273 2199 2201
3063 1 3371 2273 3370 3372
3064 1 2273 2274 2200 3371
3065 1 2169 2275 2168 2170
3066 1 2087 2276 2086 2088
3067 1 2170 2276 2169 2171
3068 1 2276 2277 2170 2087
3069 1 2162 2278 2161 2163
3070 1 2083 2279 2082 2084
3071 1 2163 2279 2162 2164
3072 1 2279 2280 2163 2083
3073 1 2283 2282 2284 2396
3074 1 2284 2283 2285 2397
3075 1 2283 2284 2282 2396
3076 1 2285 2284 2286 2373
3077 1 2397 2284 2328 2398
3078 1 2284 2285 2283 2397
3079 1 2373 2285 2327 2374
3080 1 2285 2286 2284 2373
3081 1 2289 2288 2290 2393
3082 1 2290 2289 2291 2394
3083 1 2289 2290 2288 2393
3084 1 2291 2290 2292 2370
3085 1 2394 2290 2333 2395
3086 1 2290 2291 2289 2394
3087 1 2370 2291 2332 2371
3088 1 2291 2292 2290 2370
3089 1 2295 2294 2296 2399
3090 1 2296 2295 2297 2400
3091 1 2295 2296 2294 2399
3092 1 2297 2296 2298 2379
3093 1 2400 2296 2343 2401
3094 1 2296 2297 2295 2400
3095 1 2379 2297 2342 2380
3096 1 2297 2298 2296 2379
3097 1 2301 2300 2302 2402
3098 1 2302 2301 2303 2403
3099 1 2301 2302 2300 2402
3100 1 2303 2302 2304 2376
3101 1 2403 2302 2338 2404
3102 1 2302 2303 2301 2403
3103 1 2376 2303 2337 2377
3104 1 2303 2304 2302 2376
3105 1 2306 2305 2307 2411
3106 1 2307 2306 2308 2412
3107 1 2306 2307 2305 2411
3108 1 2308 2307 2309 2385
3109 1 2412 2307 2367 2413
3110 1 2307 2308 2306 2412
3111 1 2385 2308 2366 2386
3112 1 2308 2309 2307 2385
3113 1 2311 2310 2312 2414
3114 1 2312 2311 2313 2415
3115 1 2311 2312 2310 2414
3116 1 2313 2312 2314 2382
3117 1 2415 2312 2361 2416
3118 1 2312 2313 2311 2415
3119 1 2382 2313 2360 2383
3120 1 2313 2314 2312 2382
3121 1 2316 2315 2317 2408
3122 1 2317 2316 2318 2409
3123 1 2316 2317 2315 2408
3124 1 2318 2317 2319 2391
3125 1 2409 2317 2349 2410
3126 1 2317 2318 2316 2409
3127 1 2391 2318 2348 2392
3128 1 2318 2319 2317 2391
3129 1 2321 2320 2322 2405
3130 1 2322 2321 2323 2406
3131 1 2321 2322 2320 2405
3132 1 2323 2322 2324 2388
3133 1 2406 2322 2355 2407
3134 1 2322 2323 2321 2406
3135 1 2388 2323 2354 2389
3136 1 2323 2324 2322 2388
3137 1 2326 2325 2327 2372
3138 1 2327 2326 2328 2373
3139 1 2326 2327 2325 2372
3140 1 2328 2327 2329 2397
3141 1 2373 2327 2285 2374
3142 1 2327 2328 2326 2373
3143 1 2397 2328 2284 2398
3144 1 2328 2329 2327 2397
3145 1 2331 2330 2332 2369
3146 1 2332 2331 2333 2370
3147 1 2331 2332 2330 2369
3148 1 2333 2332 2334 2394
3149 1 2370 2332 2291 2371
3150 1 2332 2333 2331 2370
3151 1 2394 2333 2290 2395
3152 1 2333 2334 2332 2394
3153 1 2336 2335 2337 2375
3154 1 2337 2336 2338 2376
3155 1 2336 2337 2335 2375
3156 1 2338 2337 2339 2403
3157 1 2376 2337 2303 2377
3158 1 2337 2338 2336 2376
3159 1 2403 2338 2302 2404
3160 1 2338 2339 2337 2403
3161 1 2341 2340 2342 2378
3162 1 2342 2341 2343 2379
3163 1 2341 2342 2340 2378
3164 1 2343 2342 2344 2400
3165 1 2379 2342 2297 2380
3166 1 2342 2343 2341 2379
3167 1 2400 2343 2296 2401
3168 1 2343 2344 2342 2400
3169 1 2347 2346 2348 2390
3170 1 2348 2347 2349 2391
3171 1 2347 2348 2346 2390
3172 1 2349 2348 2350 2409
3173 1 2391 2348 2318 2392
3174 1 2348 2349 2347 2391
3175 1 2409 2349 2317 2410
3176 1 2349 2350 2348 2409
3177 1 2353 2352 2354 2387
3178 1 2354 2353 2355 2388
3179 1 2353 2354 2352 2387
3180 1 2355 2354 2356 2406
3181 1 2388 2354 2323 2389
3182 1 2354 2355 2353 2388
3183 1 2406 2355 2322 2407
3184 1 2355 2356 2354 2406
3185 1 2359 2358 2360 2381
3186 1 2360 2359 2361 2382
3187 1 2359 2360 2358 2381
3188 1 2361 2360 2362 2415
3189 1 2382 2360 2313 2383
3190 1 2360 2361 2359 2382
3191 1 2415 2361 2312 2416
3192 1 2361 2362 2360 2415
3193 1 2365 2364 2366 2384
3194 1 2366 2365 2367 2385
3195 1 2365 2366 2364 2384
3196 1 2367 2366 2368 2412
3197 1 2385 2366 2308 2386
3198 1 2366 2367 2365 2385
3199 1 2412 2367 2307 2413
3200 1 2367 2368 2366 2412
3201 1 2331 2369 2330 2332
3202 1 2291 2370 2290 2292
3203 1 2332 2370 2331 2333
3204 1 2370 2371 2291 2332
3205 1 2326 2372 2325 2327
3206 1 2285 2373 2284 2286
3207 1 2327 2373 2326 2328
3208 1 2373 2374 2285 2327
3209 1 2336 2375 2335 2337
3210 1 2303 2376 2302 2304
3211 1 2337 2376 2336 2338
3212 1 2376 2377 2303 2337
3213 1 2341 2378 2340 2342
3214 1 2297 2379 2296 2298
3215 1 2342 2379 2341 2343
3216 1 2379 2380 2297 2342
3217 1 2359 2381 2358 2360
3218 1 2313 2382 2312 2314
3219 1 2360 2382 2359 2361
3220 1 2382 2383 2313 2360
3221 1 2365 2384 2364 2366
3222 1 2308 2385 2307 2309
3223 1 2366 2385 2365 2367
3224 1 2385 2386 2308 2366
3225 1 2353 2387 2352 2354
3226 1 2323 2388 2322 2324
3227 1 2354 2388 2353 2355
3228 1 2388 2389 2323 2354
3229 1 2347 2390 2346 2348
3230 1 2318 2391 2317 2319
3231 1 2348 2391 2347 2349
3232 1 2391 2392 2318 2348
3233 1 2289 2393 2288 2290
3234 1 2290 2394 2289 2291
3235 1 2333 2394 2332 2334
3236 1 2394 2395 2290 2333
3237 1 2283 2396 2282 2284
3238 1 2284 2397 2283 2285
3239 1 2328 2397 2327 2329
3240 1 2397 2398 2284 2328
3241 1 2295 2399 2294 2296
3242 1 2296 2400 2295 2297
3243 1 2343 2400 2342 2344
3244 1 2400 2401 2296 2343
3245 1 2301 2402 2300 2302
3246 1 2302 2403 2301 2303
3247 1 2338 2403 2337 2339
3248 1 2403 2404 2302 2338
3249 1 2321 2405 2320 2322
3250 1 2322 2406 2321 2323
3251 1 2355 2406 2354 2356
3252 1 2406 2407 2322 2355
3253 1 2316 2408 2315 2317
3254 1 2317 2409 2316 2318
3255 1 2349 2409 2348 2350
3256 1 2409 2410 2317 2349
3257 1 2306 2411 2305 2307
3258 1 2307 2412 2306 2308
3259 1 2367 2412 2366 2368
3260 1 2412 2413 2307 2367
3261 1 2311 2414 2310 2312
3262 1 2312 2415 2311 2313
3263 1 2361 2415 2360 2362
3264 1 2415 2416 2312 2361
3265 1 2418 2417 2419 2478
3266 1 2419 2418 2420 2479
3267 1 2418 2419 2417 2478
3268 1 2420 2419 2421 2461
3269 1 2479 2419 2450 2480
3270 1 2419 2420 2418 2479
3271 1 2461 2420 2449 2462
3272 1 2420 2421 2419 2461
3273 1 2423 2422 2424 2475
3274 1 2424 2423 2425 2476
3275 1 2423 2424 2422 2475
3276 1 2425 2424 2426 2458
3277 1 2476 2424 2455 2477
3278 1 2424 2425 2423 2476
3279 1 2458 2425 2454 2459
3280 1 2425 2426 2424 2458
3281 1 2428 2427 2429 2469
3282 1 2429 2428 2430 2470
3283 1 2428 2429 2427 2469
3284 1 2430 2429 2431 2467
3285 1 2470 2429 2445 2471
3286 1 2429 2430 2428 2470
3287 1 2467 2430 2444 2468
3288 1 2430 2431 2429 2467
3289 1 2433 2432 2434 2472
3290 1 2434 2433 2435 2473
3291 1 2433 2434 2432 2472
3292 1 2435 2434 2436 2464
3293 1 2473 2434 2440 2474
3294 1 2434 2435 2433 2473
3295 1 2464 2435 2439 2465
3296 1 2435 2436 2434 2464
3297 1 2438 2437 2439 2463
3298 1 2439 2438 2440 2464
3299 1 2438 2439 2437 2463
3300 1 2440 2439 2441 2473
3301 1 2464 2439 2435 2465
3302 1 2439 2440 2438 2464
3303 1 2473 2440 2434 2474
3304 1 2440 2441 2439 2473
3305 1 2443 2442 2444 2466
3306 1 2444 2443 2445 2467
3307 1 2443 2444 2442 2466
3308 1 2445 2444 2446 2470
3309 1 2467 2444 2430 2468
3310 1 2444 2445 2443 2467
3311 1 2470 2445 2429 2471
3312 1 2445 2446 2444 2470
3313 1 2448 2447 2449 2460
3314 1 2449 2448 2450 2461
3315 1 2448 2449 2447 2460
3316 1 2450 2449 2451 2479
3317 1 2461 2449 2420 2462
3318 1 2449 2450 2448 2461
3319 1 2479 2450 2419 2480
3320 1 2450 2451 2449 2479
3321 1 2453 2452 2454 2457
3322 1 2454 2453 2455 2458
3323 1 2453 2454 2452 2457
3324 1 2455 2454 2456 2476
3325 1 2458 2454 2425 2459
3326 1 2454 2455 2453 2458
3327 1 2476 2455 2424 2477
3328 1 2455 2456 2454 2476
3329 1 2453 2457 2452 2454
3330 1 2425 2458 2424 2426
3331 1 2454 2458 2453 2455
3332 1 2458 2459 2425 2454
3333 1 2448 2460 2447 2449
3334 1 2420 2461 2419 2421
3335 1 2449 2461 2448 2450
3336 1 2461 2462 2420 2449
3337 1 2438 2463 2437 2439
3338 1 2435 2464 2434 2436
3339 1 2439 2464 2438 2440
3340 1 2464 2465 2435 2439
3341 1 2443 2466 2442 2444
3342 1 2430 2467 2429 2431
3343 1 2444 2467 2443 2445
3344 1 2467 2468 2430 2444
3345 1 2428 2469 2427 2429
3346 1 2429 2470 2428 2430
3347 1 2445 2470 2444 2446
3348 1 2470 2471 2429 2445
3349 1 2433 2472 2432 2434
3350 1 2434 2473 2433 2435
3351 1 2440 2473 2439 2441
3352 1 2473 2474 2434 2440
3353 1 2423 2475 2422 2424
3354 1 2424 2476 2423 2425
3355 1 2455 2476 2454 2456
3356 1 2476 2477 2424 2455
3357 1 2418 2478 2417 2419
3358 1 2419 2479 2418 2420
3359 1 2450 2479 2449 2451
3360 1 2479 2480 2419 2450
3361 1 2497 2481 2491 2498
3362 1 2501 2482 2492 2502
3363 1 2533 2483 2495 2534
3364 1 2537 2484 2496 2538
3365 1 2521 2485 2494 2522
3366 1 2525 2486 2493 2526
3367 1 2505 2487 2490 2506
3368 1 2509 2488 2489 2510
3369 1 2509 2489 2488 2510
3370 1 2505 2490 2487 2506
3371 1 2497 2491 2481 2498
3372 1 2501 2492 2482 2502
3373 1 2525 2493 2486 2526
3374 1 2521 2494 2485 2522
3375 1 2533 2495 2483 2534
3376 1 2537 2496 2484 2538
3377 1 2498 2497 2499 2517
3378 1 2497 2498 2481 2491
3379 1 2499 2498 1825 2500
3380 1 2517 2498 1771 2518
3381 1 1825 2499 1770 1826
3382 1 2498 2499 2497 2517
3383 1 2499 2500 1825 2498
3384 1 2502 2501 2503 2519
3385 1 2501 2502 2482 2492
3386 1 2503 2502 1822 2504
3387 1 2519 2502 1764 2520
3388 1 1822 2503 1763 1823
3389 1 2502 2503 2501 2519
3390 1 2503 2504 1822 2502
3391 1 2506 2505 2507 2515
3392 1 2505 2506 2487 2490
3393 1 2507 2506 1855 2508
3394 1 2515 2506 1740 2516
3395 1 1855 2507 1739 1856
3396 1 2506 2507 2505 2515
3397 1 2507 2508 1855 2506
3398 1 2510 2509 2511 2513
3399 1 2509 2510 2488 2489
3400 1 2511 2510 1852 2512
3401 1 2513 2510 1747 2514
3402 1 1852 2511 1746 1853
3403 1 2510 2511 2509 2513
3404 1 2511 2512 1852 2510
3405 1 1747 2513 1746 1748
3406 1 2510 2513 2509 2511
3407 1 2513 2514 1747 2510
3408 1 1740 2515 1739 1741
3409 1 2506 2515 2505 2507
3410 1 2515 2516 1740 2506
3411 1 1771 2517 1770 1772
3412 1 2498 2517 2497 2499
3413 1 2517 2518 1771 2498
3414 1 1764 2519 1763 1765
3415 1 2502 2519 2501 2503
3416 1 2519 2520 1764 2502
3417 1 2522 2521 2523 2531
3418 1 2521 2522 2485 2494
3419 1 2523 2522 3121 2524
3420 1 2531 2522 3049 2532
3421 1 2522 2523 2521 2531
3422 1 3121 2523 3048 3122
3423 1 2523 2524 3121 2522
3424 1 2526 2525 2527 2529
3425 1 2525 2526 2486 2493
3426 1 2527 2526 3118 2528
3427 1 2529 2526 3055 2530
3428 1 2526 2527 2525 2529
3429 1 3118 2527 3054 3119
3430 1 2527 2528 3118 2526
3431 1 2526 2529 2525 2527
3432 1 3055 2529 3054 3056
3433 1 2529 2530 3055 2526
3434 1 2522 2531 2521 2523
3435 1 3049 2531 3048 3050
3436 1 2531 2532 3049 2522
3437 1 2534 2533 2535 2541
3438 1 2533 2534 2483 2495
3439 1 2535 2534 565 2536
3440 1 2541 2534 535 2542
3441 1 565 2535 534 566
3442 1 2534 2535 2533 2541
3443 1 2535 2536 565 2534
3444 1 2538 2537 2539 2543
3445 1 2537 2538 2484 2496
3446 1 2539 2538 562 2540
3447 1 2543 2538 529 2544
3448 1 562 2539 528 563
3449 1 2538 2539 2537 2543
3450 1 2539 2540 562 2538
3451 1 535 2541 534 536
3452 1 2534 2541 2533 2535
3453 1 2541 2542 535 2534
3454 1 529 2543 528 530
3455 1 2538 2543 2537 2539
3456 1 2543 2544 529 2538
3457 1 2546 2545 2547 2558
3458 1 2547 2546 2548 2559
3459 1 2546 2547 2545 2558
3460 1 2548 2547 2549 983
3461 1 2559 2547 2560 965
3462 1 983 2548 964 984
3463 1 2547 2548 2546 2559
3464 1 2548 2549 2547 983
3465 1 2551 2550 2552 2555
3466 1 2552 2551 2553 2556
3467 1 2551 2552 2550 2555
3468 1 2553 2552 2554 980
3469 1 2556 2552 2557 971
3470 1 980 2553 970 981
3471 1 2552 2553 2551 2556
3472 1 2553 2554 2552 980
3473 1 2551 2555 2550 2552
3474 1 971 2556 970 972
3475 1 2552 2556 2551 2553
3476 1 2556 2557 2552 971
3477 1 2546 2558 2545 2547
3478 1 965 2559 964 966
3479 1 2547 2559 2546 2548
3480 1 2559 2560 2547 965
3481 1 2566 2565 2567 2575
3482 1 2567 2566 2568 2576
3483 1 2566 2567 2565 2575
3484 1 2568 2567 2569 1843
3485 1 2576 2567 2577 1795
3486 1 1843 2568 1794 1844
3487 1 2567 2568 2566 2576
3488 1 2568 2569 2567 1843
3489 1 2571 2570 2572 2578
3490 1 2572 2571 2573 2579
3491 1 2571 2572 2570 2578
3492 1 2573 2572 2574 1840
3493 1 2579 2572 2580 1789
3494 1 1840 2573 1788 1841
3495 1 2572 2573 2571 2579
3496 1 2573 2574 2572 1840
3497 1 2566 2575 2565 2567
3498 1 1795 2576 1794 1796
3499 1 2567 2576 2566 2568
3500 1 2576 2577 2567 1795
3501 1 2571 2578 2570 2572
3502 1 1789 2579 1788 1790
3503 1 2572 2579 2571 2573
3504 1 2579 2580 2572 1789
3505 1 2586 2585 2587 2702
3506 1 2587 2586 2588 2703
3507 1 2586 2587 2585 2702
3508 1 2588 2587 2589 3363
3509 1 2703 2587 2704 3355
3510 1 2587 2588 2586 2703
3511 1 3363 2588 3354 3364
3512 1 2588 2589 2587 3363
3513 1 2593 2592 2594 2699
3514 1 2594 2593 2595 2700
3515 1 2593 2594 2592 2699
3516 1 2595 2594 2596 3361
3517 1 2700 2594 2701 3359
3518 1 2594 2595 2593 2700
3519 1 3361 2595 3358 3362
3520 1 2595 2596 2594 3361
3521 1 2610 2609 2611 2669
3522 1 2611 2610 2612 2670
3523 1 2610 2611 2609 2669
3524 1 2612 2611 2613 3367
3525 1 2670 2611 2671 3351
3526 1 2611 2612 2610 2670
3527 1 3367 2612 3350 3368
3528 1 2612 2613 2611 3367
3529 1 2617 2616 2618 2672
3530 1 2618 2617 2619 2673
3531 1 2617 2618 2616 2672
3532 1 2619 2618 2620 3365
3533 1 2673 2618 2674 3347
3534 1 2618 2619 2617 2673
3535 1 3365 2619 3346 3366
3536 1 2619 2620 2618 3365
3537 1 2623 2622 2624 2696
3538 1 2624 2623 2625 2697
3539 1 2623 2624 2622 2696
3540 1 2625 2624 2626 2107
3541 1 2697 2624 2698 2099
3542 1 2107 2625 2098 2108
3543 1 2624 2625 2623 2697
3544 1 2625 2626 2624 2107
3545 1 2629 2628 2630 2693
3546 1 2630 2629 2631 2694
3547 1 2629 2630 2628 2693
3548 1 2631 2630 2632 2105
3549 1 2694 2630 2695 2103
3550 1 2105 2631 2102 2106
3551 1 2630 2631 2629 2694
3552 1 2631 2632 2630 2105
3553 1 2635 2634 2636 2687
3554 1 2636 2635 2637 2688
3555 1 2635 2636 2634 2687
3556 1 2637 2636 1731 2638
3557 1 2688 2636 1725 2689
3558 1 1731 2637 1724 1732
3559 1 2636 2637 2635 2688
3560 1 2637 2638 1731 2636
3561 1 2641 2640 2642 2690
3562 1 2642 2641 2643 2691
3563 1 2641 2642 2640 2690
3564 1 2643 2642 1728 2644
3565 1 2691 2642 1720 2692
3566 1 1728 2643 1719 1729
3567 1 2642 2643 2641 2691
3568 1 2643 2644 1728 2642
3569 1 2647 2646 2648 2681
3570 1 2648 2647 2649 2682
3571 1 2647 2648 2646 2681
3572 1 2649 2648 2650 1271
3573 1 2682 2648 2683 1267
3574 1 1271 2649 1266 1272
3575 1 2648 2649 2647 2682
3576 1 2649 2650 2648 1271
3577 1 2653 2652 2654 2684
3578 1 2654 2653 2655 2685
3579 1 2653 2654 2652 2684
3580 1 2655 2654 2656 1269
3581 1 2685 2654 2686 1263
3582 1 1269 2655 1262 1270
3583 1 2654 2655 2653 2685
3584 1 2655 2656 2654 1269
3585 1 2659 2658 2660 2678
3586 1 2660 2659 2661 2679
3587 1 2659 2660 2658 2678
3588 1 2661 2660 863 2662
3589 1 2679 2660 852 2680
3590 1 863 2661 851 864
3591 1 2660 2661 2659 2679
3592 1 2661 2662 863 2660
3593 1 2665 2664 2666 2675
3594 1 2666 2665 2667 2676
3595 1 2665 2666 2664 2675
3596 1 2667 2666 860 2668
3597 1 2676 2666 857 2677
3598 1 860 2667 856 861
3599 1 2666 2667 2665 2676
3600 1 2667 2668 860 2666
3601 1 2610 2669 2609 2611
3602 1 2611 2670 2610 2612
3603 1 3351 2670 3350 3352
3604 1 2670 2671 2611 3351
3605 1 2617 2672 2616 2618
3606 1 2618 2673 2617 2619
3607 1 3347 2673 3346 3348
3608 1 2673 2674 2618 3347
3609 1 2665 2675 2664 2666
3610 1 857 2676 856 858
3611 1 2666 2676 2665 2667
3612 1 2676 2677 857 2666
3613 1 2659 2678 2658 2660
3614 1 852 2679 851 853
3615 1 2660 2679 2659 2661
3616 1 2679 2680 852 2660
3617 1 2647 2681 2646 2648
3618 1 1267 2682 1266 1268
3619 1 2648 2682 2647 2649
3620 1 2682 2683 2648 1267
3621 1 2653 2684 2652 2654
3622 1 1263 2685 1262 1264
3623 1 2654 2685 2653 2655
3624 1 2685 2686 2654 1263
3625 1 2635 2687 2634 2636
3626 1 1725 2688 1724 1726
3627 1 2636 2688 2635 2637
3628 1 2688 2689 1725 2636
3629 1 2641 2690 2640 2642
3630 1 1720 2691 1719 1721
3631 1 2642 2691 2641 2643
3632 1 2691 2692 1720 2642
3633 1 2629 2693 2628 2630
3634 1 2103 2694 2102 2104
3635 1 2630 2694 2629 2631
3636 1 2694 2695 2630 2103
3637 1 2623 2696 2622 2624
3638 1 2099 2697 2098 2100
3639 1 2624 2697 2623 2625
3640 1 2697 2698 2624 2099
3641 1 2593 2699 2592 2594
3642 1 2594 2700 2593 2595
3643 1 3359 2700 3358 3360
3644 1 2700 2701 2594 3359
3645 1 2586 2702 2585 2587
3646 1 2587 2703 2586 2588
3647 1 3355 2703 3354 3356
3648 1 2703 2704 2587 3355
3649 1 2707 2706 2708 2820
3650 1 2708 2707 2709 2821
3651 1 2707 2708 2706 2820
3652 1 2709 2708 2710 2797
3653 1 2821 2708 2752 2822
3654 1 2708 2709 2707 2821
3655 1 2797 2709 2751 2798
3656 1 2709 2710 2708 2797
3657 1 2713 2712 2714 2817
3658 1 2714 2713 2715 2818
3659 1 2713 2714 2712 2817
3660 1 2715 2714 2716 2794
3661 1 2818 2714 2757 2819
3662 1 2714 2715 2713 2818
3663 1 2794 2715 2756 2795
3664 1 2715 2716 2714 2794
3665 1 2719 2718 2720 2823
3666 1 2720 2719 2721 2824
3667 1 2719 2720 2718 2823
3668 1 2721 2720 2722 2803
3669 1 2824 2720 2767 2825
3670 1 2720 2721 2719 2824
3671 1 2803 2721 2766 2804
3672 1 2721 2722 2720 2803
3673 1 2725 2724 2726 2826
3674 1 2726 2725 2727 2827
3675 1 2725 2726 2724 2826
3676 1 2727 2726 2728 2800
3677 1 2827 2726 2762 2828
3678 1 2726 2727 2725 2827
3679 1 2800 2727 2761 2801
3680 1 2727 2728 2726 2800
3681 1 2730 2729 2731 2835
3682 1 2731 2730 2732 2836
3683 1 2730 2731 2729 2835
3684 1 2732 2731 2733 2809
3685 1 2836 2731 2791 2837
3686 1 2731 2732 2730 2836
3687 1 2809 2732 2790 2810
3688 1 2732 2733 2731 2809
3689 1 2735 2734 2736 2838
3690 1 2736 2735 2737 2839
3691 1 2735 2736 2734 2838
3692 1 2737 2736 2738 2806
3693 1 2839 2736 2785 2840
3694 1 2736 2737 2735 2839
3695 1 2806 2737 2784 2807
3696 1 2737 2738 2736 2806
3697 1 2740 2739 2741 2832
3698 1 2741 2740 2742 2833
3699 1 2740 2741 2739 2832
3700 1 2742 2741 2743 2815
3701 1 2833 2741 2773 2834
3702 1 2741 2742 2740 2833
3703 1 2815 2742 2772 2816
3704 1 2742 2743 2741 2815
3705 1 2745 2744 2746 2829
3706 1 2746 2745 2747 2830
3707 1 2745 2746 2744 2829
3708 1 2747 2746 2748 2812
3709 1 2830 2746 2779 2831
3710 1 2746 2747 2745 2830
3711 1 2812 2747 2778 2813
3712 1 2747 2748 2746 2812
3713 1 2750 2749 2751 2796
3714 1 2751 2750 2752 2797
3715 1 2750 2751 2749 2796
3716 1 2752 2751 2753 2821
3717 1 2797 2751 2709 2798
3718 1 2751 2752 2750 2797
3719 1 2821 2752 2708 2822
3720 1 2752 2753 2751 2821
3721 1 2755 2754 2756 2793
3722 1 2756 2755 2757 2794
3723 1 2755 2756 2754 2793
3724 1 2757 2756 2758 2818
3725 1 2794 2756 2715 2795
3726 1 2756 2757 2755 2794
3727 1 2818 2757 2714 2819
3728 1 2757 2758 2756 2818
3729 1 2760 2759 2761 2799
3730 1 2761 2760 2762 2800
3731 1 2760 2761 2759 2799
3732 1 2762 2761 2763 2827
3733 1 2800 2761 2727 2801
3734 1 2761 2762 2760 2800
3735 1 2827 2762 2726 2828
3736 1 2762 2763 2761 2827
3737 1 2765 2764 2766 2802
3738 1 2766 2765 2767 2803
3739 1 2765 2766 2764 2802
3740 1 2767 2766 2768 2824
3741 1 2803 2766 2721 2804
3742 1 2766 2767 2765 2803
3743 1 2824 2767 2720 2825
3744 1 2767 2768 2766 2824
3745 1 2771 2770 2772 2814
3746 1 2772 2771 2773 2815
3747 1 2771 2772 2770 2814
3748 1 2773 2772 2774 2833
3749 1 2815 2772 2742 2816
3750 1 2772 2773 2771 2815
3751 1 2833 2773 2741 2834
3752 1 2773 2774 2772 2833
3753 1 2777 2776 2778 2811
3754 1 2778 2777 2779 2812
3755 1 2777 2778 2776 2811
3756 1 2779 2778 2780 2830
3757 1 2812 2778 2747 2813
3758 1 2778 2779 2777 2812
3759 1 2830 2779 2746 2831
3760 1 2779 2780 2778 2830
3761 1 2783 2782 2784 2805
3762 1 2784 2783 2785 2806
3763 1 2783 2784 2782 2805
3764 1 2785 2784 2786 2839
3765 1 2806 2784 2737 2807
3766 1 2784 2785 2783 2806
3767 1 2839 2785 2736 2840
3768 1 2785 2786 2784 2839
3769 1 2789 2788 2790 2808
3770 1 2790 2789 2791 2809
3771 1 2789 2790 2788 2808
3772 1 2791 2790 2792 2836
3773 1 2809 2790 2732 2810
3774 1 2790 2791 2789 2809
3775 1 2836 2791 2731 2837
3776 1 2791 2792 2790 2836
3777 1 2755 2793 2754 2756
3778 1 2715 2794 2714 2716
3779 1 2756 2794 2755 2757
3780 1 2794 2795 2715 2756
3781 1 2750 2796 2749 2751
3782 1 2709 2797 2708 2710
3783 1 2751 2797 2750 2752
3784 1 2797 2798 2709 2751
3785 1 2760 2799 2759 2761
3786 1 2727 2800 2726 2728
3787 1 2761 2800 2760 2762
3788 1 2800 2801 2727 2761
3789 1 2765 2802 2764 2766
3790 1 2721 2803 2720 2722
3791 1 2766 2803 2765 2767
3792 1 2803 2804 2721 2766
3793 1 2783 2805 2782 2784
3794 1 2737 2806 2736 2738
3795 1 2784 2806 2783 2785
3796 1 2806 2807 2737 2784
3797 1 2789 2808 2788 2790
3798 1 2732 2809 2731 2733
3799 1 2790 2809 2789 2791
3800 1 2809 2810 2732 2790
3801 1 2777 2811 2776 2778
3802 1 2747 2812 2746 2748
3803 1 2778 2812 2777 2779
3804 1 2812 2813 2747 2778
3805 1 2771 2814 2770 2772
3806 1 2742 2815 2741 2743
3807 1 2772 2815 2771 2773
3808 1 2815 2816 2742 2772
3809 1 2713 2817 2712 2714
3810 1 2714 2818 2713 2715
3811 1 2757 2818 2756 2758
3812 1 2818 2819 2714 2757
3813 1 2707 2820 2706 2708
3814 1 2708 2821 2707 2709
3815 1 2752 2821 2751 2753
3816 1 2821 2822 2708 2752
3817 1 2719 2823 2718 2720
3818 1 2720 2824 2719 2721
3819 1 2767 2824 2766 2768
3820 1 2824 2825 2720 2767
3821 1 2725 2826 2724 2726
3822 1 2726 2827 2725 2727
3823 1 2762 2827 2761 2763
3824 1 2827 2828 2726 2762
3825 1 2745 2829 2744 2746
3826 1 2746 2830 2745 2747
3827 1 2779 2830 2778 2780
3828 1 2830 2831 2746 2779
3829 1 2740 2832 2739 2741
3830 1 2741 2833 2740 2742
3831 1 2773 2833 2772 2774
3832 1 2833 2834 2741 2773
3833 1 2730 2835 2729 2731
3834 1 2731 2836 2730 2732
3835 1 2791 2836 2790 2792
3836 1 2836 2837 2731 2791
3837 1 2735 2838 2734 2736
3838 1 2736 2839 2735 2737
3839 1 2785 2839 2784 2786
3840 1 2839 2840 2736 2785
3841 1 2842 2841 2843 2902
3842 1 2843 2842 2844 2903
3843 1 2842 2843 2841 2902
3844 1 2844 2843 2845 2885
3845 1 2903 2843 2874 2904
3846 1 2843 2844 2842 2903
3847 1 2885 2844 2873 2886
3848 1 2844 2845 2843 2885
3849 1 2847 2846 2848 2899
3850 1 2848 2847 2849 2900
3851 1 2847 2848 2846 2899
3852 1 2849 2848 2850 2882
3853 1 2900 2848 2879 2901
3854 1 2848 2849 2847 2900
3855 1 2882 2849 2878 2883
3856 1 2849 2850 2848 2882
3857 1 2852 2851 2853 2893
3858 1 2853 2852 2854 2894
3859 1 2852 2853 2851 2893
3860 1 2854 2853 2855 2891
3861 1 2894 2853 2869 2895
3862 1 2853 2854 2852 2894
3863 1 2891 2854 2868 2892
3864 1 2854 2855 2853 2891
3865 1 2857 2856 2858 2896
3866 1 2858 2857 2859 2897
3867 1 2857 2858 2856 2896
3868 1 2859 2858 2860 2888
3869 1 2897 2858 2864 2898
3870 1 2858 2859 2857 2897
3871 1 2888 2859 2863 2889
3872 1 2859 2860 2858 2888
3873 1 2862 2861 2863 2887
3874 1 2863 2862 2864 2888
3875 1 2862 2863 2861 2887
3876 1 2864 2863 2865 2897
3877 1 2888 2863 2859 2889
3878 1 2863 2864 2862 2888
3879 1 2897 2864 2858 2898
3880 1 2864 2865 2863 2897
3881 1 2867 2866 2868 2890
3882 1 2868 2867 2869 2891
3883 1 2867 2868 2866 2890
3884 1 2869 2868 2870 2894
3885 1 2891 2868 2854 2892
3886 1 2868 2869 2867 2891
3887 1 2894 2869 2853 2895
3888 1 2869 2870 2868 2894
3889 1 2872 2871 2873 2884
3890 1 2873 2872 2874 2885
3891 1 2872 2873 2871 2884
3892 1 2874 2873 2875 2903
3893 1 2885 2873 2844 2886
3894 1 2873 2874 2872 2885
3895 1 2903 2874 2843 2904
3896 1 2874 2875 2873 2903
3897 1 2877 2876 2878 2881
3898 1 2878 2877 2879 2882
3899 1 2877 2878 2876 2881
3900 1 2879 2878 2880 2900
3901 1 2882 2878 2849 2883
3902 1 2878 2879 2877 2882
3903 1 2900 2879 2848 2901
3904 1 2879 2880 2878 2900
3905 1 2877 2881 2876 2878
3906 1 2849 2882 2848 2850
3907 1 2878 2882 2877 2879
3908 1 2882 2883 2849 2878
3909 1 2872 2884 2871 2873
3910 1 2844 2885 2843 2845
3911 1 2873 2885 2872 2874
3912 1 2885 2886 2844 2873
3913 1 2862 2887 2861 2863
3914 1 2859 2888 2858 2860
3915 1 2863 2888 2862 2864
3916 1 2888 2889 2859 2863
3917 1 2867 2890 2866 2868
3918 1 2854 2891 2853 2855
3919 1 2868 2891 2867 2869
3920 1 2891 2892 2854 2868
3921 1 2852 2893 2851 2853
3922 1 2853 2894 2852 2854
3923 1 2869 2894 2868 2870
3924 1 2894 2895 2853 2869
3925 1 2857 2896 2856 2858
3926 1 2858 2897 2857 2859
3927 1 2864 2897 2863 2865
3928 1 2897 2898 2858 2864
3929 1 2847 2899 2846 2848
3930 1 2848 2900 2847 2849
3931 1 2879 2900 2878 2880
3932 1 2900 2901 2848 2879
3933 1 2842 2902 2841 2843
3934 1 2843 2903 2842 2844
3935 1 2874 2903 2873 2875
3936 1 2903 2904 2843 2874
3937 1 2921 2905 2915 2922
3938 1 2925 2906 2916 2926
3939 1 2957 2907 2919 2958
3940 1 2961 2908 2920 2962
3941 1 2945 2909 2918 2946
3942 1 2949 2910 2917 2950
3943 1 2929 2911 2914 2930
3944 1 2933 2912 2913 2934
3945 1 2933 2913 2912 2934
3946 1 2929 2914 2911 2930
3947 1 2921 2915 2905 2922
3948 1 2925 2916 2906 2926
3949 1 2949 2917 2910 2950
3950 1 2945 2918 2909 2946
3951 1 2957 2919 2907 2958
3952 1 2961 2920 2908 2962
3953 1 2922 2921 2923 2941
3954 1 2921 2922 2905 2915
3955 1 2923 2922 3097 2924
3956 1 2941 2922 3043 2942
3957 1 2922 2923 2921 2941
3958 1 3097 2923 3042 3098
3959 1 2923 2924 3097 2922
3960 1 2926 2925 2927 2943
3961 1 2925 2926 2906 2916
3962 1 2927 2926 3094 2928
3963 1 2943 2926 3036 2944
3964 1 2926 2927 2925 2943
3965 1 3094 2927 3035 3095
3966 1 2927 2928 3094 2926
3967 1 2930 2929 2931 2939
3968 1 2929 2930 2911 2914
3969 1 2931 2930 3127 2932
3970 1 2939 2930 3012 2940
3971 1 2930 2931 2929 2939
3972 1 3127 2931 3011 3128
3973 1 2931 2932 3127 2930
3974 1 2934 2933 2935 2937
3975 1 2933 2934 2912 2913
3976 1 2935 2934 3124 2936
3977 1 2937 2934 3019 2938
3978 1 2934 2935 2933 2937
3979 1 3124 2935 3018 3125
3980 1 2935 2936 3124 2934
3981 1 2934 2937 2933 2935
3982 1 3019 2937 3018 3020
3983 1 2937 2938 3019 2934
3984 1 2930 2939 2929 2931
3985 1 3012 2939 3011 3013
3986 1 2939 2940 3012 2930
3987 1 2922 2941 2921 2923
3988 1 3043 2941 3042 3044
3989 1 2941 2942 3043 2922
3990 1 2926 2943 2925 2927
3991 1 3036 2943 3035 3037
3992 1 2943 2944 3036 2926
3993 1 2946 2945 2947 2955
3994 1 2945 2946 2909 2918
3995 1 2947 2946 1849 2948
3996 1 2955 2946 1777 2956
3997 1 1849 2947 1776 1850
3998 1 2946 2947 2945 2955
3999 1 2947 2948 1849 2946
4000 1 2950 2949 2951 2953
4001 1 2949 2950 2910 2917
4002 1 2951 2950 1846 2952
4003 1 2953 2950 1783 2954
4004 1 1846 2951 1782 1847
4005 1 2950 2951 2949 2953
4006 1 2951 2952 1846 2950
4007 1 1783 2953 1782 1784
4008 1 2950 2953 2949 2951
4009 1 2953 2954 1783 2950
4010 1 1777 2955 1776 1778
4011 1 2946 2955 2945 2947
4012 1 2955 2956 1777 2946
4013 1 2958 2957 2959 2965
4014 1 2957 2958 2907 2919
4015 1 2959 2958 989 2960
4016 1 2965 2958 959 2966
4017 1 989 2959 958 990
4018 1 2958 2959 2957 2965
4019 1 2959 2960 989 2958
4020 1 2962 2961 2963 2967
4021 1 2961 2962 2908 2920
4022 1 2963 2962 986 2964
4023 1 2967 2962 953 2968
4024 1 986 2963 952 987
4025 1 2962 2963 2961 2967
4026 1 2963 2964 986 2962
4027 1 959 2965 958 960
4028 1 2958 2965 2957 2959
4029 1 2965 2966 959 2958
4030 1 953 2967 952 954
4031 1 2962 2967 2961 2963
4032 1 2967 2968 953 2962
4033 1 2970 2969 2971 2982
4034 1 2971 2970 2972 2983
4035 1 2970 2971 2969 2982
4036 1 2972 2971 2973 1407
4037 1 2983 2971 2984 1389
4038 1 1407 2972 1388 1408
4039 1 2971 2972 2970 2983
4040 1 2972 2973 2971 1407
4041 1 2975 2974 2976 2979
4042 1 2976 2975 2977 2980
4043 1 2975 2976 2974 2979
4044 1 2977 2976 2978 1404
4045 1 2980 2976 2981 1395
4046 1 1404 2977 1394 1405
4047 1 2976 2977 2975 2980
4048 1 2977 2978 2976 1404
4049 1 2975 2979 2974 2976
4050 1 1395 2980 1394 1396
4051 1 2976 2980 2975 2977
4052 1 2980 2981 2976 1395
4053 1 2970 2982 2969 2971
4054 1 1389 2983 1388 1390
4055 1 2971 2983 2970 2972
4056 1 2983 2984 2971 1389
4057 1 2990 2989 2991 2999
4058 1 2991 2990 2992 3000
4059 1 2990 2991 2989 2999
4060 1 2992 2991 2993 2267
4061 1 3000 2991 3001 2219
4062 1 2267 2992 2218 2268
4063 1 2991 2992 2990 3000
4064 1 2992 2993 2991 2267
4065 1 2995 2994 2996 3002
4066 1 2996 2995 2997 3003
4067 1 2995 2996 2994 3002
4068 1 2997 2996 2998 2264
4069 1 3003 2996 3004 2213
4070 1 2264 2997 2212 2265
4071 1 2996 2997 2995 3003
4072 1 2997 2998 2996 2264
4073 1 2990 2999 2989 2991
4074 1 2219 3000 2218 2220
4075 1 2991 3000 2990 2992
4076 1 3000 3001 2991 2219
4077 1 2995 3002 2994 2996
4078 1 2213 3003 2212 2214
4079 1 2996 3003 2995 2997
4080 1 3003 3004 2996 2213
4081 1 3010 3009 3011 3126
4082 1 3011 3010 3012 3127
4083 1 3010 3011 3009 3126
4084 1 3012 3011 3013 2939
4085 1 3127 3011 3128 2931
4086 1 2939 3012 2930 2940
4087 1 3011 3012 3010 3127
4088 1 3012 3013 3011 2939
4089 1 3017 3016 3018 3123
4090 1 3018 3017 3019 3124
4091 1 3017 3018 3016 3123
4092 1 3019 3018 3020 2937
4093 1 3124 3018 3125 2935
4094 1 2937 3019 2934 2938
4095 1 3018 3019 3017 3124
4096 1 3019 3020 3018 2937
4097 1 3034 3033 3035 3093
4098 1 3035 3034 3036 3094
4099 1 3034 3035 3033 3093
4100 1 3036 3035 3037 2943
4101 1 3094 3035 3095 2927
4102 1 2943 3036 2926 2944
4103 1 3035 3036 3034 3094
4104 1 3036 3037 3035 2943
4105 1 3041 3040 3042 3096
4106 1 3042 3041 3043 3097
4107 1 3041 3042 3040 3096
4108 1 3043 3042 3044 2941
4109 1 3097 3042 3098 2923
4110 1 2941 3043 2922 2942
4111 1 3042 3043 3041 3097
4112 1 3043 3044 3042 2941
4113 1 3047 3046 3048 3120
4114 1 3048 3047 3049 3121
4115 1 3047 3048 3046 3120
4116 1 3049 3048 3050 2531
4117 1 3121 3048 3122 2523
4118 1 2531 3049 2522 2532
4119 1 3048 3049 3047 3121
4120 1 3049 3050 3048 2531
4121 1 3053 3052 3054 3117
4122 1 3054 3053 3055 3118
4123 1 3053 3054 3052 3117
4124 1 3055 3054 3056 2529
4125 1 3118 3054 3119 2527
4126 1 2529 3055 2526 2530
4127 1 3054 3055 3053 3118
4128 1 3055 3056 3054 2529
4129 1 3059 3058 3060 3111
4130 1 3060 3059 3061 3112
4131 1 3059 3060 3058 3111
4132 1 3061 3060 2155 3062
4133 1 3112 3060 2149 3113
4134 1 2155 3061 2148 2156
4135 1 3060 3061 3059 3112
4136 1 3061 3062 2155 3060
4137 1 3065 3064 3066 3114
4138 1 3066 3065 3067 3115
4139 1 3065 3066 3064 3114
4140 1 3067 3066 2152 3068
4141 1 3115 3066 2144 3116
4142 1 2152 3067 2143 2153
4143 1 3066 3067 3065 3115
4144 1 3067 3068 2152 3066
4145 1 3071 3070 3072 3105
4146 1 3072 3071 3073 3106
4147 1 3071 3072 3070 3105
4148 1 3073 3072 3074 1695
4149 1 3106 3072 3107 1691
4150 1 1695 3073 1690 1696
4151 1 3072 3073 3071 3106
4152 1 3073 3074 3072 1695
4153 1 3077 3076 3078 3108
4154 1 3078 3077 3079 3109
4155 1 3077 3078 3076 3108
4156 1 3079 3078 3080 1693
4157 1 3109 3078 3110 1687
4158 1 1693 3079 1686 1694
4159 1 3078 3079 3077 3109
4160 1 3079 3080 3078 1693
4161 1 3083 3082 3084 3102
4162 1 3084 3083 3085 3103
4163 1 3083 3084 3082 3102
4164 1 3085 3084 1287 3086
4165 1 3103 3084 1276 3104
4166 1 1287 3085 1275 1288
4167 1 3084 3085 3083 3103
4168 1 3085 3086 1287 3084
4169 1 3089 3088 3090 3099
4170 1 3090 3089 3091 3100
4171 1 3089 3090 3088 3099
4172 1 3091 3090 1284 3092
4173 1 3100 3090 1281 3101
4174 1 1284 3091 1280 1285
4175 1 3090 3091 3089 3100
4176 1 3091 3092 1284 3090
4177 1 3034 3093 3033 3035
4178 1 2927 3094 2926 2928
4179 1 3035 3094 3034 3036
4180 1 3094 3095 3035 2927
4181 1 3041 3096 3040 3042
4182 1 2923 3097 2922 2924
4183 1 3042 3097 3041 3043
4184 1 3097 3098 3042 2923
4185 1 3089 3099 3088 3090
4186 1 1281 3100 1280 1282
4187 1 3090 3100 3089 3091
4188 1 3100 3101 1281 3090
4189 1 3083 3102 3082 3084
4190 1 1276 3103 1275 1277
4191 1 3084 3103 3083 3085
4192 1 3103 3104 1276 3084
4193 1 3071 3105 3070 3072
4194 1 1691 3106 1690 1692
4195 1 3072 3106 3071 3073
4196 1 3106 3107 3072 1691
4197 1 3077 3108 3076 3078
4198 1 1687 3109 1686 1688
4199 1 3078 3109 3077 3079
4200 1 3109 3110 3078 1687
4201 1 3059 3111 3058 3060
4202 1 2149 3112 2148 2150
4203 1 3060 3112 3059 3061
4204 1 3112 3113 2149 3060
4205 1 3065 3114 3064 3066
4206 1 2144 3115 2143 2145
4207 1 3066 3115 3065 3067
4208 1 3115 3116 2144 3066
4209 1 3053 3117 3052 3054
4210 1 2527 3118 2526 2528
4211 1 3054 3118 3053 3055
4212 1 3118 3119 3054 2527
4213 1 3047 3120 3046 3048
4214 1 2523 3121 2522 2524
4215 1 3048 3121 3047 3049
4216 1 3121 3122 3048 2523
4217 1 3017 3123 3016 3018
4218 1 2935 3124 2934 2936
4219 1 3018 3124 3017 3019
4220 1 3124 3125 3018 2935
4221 1 3010 3126 3009 3011
4222 1 2931 3127 2930 2932
4223 1 3011 3127 3010 3012
4224 1 3127 3128 3011 2931
4225 1 3131 3130 3132 3244
4226 1 3132 3131 3133 3245
4227 1 3131 3132 3130 3244
4228 1 3133 3132 3134 3221
4229 1 3245 3132 3176 3246
4230 1 3132 3133 3131 3245
4231 1 3221 3133 3175 3222
4232 1 3133 3134 3132 3221
4233 1 3137 3136 3138 3241
4234 1 3138 3137 3139 3242
4235 1 3137 3138 3136 3241
4236 1 3139 3138 3140 3218
4237 1 3242 3138 3181 3243
4238 1 3138 3139 3137 3242
4239 1 3218 3139 3180 3219
4240 1 3139 3140 3138 3218
4241 1 3143 3142 3144 3247
4242 1 3144 3143 3145 3248
4243 1 3143 3144 3142 3247
4244 1 3145 3144 3146 3227
4245 1 3248 3144 3191 3249
4246 1 3144 3145 3143 3248
4247 1 3227 3145 3190 3228
4248 1 3145 3146 3144 3227
4249 1 3149 3148 3150 3250
4250 1 3150 3149 3151 3251
4251 1 3149 3150 3148 3250
4252 1 3151 3150 3152 3224
4253 1 3251 3150 3186 3252
4254 1 3150 3151 3149 3251
4255 1 3224 3151 3185 3225
4256 1 3151 3152 3150 3224
4257 1 3154 3153 3155 3259
4258 1 3155 3154 3156 3260
4259 1 3154 3155 3153 3259
4260 1 3156 3155 3157 3233
4261 1 3260 3155 3215 3261
4262 1 3155 3156 3154 3260
4263 1 3233 3156 3214 3234
4264 1 3156 3157 3155 3233
4265 1 3159 3158 3160 3262
4266 1 3160 3159 3161 3263
4267 1 3159 3160 3158 3262
4268 1 3161 3160 3162 3230
4269 1 3263 3160 3209 3264
4270 1 3160 3161 3159 3263
4271 1 3230 3161 3208 3231
4272 1 3161 3162 3160 3230
4273 1 3164 3163 3165 3256
4274 1 3165 3164 3166 3257
4275 1 3164 3165 3163 3256
4276 1 3166 3165 3167 3239
4277 1 3257 3165 3197 3258
4278 1 3165 3166 3164 3257
4279 1 3239 3166 3196 3240
4280 1 3166 3167 3165 3239
4281 1 3169 3168 3170 3253
4282 1 3170 3169 3171 3254
4283 1 3169 3170 3168 3253
4284 1 3171 3170 3172 3236
4285 1 3254 3170 3203 3255
4286 1 3170 3171 3169 3254
4287 1 3236 3171 3202 3237
4288 1 3171 3172 3170 3236
4289 1 3174 3173 3175 3220
4290 1 3175 3174 3176 3221
4291 1 3174 3175 3173 3220
4292 1 3176 3175 3177 3245
4293 1 3221 3175 3133 3222
4294 1 3175 3176 3174 3221
4295 1 3245 3176 3132 3246
4296 1 3176 3177 3175 3245
4297 1 3179 3178 3180 3217
4298 1 3180 3179 3181 3218
4299 1 3179 3180 3178 3217
4300 1 3181 3180 3182 3242
4301 1 3218 3180 3139 3219
4302 1 3180 3181 3179 3218
4303 1 3242 3181 3138 3243
4304 1 3181 3182 3180 3242
4305 1 3184 3183 3185 3223
4306 1 3185 3184 3186 3224
4307 1 3184 3185 3183 3223
4308 1 3186 3185 3187 3251
4309 1 3224 3185 3151 3225
4310 1 3185 3186 3184 3224
4311 1 3251 3186 3150 3252
4312 1 3186 3187 3185 3251
4313 1 3189 3188 3190 3226
4314 1 3190 3189 3191 3227
4315 1 3189 3190 3188 3226
4316 1 3191 3190 3192 3248
4317 1 3227 3190 3145 3228
4318 1 3190 3191 3189 3227
4319 1 3248 3191 3144 3249
4320 1 3191 3192 3190 3248
4321 1 3195 3194 3196 3238
4322 1 3196 3195 3197 3239
4323 1 3195 3196 3194 3238
4324 1 3197 3196 3198 3257
4325 1 3239 3196 3166 3240
4326 1 3196 3197 3195 3239
4327 1 3257 3197 3165 3258
4328 1 3197 3198 3196 3257
4329 1 3201 3200 3202 3235
4330 1 3202 3201 3203 3236
4331 1 3201 3202 3200 3235
4332 1 3203 3202 3204 3254
4333 1 3236 3202 3171 3237
4334 1 3202 3203 3201 3236
4335 1 3254 3203 3170 3255
4336 1 3203 3204 3202 3254
4337 1 3207 3206 3208 3229
4338 1 3208 3207 3209 3230
4339 1 3207 3208 3206 3229
4340 1 3209 3208 3210 3263
4341 1 3230 3208 3161 3231
4342 1 3208 3209 3207 3230
4343 1 3263 3209 3160 3264
4344 1 3209 3210 3208 3263
4345 1 3213 3212 3214 3232
4346 1 3214 3213 3215 3233
4347 1 3213 3214 3212 3232
4348 1 3215 3214 3216 3260
4349 1 3233 3214 3156 3234
4350 1 3214 3215 3213 3233
4351 1 3260 3215 3155 3261
4352 1 3215 3216 3214 3260
4353 1 3179 3217 3178 3180
4354 1 3139 3218 3138 3140
4355 1 3180 3218 3179 3181
4356 1 3218 3219 3139 3180
4357 1 3174 3220 3173 3175
4358 1 3133 3221 3132 3134
4359 1 3175 3221 3174 3176
4360 1 3221 3222 3133 3175
4361 1 3184 3223 3183 3185
4362 1 3151 3224 3150 3152
4363 1 3185 3224 3184 3186
4364 1 3224 3225 3151 3185
4365 1 3189 3226 3188 3190
4366 1 3145 3227 3144 3146
4367 1 3190 3227 3189 3191
4368 1 3227 3228 3145 3190
4369 1 3207 3229 3206 3208
4370 1 3161 3230 3160 3162
4371 1 3208 3230 3207 3209
4372 1 3230 3231 3161 3208
4373 1 3213 3232 3212 3214
4374 1 3156 3233 3155 3157
4375 1 3214 3233 3213 3215
4376 1 3233 3234 3156 3214
4377 1 3201 3235 3200 3202
4378 1 3171 3236 3170 3172
4379 1 3202 3236 3201 3203
4380 1 3236 3237 3171 3202
4381 1 3195 3238 3194 3196
4382 1 3166 3239 3165 3167
4383 1 3196 3239 3195 3197
4384 1 3239 3240 3166 3196
4385 1 3137 3241 3136 3138
4386 1 3138 3242 3137 3139
4387 1 3181 3242 3180 3182
4388 1 3242 3243 3138 3181
4389 1 3131 3244 3130 3132
4390 1 3132 3245 3131 3133
4391 1 3176 3245 3175 3177
4392 1 3245 3246 3132 3176
4393 1 3143 3247 3142 3144
4394 1 3144 3248 3143 3145
4395 1 3191 3248 3190 3192
4396 1 3248 3249 3144 3191
4397 1 3149 3250 3148 3150
4398 1 3150 3251 3149 3151
4399 1 3186 3251 3185 3187
4400 1 3251 3252 3150 3186
4401 1 3169 3253 3168 3170
4402 1 3170 3254 3169 3171
4403 1 3203 3254 3202 3204
4404 1 3254 3255 3170 3203
4405 1 3164 3256 3163 3165
4406 1 3165 3257 3164 3166
4407 1 3197 3257 3196 3198
4408 1 3257 3258 3165 3197
4409 1 3154 3259 3153 3155
4410 1 3155 3260 3154 3156
4411 1 3215 3260 3214 3216
4412 1 3260 3261 3155 3215
4413 1 3159 3262 3158 3160
4414 1 3160 3263 3159 3161
4415 1 3209 3263 3208 3210
4416 1 3263 3264 3160 3209
4417 1 3266 3265 3267 3326
4418 1 3267 3266 3268 3327
4419 1 3266 3267 3265 3326
4420 1 3268 3267 3269 3309
4421 1 3327 3267 3298 3328
4422 1 3267 3268 3266 3327
4423 1 3309 3268 3297 3310
4424 1 3268 3269 3267 3309
4425 1 3271 3270 3272 3323
4426 1 3272 3271 3273 3324
4427 1 3271 3272 3270 3323
4428 1 3273 3272 3274 3306
4429 1 3324 3272 3303 3325
4430 1 3272 3273 3271 3324
4431 1 3306 3273 3302 3307
4432 1 3273 3274 3272 3306
4433 1 3276 3275 3277 3317
4434 1 3277 3276 3278 3318
4435 1 3276 3277 3275 3317
4436 1 3278 3277 3279 3315
4437 1 3318 3277 3293 3319
4438 1 3277 3278 3276 3318
4439 1 3315 3278 3292 3316
4440 1 3278 3279 3277 3315
4441 1 3281 3280 3282 3320
4442 1 3282 3281 3283 3321
4443 1 3281 3282 3280 3320
4444 1 3283 3282 3284 3312
4445 1 3321 3282 3288 3322
4446 1 3282 3283 3281 3321
4447 1 3312 3283 3287 3313
4448 1 3283 3284 3282 3312
4449 1 3286 3285 3287 3311
4450 1 3287 3286 3288 3312
4451 1 3286 3287 3285 3311
4452 1 3288 3287 3289 3321
4453 1 3312 3287 3283 3313
4454 1 3287 3288 3286 3312
4455 1 3321 3288 3282 3322
4456 1 3288 3289 3287 3321
4457 1 3291 3290 3292 3314
4458 1 3292 3291 3293 3315
4459 1 3291 3292 3290 3314
4460 1 3293 3292 3294 3318
4461 1 3315 3292 3278 3316
4462 1 3292 3293 3291 3315
4463 1 3318 3293 3277 3319
4464 1 3293 3294 3292 3318
4465 1 3296 3295 3297 3308
4466 1 3297 3296 3298 3309
4467 1 3296 3297 3295 3308
4468 1 3298 3297 3299 3327
4469 1 3309 3297 3268 3310
4470 1 3297 3298 3296 3309
4471 1 3327 3298 3267 3328
4472 1 3298 3299 3297 3327
4473 1 3301 3300 3302 3305
4474 1 3302 3301 3303 3306
4475 1 3301 3302 3300 3305
4476 1 3303 3302 3304 3324
4477 1 3306 3302 3273 3307
4478 1 3302 3303 3301 3306
4479 1 3324 3303 3272 3325
4480 1 3303 3304 3302 3324
4481 1 3301 3305 3300 3302
4482 1 3273 3306 3272 3274
4483 1 3302 3306 3301 3303
4484 1 3306 3307 3273 3302
4485 1 3296 3308 3295 3297
4486 1 3268 3309 3267 3269
4487 1 3297 3309 3296 3298
4488 1 3309 3310 3268 3297
4489 1 3286 3311 3285 3287
4490 1 3283 3312 3282 3284
4491 1 3287 3312 3286 3288
4492 1 3312 3313 3283 3287
4493 1 3291 3314 3290 3292
4494 1 3278 3315 3277 3279
4495 1 3292 3315 3291 3293
4496 1 3315 3316 3278 3292
4497 1 3276 3317 3275 3277
4498 1 3277 3318 3276 3278
4499 1 3293 3318 3292 3294
4500 1 3318 3319 3277 3293
4501 1 3281 3320 3280 3282
4502 1 3282 3321 3281 3283
4503 1 3288 3321 3287 3289
4504 1 3321 3322 3282 3288
4505 1 3271 3323 3270 3272
4506 1 3272 3324 3271 3273
4507 1 3303 3324 3302 3304
4508 1 3324 3325 3272 3303
4509 1 3266 3326 3265 3267
4510 1 3267 3327 3266 3268
4511 1 3298 3327 3297 3299
4512 1 3327 3328 3267 3298
4513 1 3345 3329 3339 3346
4514 1 3349 3330 3340 3350
4515 1 3381 3331 3343 3382
4516 1 3385 3332 3344 3386
4517 1 3369 3333 3342 3370
4518 1 3373 3334 3341 3374
4519 1 3353 3335 3338 3354
4520 1 3357 3336 3337 3358
4521 1 3357 3337 3336 3358
4522 1 3353 3338 3335 3354
4523 1 3345 3339 3329 3346
4524 1 3349 3340 3330 3350
4525 1 3373 3341 3334 3374
4526 1 3369 3342 3333 3370
4527 1 3381 3343 3331 3382
4528 1 3385 3344 3332 3386
4529 1 3346 3345 3347 3365
4530 1 3345 3346 3329 3339
4531 1 3347 3346 2673 3348
4532 1 3365 3346 2619 3366
4533 1 2673 3347 2618 2674
4534 1 3346 3347 3345 3365
4535 1 3347 3348 2673 3346
4536 1 3350 3349 3351 3367
4537 1 3349 3350 3330 3340
4538 1 3351 3350 2670 3352
4539 1 3367 3350 2612 3368
4540 1 2670 3351 2611 2671
4541 1 3350 3351 3349 3367
4542 1 3351 3352 2670 3350
4543 1 3354 3353 3355 3363
4544 1 3353 3354 3335 3338
4545 1 3355 3354 2703 3356
4546 1 3363 3354 2588 3364
4547 1 2703 3355 2587 2704
4548 1 3354 3355 3353 3363
4549 1 3355 3356 2703 3354
4550 1 3358 3357 3359 3361
4551 1 3357 3358 3336 3337
4552 1 3359 3358 2700 3360
4553 1 3361 3358 2595 3362
4554 1 2700 3359 2594 2701
4555 1 3358 3359 3357 3361
4556 1 3359 3360 2700 3358
4557 1 2595 3361 2594 2596
4558 1 3358 3361 3357 3359
4559 1 3361 3362 2595 3358
4560 1 2588 3363 2587 2589
4561 1 3354 3363 3353 3355
4562 1 3363 3364 2588 3354
4563 1 2619 3365 2618 2620
4564 1 3346 3365 3345 3347
4565 1 3365 3366 2619 3346
4566 1 2612 3367 2611 2613
4567 1 3350 3367 3349 3351
4568 1 3367 3368 2612 3350
4569 1 3370 3369 3371 3379
4570 1 3369 3370 3333 3342
4571 1 3371 3370 2273 3372
4572 1 3379 3370 2201 3380
4573 1 2273 3371 2200 2274
4574 1 3370 3371 3369 3379
4575 1 3371 3372 2273 3370
4576 1 3374 3373 3375 3377
4577 1 3373 3374 3334 3341
4578 1 3375 3374 2270 3376
4579 1 3377 3374 2207 3378
4580 1 2270 3375 2206 2271
4581 1 3374 3375 3373 3377
4582 1 3375 3376 2270 3374
4583 1 2207 3377 2206 2208
4584 1 3374 3377 3373 3375
4585 1 3377 3378 2207 3374
4586 1 2201 3379 2200 2202
4587 1 3370 3379 3369 3371
4588 1 3379 3380 2201 3370
4589 1 3382 3381 3383 3389
4590 1 3381 3382 3331 3343
4591 1 3383 3382 1413 3384
4592 1 3389 3382 1383 3390
4593 1 1413 3383 1382 1414
4594 1 3382 3383 3381 3389
4595 1 3383 3384 1413 3382
4596 1 3386 3385 3387 3391
4597 1 3385 3386 3332 3344
4598 1 3387 3386 1410 3388
4599 1 3391 3386 1377 3392
4600 1 1410 3387 1376 1411
4601 1 3386 3387 3385 3391
4602 1 3387 3388 1410 3386
4603 1 1383 3389 1382 1384
4604 1 3382 3389 3381 3383
4605 1 3389 3390 1383 3382
4606 1 1377 3391 1376 1378
4607 1 3386 3391 3385 3387
4608 1 3391 3392 1377 3386
