Generated using phonoLAMMPS
1.0
       14.6255490637         0.0000000000         0.0000000000
       -7.3127745319        12.6660967979         0.0000000000
        0.0000000000         0.0000000000         3.4160401409
C H C H C H C H C H C H C H C H C H C H C H C H N 
13 1 1 1 1 1 1 1 1 1 1 1 1 1 1 1 1 1 1 1 1 1 1 1 6
Direct
0.609779921387456   0.385814391584488   0.498237705009324
0.553813265552434   0.441781044926689   0.498237705009324
0.609779920044557   0.223084430070463   0.498237705009324
0.553813264832290   0.111151119645930   0.498237705009324
0.772509880215681   0.385814391584489   0.498237705009324
0.884443189392904   0.441781044926690   0.498237705009324
0.384933223823441   0.610661078800008   0.498237705009324
0.440899879658463   0.554694425457807   0.498237705009324
0.384933225166341   0.773391040314033   0.498237705009324
0.440899880378608   0.885324350738567   0.498237705009324
0.222203264995216   0.610661078800008   0.498237705009324
0.110269955817994   0.554694425457807   0.498237705009324
0.607972128781352   0.553470898583506   0.498237705009324
0.595492671550188   0.689574425716308   0.498237705009324
0.442123412586602   0.053620131254932   0.498237705009324
0.306019884588629   0.905037146844053   0.498237705009324
0.941974174678665   0.387622177794882   0.498237705009324
0.090557155227149   0.400101629706016   0.498237705009324
0.386741016429544   0.443004571800990   0.498237705009324
0.399220473660709   0.306901044668187   0.498237705009324
0.552589732624297   0.942855339129564   0.498237705009324
0.688693260622269   0.091438323540444   0.498237705009324
0.052738970532232   0.608853292589615   0.498237705009324
0.904155989983748   0.596373840678481   0.498237705009324
0.552589732076032   0.608853292589614   0.498237705009324
0.688693260713380   0.596373840678479   0.498237705009324
0.052738965390094   0.443004571800990   0.498237705009324
0.904155981026127   0.306901044668188   0.498237705009324
0.386741016523918   0.942855339129565   0.498237705009324
0.399220472936825   0.091438323540445   0.498237705009324
0.442123413134865   0.387622177794881   0.498237705009324
0.306019884497516   0.400101629706016   0.498237705009324
0.941974179820803   0.553470898583507   0.498237705009324
0.090557164184771   0.689574425716309   0.498237705009324
0.607972128686981   0.053620131254932   0.498237705009324
0.595492672274073   0.905037146844051   0.498237705009324
0.436312507068834   0.717715701291507   0.498237705009324
0.277878604241323   0.717715701291507   0.498237705009324
0.277878602475002   0.559281794931356   0.498237705009324
0.558400638142063   0.278759769092989   0.498237705009324
0.716834540969575   0.278759769092989   0.498237705009324
0.716834542735894   0.437193675453140   0.498237705009324
