# LAMMPS data file written by OVITO Basic 3.12.4

1728 atoms
2112 bonds
4224 angles
3840 dihedrals
2304 impropers
4 atom types
5 bond types
8 angle types
3 dihedral types
1 improper types

-0.1497676619 32.9661476619 xlo xhi
-0.1262921631 27.7988321631 ylo yhi
-0.1873597495 41.2407397495 zlo zhi

Masses

1 50.9415  # V
2 15.9994  # O
3 12.0107  # C
4 1.00794  # H

Bond Coeffs

    1      246.439309        2.024894  # V_6+3 O_2
    2      714.557442        1.269010  # O_2 C_R
    3      462.655054        1.379256  # C_R C_R
    4      357.440381        1.081418  # C_R H_
    5      391.669513        1.458000  # C_R C_R

Angle Coeffs

    1      112.204783               1               4 # O_2 V_6+3 O_2
    2       85.538740              -1               3 # V_6+3 O_2 C_R
    3       69.053070              -1               3 # V_6+3 O_2 V_6+3
    4      111.297508              -1               3 # C_R C_R C_R
    5       57.289016              -1               3 # C_R C_R H_
    6      102.183280              -1               3 # C_R C_R C_R
    7      206.778426              -1               3 # O_2 C_R O_2
    8      137.714246              -1               3 # O_2 C_R C_R

Dihedral Coeffs

    1        6.737110              -1               2 # V_6+3 O_2 C_R O_2
    2        3.368555              -1               2 # C_R C_R C_R C_R
    3        12.50000              -1               2 # C_R C_R C_R O_2

Improper Coeffs

    1        2.000000        1.000000       -1.000000        0.000000               0 # C_R C_R C_R H_

Pair Coeffs

    1        0.016000        2.800986 # V_6+3 V_6+3
    2        0.060000        3.118146 # O_2 O_2
    3        0.105000        3.430851 # C_R C_R
    4        0.044000        2.571134 # H_ H_

Atoms  # full

1	1	1	0	12.2500171529 	10.3453493403 	1.5388233626 
2	1	1	0	12.2500139971 	10.3453256903 	4.9911202257 
3	1	1	0	3.9710225371 	3.3640341987 	1.5387765601 
4	1	1	0	3.9710254835 	3.3640618753 	4.9911647985 
5	1	2	0	10.8008730365 	9.0717464334 	2.1392335309 
6	1	2	0	2.5219261632 	2.0904456213 	5.5915761367 
7	1	2	0	13.6990744296 	9.0716997064 	4.3906721363 
8	1	2	0	5.4201355556 	2.0904423140 	0.9383309288 
9	1	2	0	2.5251675837 	4.6409148234 	4.3892124017 
10	1	2	0	10.8041872213 	11.6222106800 	0.9368845164 
11	1	2	0	5.4169817878 	4.6408320265 	2.1406879725 
12	1	2	0	13.6959913198 	11.6220921925 	5.5930379034 
13	1	2	0	5.4201012763 	4.6376602273 	4.3906571077 
14	1	2	0	13.6991125480 	11.6189188268 	0.9383115999 
15	1	2	0	2.5218933722 	4.6376185901 	2.1392541817 
16	1	2	0	10.8009028010 	11.6189114937 	5.5915894382 
17	1	2	0	13.6959539536 	9.0685334534 	2.1406684764 
18	1	2	0	5.4170139234 	2.0872650666 	5.5930284441 
19	1	2	0	10.8041508622 	9.0684469076 	4.3892269148 
20	1	2	0	2.5252102527 	2.0871488551 	0.9368993744 
21	1	2	0	12.2499978430 	9.3785391663 	6.7173083092 
22	1	2	0	3.9710391590 	2.3972619758 	3.2649679860 
23	1	2	0	3.9710219645 	4.3308107899 	6.7173098136 
24	1	2	0	12.2500149914 	11.3120879901 	3.2649663682 
25	2	3	0	8.6511186549 	7.2939039726 	2.0532551612 
26	3	3	0	0.3721901742 	0.3125753732 	5.5055998826 
27	4	3	0	15.8491128650 	7.2941891770 	4.4766823022 
28	5	3	0	7.5702038565 	0.3129602492 	1.0243536152 
29	6	3	0	0.3760320212 	6.4191683621 	4.4762253201 
30	7	3	0	8.6550745172 	13.4005048001 	1.0238698456 
31	2	3	0	7.5662724520 	6.4188636602 	2.0537465953 
32	8	3	0	15.8453087445 	13.4001022715 	5.5060801469 
33	2	3	0	7.5701424014 	6.4151726136 	4.4766895895 
34	9	3	0	15.8491803666 	13.3964029781 	1.0243502972 
35	6	3	0	0.3721366180 	6.4154683583 	2.0532460720 
36	10	3	0	8.6511699999 	13.3967822188 	5.5056048845 
37	4	3	0	15.8452538166 	7.2905034238 	2.0537508231 
38	11	3	0	7.5663236025 	0.3092617747 	5.5060800109 
39	2	3	0	8.6550184349 	7.2901931647 	4.4762221011 
40	12	3	0	0.3760959012 	0.3088596618 	1.0238690262 
41	2	3	0	9.2066395212 	7.7415387437 	3.2645453891 
42	2	3	0	10.3446838989 	8.6835379451 	3.2643052819 
43	12	3	0	0.9276814560 	0.7601959921 	-0.1877862225 
44	3	3	0	2.0657247594 	1.7022191913 	6.7166332008 
45	4	3	0	15.2935689525 	7.7417162141 	3.2653853534 
46	4	3	0	14.1553838720 	8.6835948844 	3.2656201657 
47	5	3	0	7.0146072188 	0.7605018333 	-0.1869556139 
48	5	3	0	5.8764156181 	1.7023608164 	-0.1867376102 
49	6	3	0	0.9276667521 	5.9678186037 	3.2645507840 
50	6	3	0	2.0657137860 	5.0258174854 	3.2643014736 
51	7	3	0	9.2066621366 	12.9491655843 	-0.1877932129 
52	10	3	0	10.3447006082 	12.0071482521 	6.7166299975 
53	2	3	0	7.0145810516 	5.9676391501 	3.2653833647 
54	2	3	0	5.8764019705 	5.0257670990 	3.2656213876 
55	9	3	0	15.2935871013 	12.9488618708 	-0.1869521566 
56	9	3	0	14.1553916523 	12.0070002807 	-0.1867321144 
57	2	4	0	9.0496978458 	7.6212006420 	1.1010483456 
58	3	4	0	0.7707585112 	0.6398727340 	4.5533890916 
59	4	4	0	15.4505924061 	7.6215215296 	5.4288973684 
60	5	4	0	7.1716734655 	0.6403147914 	1.9765530480 
61	6	4	0	0.7780084484 	6.0948885781 	5.4279638453 
62	7	4	0	9.0570469743 	13.0762418783 	1.9756250247 
63	2	4	0	7.1642956915 	6.0945973848 	1.1019702930 
64	8	4	0	15.4433150071 	13.0758291348 	4.5543119660 
65	2	4	0	7.1716214037 	6.0878320929 	5.4288970175 
66	9	4	0	15.4506487701 	13.0690506308 	1.9765535867 
67	6	4	0	0.7707275028 	6.0881699120 	1.1010503745 
68	10	4	0	9.0497330573 	13.0694866116 	4.5533866754 
69	4	4	0	15.4432827239 	7.6147734765 	1.1019673964 
70	11	4	0	7.1643321004 	0.6335298930 	4.5543125686 
71	2	4	0	9.0569952278 	7.6144646440 	5.4279648156 
72	12	4	0	0.7780648593 	0.6331235902 	1.9756264150 
73	1	1	0	12.2500171508 	10.3453493407 	8.4435066123 
74	1	1	0	12.2500140017 	10.3453256841 	11.8958034720 
75	1	1	0	3.9710225370 	3.3640341986 	8.4434598053 
76	1	1	0	3.9710254888 	3.3640618737 	11.8958480430 
77	1	2	0	10.8008730368 	9.0717464335 	9.0439167804 
78	1	2	0	2.5219261624 	2.0904456213 	12.4962593883 
79	1	2	0	13.6990744285 	9.0716997077 	11.2953553864 
80	1	2	0	5.4201355552 	2.0904423145 	7.8430141810 
81	1	2	0	2.5251675825 	4.6409148240 	11.2938956519 
82	1	2	0	10.8041872216 	11.6222106798 	7.8415677671 
83	1	2	0	5.4169817878 	4.6408320266 	9.0453712226 
84	1	2	0	13.6959913188 	11.6220921930 	12.4977211545 
85	1	2	0	5.4201012752 	4.6376602271 	11.2953403583 
86	1	2	0	13.6991125486 	11.6189188268 	7.8429948499 
87	1	2	0	2.5218933725 	4.6376185898 	9.0439374319 
88	1	2	0	10.8009028001 	11.6189114951 	12.4962726890 
89	1	2	0	13.6959539545 	9.0685334528 	9.0453517254 
90	1	2	0	5.4170139221 	2.0872650673 	12.4977116959 
91	1	2	0	10.8041508615 	9.0684469082 	11.2939101654 
92	1	2	0	2.5252102527 	2.0871488550 	7.8415826263 
93	1	2	0	12.2499978431 	9.3785391679 	13.6219915590 
94	1	2	0	3.9710391585 	2.3972619761 	10.1696512386 
95	1	2	0	3.9710219642 	4.3308107900 	13.6219930632 
96	1	2	0	12.2500149911 	11.3120879910 	10.1696496186 
97	13	3	0	8.6511186545 	7.2939039722 	8.9579384111 
98	14	3	0	0.3721901750 	0.3125753739 	12.4102831316 
99	15	3	0	15.8491128661 	7.2941891761 	11.3813655507 
100	11	3	0	7.5702038565 	0.3129602492 	7.9290368652 
101	16	3	0	0.3760320217 	6.4191683616 	11.3809085706 
102	10	3	0	8.6550745165 	13.4005048007 	7.9285530950 
103	13	3	0	7.5662724519 	6.4188636601 	8.9584298450 
104	17	3	0	15.8453087434 	13.4001022707 	12.4107633959 
105	13	3	0	7.5701424017 	6.4151726139 	11.3813728380 
106	8	3	0	15.8491803667 	13.3964029782 	7.9290335471 
107	16	3	0	0.3721366184 	6.4154683579 	8.9579293213 
108	18	3	0	8.6511700012 	13.3967822178 	12.4102881332 
109	15	3	0	15.8452538175 	7.2905034231 	8.9584340729 
110	19	3	0	7.5663236022 	0.3092617749 	12.4107632611 
111	13	3	0	8.6550184342 	7.2901931642 	11.3809053504 
112	3	3	0	0.3760959006 	0.3088596613 	7.9285522755 
113	13	3	0	9.2066395211 	7.7415387437 	10.1692286397 
114	13	3	0	10.3446838995 	8.6835379455 	10.1689885314 
115	3	3	0	0.9276814547 	0.7601959911 	6.7168970268 
116	14	3	0	2.0657247584 	1.7022191904 	13.6213164509 
117	15	3	0	15.2935689525 	7.7417162141 	10.1700686036 
118	15	3	0	14.1553838708 	8.6835948853 	10.1703034172 
119	11	3	0	7.0146072184 	0.7605018337 	6.7177276356 
120	11	3	0	5.8764156181 	1.7023608163 	6.7179456384 
121	16	3	0	0.9276667526 	5.9678186033 	10.1692340334 
122	16	3	0	2.0657137854 	5.0258174860 	10.1689847240 
123	10	3	0	9.2066621360 	12.9491655848 	6.7168900370 
124	18	3	0	10.3447006067 	12.0071482531 	13.6213132479 
125	13	3	0	7.0145810524 	5.9676391508 	10.1700666152 
126	13	3	0	5.8764019704 	5.0257670988 	10.1703046379 
127	8	3	0	15.2935871015 	12.9488618711 	6.7177310928 
128	8	3	0	14.1553916520 	12.0070002806 	6.7179511355 
129	13	4	0	9.0496978459 	7.6212006420 	8.0057315954 
130	14	4	0	0.7707585109 	0.6398727338 	11.4580723419 
131	15	4	0	15.4505924056 	7.6215215299 	12.3335806190 
132	11	4	0	7.1716734656 	0.6403147913 	8.8812362977 
133	16	4	0	0.7780084482 	6.0948885782 	12.3326470949 
134	10	4	0	9.0570469745 	13.0762418781 	8.8803082748 
135	13	4	0	7.1642956916 	6.0945973849 	8.0066535430 
136	17	4	0	15.4433150074 	13.0758291351 	11.4589952163 
137	13	4	0	7.1716214035 	6.0878320927 	12.3335802680 
138	8	4	0	15.4506487701 	13.0690506308 	8.8812368366 
139	16	4	0	0.7707275027 	6.0881699121 	8.0057336246 
140	18	4	0	9.0497330569 	13.0694866120 	11.4580699260 
141	15	4	0	15.4432827237 	7.6147734766 	8.0066506463 
142	19	4	0	7.1643321005 	0.6335298930 	11.4589958183 
143	13	4	0	9.0569952281 	7.6144646442 	12.3326480657 
144	3	4	0	0.7780648594 	0.6331235903 	8.8803096651 
145	1	1	0	12.2500171449 	10.3453493375 	15.3481898649 
146	1	1	0	12.2500139973 	10.3453256888 	18.8004867221 
147	1	1	0	3.9710225340 	3.3640342017 	15.3481430626 
148	1	1	0	3.9710254933 	3.3640618722 	18.8005312988 
149	1	2	0	10.8008730379 	9.0717464341 	15.9486000298 
150	1	2	0	2.5219261622 	2.0904456219 	19.4009426358 
151	1	2	0	13.6990744294 	9.0716997070 	18.2000386369 
152	1	2	0	5.4201355563 	2.0904423134 	14.7476974290 
153	1	2	0	2.5251675815 	4.6409148246 	18.1985789020 
154	1	2	0	10.8041872235 	11.6222106793 	14.7462510162 
155	1	2	0	5.4169817879 	4.6408320260 	15.9500544711 
156	1	2	0	13.6959913197 	11.6220921927 	19.4024044043 
157	1	2	0	5.4201012739 	4.6376602266 	18.2000236082 
158	1	2	0	13.6991125498 	11.6189188279 	14.7476780987 
159	1	2	0	2.5218933736 	4.6376185888 	15.9486206813 
160	1	2	0	10.8009028015 	11.6189114936 	19.4009559381 
161	1	2	0	13.6959539553 	9.0685334533 	15.9500349753 
162	1	2	0	5.4170139208 	2.0872650682 	19.4023949433 
163	1	2	0	10.8041508615 	9.0684469071 	18.1985934154 
164	1	2	0	2.5252102532 	2.0871488548 	14.7462658741 
165	1	2	0	12.2499978433 	9.3785391665 	20.5266748088 
166	1	2	0	3.9710391583 	2.3972619758 	17.0743344851 
167	1	2	0	3.9710219637 	4.3308107906 	20.5266763131 
168	1	2	0	12.2500149923 	11.3120879907 	17.0743328681 
169	20	3	0	8.6511186533 	7.2939039713 	15.8626216623 
170	21	3	0	0.3721901752 	0.3125753741 	19.3149663825 
171	22	3	0	15.8491128653 	7.2941891768 	18.2860488016 
172	19	3	0	7.5702038562 	0.3129602495 	14.8337201160 
173	23	3	0	0.3760320219 	6.4191683615 	18.2855918211 
174	18	3	0	8.6550745175 	13.4005047998 	14.8332363445 
175	20	3	0	7.5662724521 	6.4188636603 	15.8631130965 
176	24	3	0	15.8453087438 	13.4001022710 	19.3154466460 
177	20	3	0	7.5701424016 	6.4151726138 	18.2860560874 
178	17	3	0	15.8491803656 	13.3964029773 	14.8337167982 
179	23	3	0	0.3721366183 	6.4154683581 	15.8626125726 
180	25	3	0	8.6511700004 	13.3967822184 	19.3149713850 
181	22	3	0	15.8452538168 	7.2905034237 	15.8631173221 
182	26	3	0	7.5663236035 	0.3092617739 	19.3154465130 
183	20	3	0	8.6550184334 	7.2901931636 	18.2855886003 
184	14	3	0	0.3760959012 	0.3088596618 	14.8332355257 
185	20	3	0	9.2066395210 	7.7415387435 	17.0739118888 
186	20	3	0	10.3446839008 	8.6835379468 	17.0736717809 
187	14	3	0	0.9276814552 	0.7601959914 	13.6215802771 
188	21	3	0	2.0657247585 	1.7022191901 	20.5259997007 
189	22	3	0	15.2935689517 	7.7417162148 	17.0747518537 
190	22	3	0	14.1553838718 	8.6835948843 	17.0749866655 
191	19	3	0	7.0146072181 	0.7605018339 	13.6224108857 
192	19	3	0	5.8764156186 	1.7023608159 	13.6226288872 
193	23	3	0	0.9276667522 	5.9678186036 	17.0739172834 
194	23	3	0	2.0657137854 	5.0258174860 	17.0736679716 
195	18	3	0	9.2066621355 	12.9491655851 	13.6215732870 
196	25	3	0	10.3447006074 	12.0071482527 	20.5259964983 
197	20	3	0	7.0145810542 	5.9676391523 	17.0747498641 
198	20	3	0	5.8764019702 	5.0257670986 	17.0749878876 
199	17	3	0	15.2935871007 	12.9488618703 	13.6224143430 
200	17	3	0	14.1553916537 	12.0070002818 	13.6226343847 
201	20	4	0	9.0496978463 	7.6212006424 	14.9104148445 
202	21	4	0	0.7707585109 	0.6398727338 	18.3627555914 
203	22	4	0	15.4505924059 	7.6215215297 	19.2382638683 
204	19	4	0	7.1716734658 	0.6403147912 	15.7859195471 
205	23	4	0	0.7780084480 	6.0948885783 	19.2373303445 
206	18	4	0	9.0570469743 	13.0762418783 	15.7849915246 
207	20	4	0	7.1642956914 	6.0945973847 	14.9113367922 
208	24	4	0	15.4433150073 	13.0758291350 	18.3636784660 
209	20	4	0	7.1716214036 	6.0878320927 	19.2382635181 
210	17	4	0	15.4506487704 	13.0690506311 	15.7859200857 
211	23	4	0	0.7707275029 	6.0881699120 	14.9104168739 
212	25	4	0	9.0497330572 	13.0694866117 	18.3627531750 
213	22	4	0	15.4432827239 	7.6147734765 	14.9113338964 
214	26	4	0	7.1643321000 	0.6335298933 	18.3636790672 
215	20	4	0	9.0569952283 	7.6144646443 	19.2373313157 
216	14	4	0	0.7780648593 	0.6331235902 	15.7849929147 
217	1	1	0	12.2500171479 	10.3453493396 	22.2528731153 
218	1	1	0	12.2500140018 	10.3453256826 	25.7051699704 
219	1	1	0	3.9710225344 	3.3640341984 	22.2528263061 
220	1	1	0	3.9710254870 	3.3640618784 	25.7052145388 
221	1	2	0	10.8008730371 	9.0717464336 	22.8532832796 
222	1	2	0	2.5219261623 	2.0904456204 	26.3056258886 
223	1	2	0	13.6990744283 	9.0716997082 	25.1047218865 
224	1	2	0	5.4201355560 	2.0904423140 	21.6523806807 
225	1	2	0	2.5251675830 	4.6409148232 	25.1032621524 
226	1	2	0	10.8041872228 	11.6222106793 	21.6509342659 
227	1	2	0	5.4169817879 	4.6408320263 	22.8547377207 
228	1	2	0	13.6959913193 	11.6220921937 	26.3070876537 
229	1	2	0	5.4201012749 	4.6376602260 	25.1047068588 
230	1	2	0	13.6991125490 	11.6189188271 	21.6523613488 
231	1	2	0	2.5218933729 	4.6376185897 	22.8533039304 
232	1	2	0	10.8009028002 	11.6189114950 	26.3056391886 
233	1	2	0	13.6959539547 	9.0685334531 	22.8547182238 
234	1	2	0	5.4170139227 	2.0872650664 	26.3070781957 
235	1	2	0	10.8041508611 	9.0684469082 	25.1032766657 
236	1	2	0	2.5252102542 	2.0871488563 	21.6509491266 
237	1	2	0	12.2499978421 	9.3785391683 	27.4313580602 
238	1	2	0	3.9710391590 	2.3972619754 	23.9790177388 
239	1	2	0	3.9710219645 	4.3308107900 	27.4313595641 
240	1	2	0	12.2500149914 	11.3120879914 	23.9790161178 
241	27	3	0	8.6511186537 	7.2939039716 	22.7673049112 
242	28	3	0	0.3721901749 	0.3125753739 	26.2196496308 
243	29	3	0	15.8491128660 	7.2941891761 	25.1907320496 
244	26	3	0	7.5702038571 	0.3129602487 	21.7384033645 
245	30	3	0	0.3760320207 	6.4191683624 	25.1902750688 
246	25	3	0	8.6550745171 	13.4005048002 	21.7379195939 
247	27	3	0	7.5662724518 	6.4188636600 	22.7677963453 
248	31	3	0	15.8453087440 	13.4001022712 	26.2201298958 
249	27	3	0	7.5701424017 	6.4151726138 	25.1907393368 
250	24	3	0	15.8491803659 	13.3964029775 	21.7384000476 
251	30	3	0	0.3721366176 	6.4154683586 	22.7672958218 
252	32	3	0	8.6511700020 	13.3967822171 	26.2196546321 
253	29	3	0	15.8452538173 	7.2905034232 	22.7678005728 
254	33	3	0	7.5663236018 	0.3092617753 	26.2201297598 
255	27	3	0	8.6550184334 	7.2901931636 	25.1902718498 
256	21	3	0	0.3760959014 	0.3088596620 	21.7379187741 
257	27	3	0	9.2066395213 	7.7415387437 	23.9785951397 
258	27	3	0	10.3446839006 	8.6835379463 	23.9783550305 
259	21	3	0	0.9276814528 	0.7601959895 	20.5262635271 
260	28	3	0	2.0657247584 	1.7022191905 	27.4306829509 
261	29	3	0	15.2935689535 	7.7417162133 	23.9794351039 
262	29	3	0	14.1553838706 	8.6835948853 	23.9796699175 
263	26	3	0	7.0146072199 	0.7605018324 	20.5270941351 
264	26	3	0	5.8764156172 	1.7023608171 	20.5273121378 
265	30	3	0	0.9276667516 	5.9678186042 	23.9786005338 
266	30	3	0	2.0657137866 	5.0258174850 	23.9783512245 
267	25	3	0	9.2066621341 	12.9491655863 	20.5262565362 
268	32	3	0	10.3447006057 	12.0071482541 	27.4306797477 
269	27	3	0	7.0145810538 	5.9676391520 	23.9794331145 
270	27	3	0	5.8764019703 	5.0257670989 	23.9796711392 
271	24	3	0	15.2935871011 	12.9488618707 	20.5270975925 
272	24	3	0	14.1553916530 	12.0070002814 	20.5273176347 
273	27	4	0	9.0496978461 	7.6212006422 	21.8150980947 
274	28	4	0	0.7707585109 	0.6398727337 	25.2674388417 
275	29	4	0	15.4505924056 	7.6215215300 	26.1429471189 
276	26	4	0	7.1716734654 	0.6403147915 	22.6906027978 
277	30	4	0	0.7780084486 	6.0948885779 	26.1420135954 
278	25	4	0	9.0570469744 	13.0762418782 	22.6896747747 
279	27	4	0	7.1642956916 	6.0945973849 	21.8160200424 
280	31	4	0	15.4433150072 	13.0758291350 	25.2683617158 
281	27	4	0	7.1716214035 	6.0878320927 	26.1429467681 
282	24	4	0	15.4506487703 	13.0690506310 	22.6906033358 
283	30	4	0	0.7707275030 	6.0881699120 	21.8151001239 
284	32	4	0	9.0497330567 	13.0694866122 	25.2674364261 
285	29	4	0	15.4432827238 	7.6147734766 	21.8160171458 
286	33	4	0	7.1643321007 	0.6335298928 	25.2683623185 
287	27	4	0	9.0569952283 	7.6144646444 	26.1420145656 
288	21	4	0	0.7780648593 	0.6331235902 	22.6896761652 
289	1	1	0	12.2500171543 	10.3453493376 	29.1575563601 
290	1	1	0	12.2500139936 	10.3453256891 	32.6098532290 
291	1	1	0	3.9710225337 	3.3640341974 	29.1575095599 
292	1	1	0	3.9710254927 	3.3640618709 	32.6098977956 
293	1	2	0	10.8008730361 	9.0717464335 	29.7579665311 
294	1	2	0	2.5219261617 	2.0904456214 	33.2103091365 
295	1	2	0	13.6990744308 	9.0716997060 	32.0094051340 
296	1	2	0	5.4201355559 	2.0904423142 	28.5570639282 
297	1	2	0	2.5251675815 	4.6409148249 	32.0079454015 
298	1	2	0	10.8041872217 	11.6222106798 	28.5556175165 
299	1	2	0	5.4169817884 	4.6408320270 	29.7594209711 
300	1	2	0	13.6959913205 	11.6220921930 	33.2117709017 
301	1	2	0	5.4201012744 	4.6376602272 	32.0093901076 
302	1	2	0	13.6991125478 	11.6189188272 	28.5570445992 
303	1	2	0	2.5218933732 	4.6376185897 	29.7579871811 
304	1	2	0	10.8009028020 	11.6189114935 	33.2103224373 
305	1	2	0	13.6959539532 	9.0685334540 	29.7594014763 
306	1	2	0	5.4170139211 	2.0872650683 	33.2117614454 
307	1	2	0	10.8041508625 	9.0684469077 	32.0079599129 
308	1	2	0	2.5252102537 	2.0871488556 	28.5556323739 
309	1	2	0	12.2499978429 	9.3785391671 	34.3360413076 
310	1	2	0	3.9710391584 	2.3972619770 	30.8837009861 
311	1	2	0	3.9710219645 	4.3308107908 	34.3360428119 
312	1	2	0	12.2500149916 	11.3120879910 	30.8836993671 
313	34	3	0	8.6511186544 	7.2939039722 	29.6719881604 
314	35	3	0	0.3721901744 	0.3125753734 	33.1243328812 
315	36	3	0	15.8491128650 	7.2941891770 	32.0954153025 
316	33	3	0	7.5702038560 	0.3129602496 	28.6430866153 
317	37	3	0	0.3760320220 	6.4191683614 	32.0949583214 
318	32	3	0	8.6550745184 	13.4005047991 	28.6426028456 
319	34	3	0	7.5662724517 	6.4188636600 	29.6724795945 
320	38	3	0	15.8453087443 	13.4001022715 	33.1248131459 
321	34	3	0	7.5701424014 	6.4151726136 	32.0954225878 
322	31	3	0	15.8491803664 	13.3964029779 	28.6430832965 
323	37	3	0	0.3721366185 	6.4154683579 	29.6719790713 
324	39	3	0	8.6511700000 	13.3967822187 	33.1243378849 
325	36	3	0	15.8452538168 	7.2905034237 	29.6724838226 
326	40	3	0	7.5663236026 	0.3092617747 	33.1248130119 
327	34	3	0	8.6550184343 	7.2901931643 	32.0949551003 
328	28	3	0	0.3760959012 	0.3088596617 	28.6426020249 
329	34	3	0	9.2066395216 	7.7415387440 	30.8832783890 
330	34	3	0	10.3446838995 	8.6835379456 	30.8830382814 
331	28	3	0	0.9276814552 	0.7601959915 	27.4309467769 
332	35	3	0	2.0657247593 	1.7022191911 	34.3353662025 
333	36	3	0	15.2935689517 	7.7417162147 	30.8841183525 
334	36	3	0	14.1553838718 	8.6835948844 	30.8843531658 
335	33	3	0	7.0146072178 	0.7605018342 	27.4317773858 
336	33	3	0	5.8764156191 	1.7023608155 	27.4319953886 
337	37	3	0	0.9276667533 	5.9678186028 	30.8832837826 
338	37	3	0	2.0657137851 	5.0258174861 	30.8830344724 
339	32	3	0	9.2066621367 	12.9491655841 	27.4309397862 
340	39	3	0	10.3447006077 	12.0071482524 	34.3353629950 
341	34	3	0	7.0145810525 	5.9676391509 	30.8841163644 
342	34	3	0	5.8764019706 	5.0257670988 	30.8843543879 
343	31	3	0	15.2935871015 	12.9488618709 	27.4317808421 
344	31	3	0	14.1553916527 	12.0070002807 	27.4320008856 
345	34	4	0	9.0496978459 	7.6212006420 	28.7197813450 
346	35	4	0	0.7707585110 	0.6398727339 	32.1721220914 
347	36	4	0	15.4505924061 	7.6215215296 	33.0476303675 
348	33	4	0	7.1716734657 	0.6403147913 	29.5952860470 
349	37	4	0	0.7780084480 	6.0948885784 	33.0466968439 
350	32	4	0	9.0570469739 	13.0762418786 	29.5943580236 
351	34	4	0	7.1642956916 	6.0945973849 	28.7207032925 
352	38	4	0	15.4433150072 	13.0758291349 	32.1730449656 
353	34	4	0	7.1716214036 	6.0878320928 	33.0476300174 
354	31	4	0	15.4506487702 	13.0690506309 	29.5952865860 
355	37	4	0	0.7707275027 	6.0881699121 	28.7197833740 
356	39	4	0	9.0497330574 	13.0694866116 	32.1721196746 
357	36	4	0	15.4432827239 	7.6147734766 	28.7207003958 
358	40	4	0	7.1643321002 	0.6335298932 	32.1730455674 
359	34	4	0	9.0569952280 	7.6144646442 	33.0466978151 
360	28	4	0	0.7780648593 	0.6331235902 	29.5943594146 
361	1	1	0	12.2500171549 	10.3453493387 	36.0622396117 
362	1	1	0	12.2500139982 	10.3453256863 	39.5145364722 
363	1	1	0	3.9710225279 	3.3640342006 	36.0621928125 
364	1	1	0	3.9710254892 	3.3640618751 	39.5145810380 
365	1	2	0	10.8008730361 	9.0717464336 	36.6626497801 
366	1	2	0	2.5219261620 	2.0904456209 	40.1149923885 
367	1	2	0	13.6990744292 	9.0716997072 	38.9140883859 
368	1	2	0	5.4201355574 	2.0904423134 	35.4617471794 
369	1	2	0	2.5251675824 	4.6409148240 	38.9126286536 
370	1	2	0	10.8041872213 	11.6222106799 	35.4603007679 
371	1	2	0	5.4169817896 	4.6408320269 	36.6641042201 
372	1	2	0	13.6959913200 	11.6220921934 	40.1164541534 
373	1	2	0	5.4201012748 	4.6376602264 	38.9140733595 
374	1	2	0	13.6991125478 	11.6189188269 	35.4617278494 
375	1	2	0	2.5218933748 	4.6376185886 	36.6626704289 
376	1	2	0	10.8009028010 	11.6189114942 	40.1150056875 
377	1	2	0	13.6959539528 	9.0685334542 	36.6640847245 
378	1	2	0	5.4170139220 	2.0872650671 	40.1164446950 
379	1	2	0	10.8041508621 	9.0684469082 	38.9126431648 
380	1	2	0	2.5252102539 	2.0871488551 	35.4603156228 
381	1	2	0	12.2499978426 	9.3785391671 	41.2407245588 
382	1	2	0	3.9710391595 	2.3972619759 	37.7883842371 
383	1	2	0	3.9710219638 	4.3308107904 	41.2407260642 
384	1	2	0	12.2500149910 	11.3120879911 	37.7883826180 
385	41	3	0	8.6511186547 	7.2939039724 	36.5766714101 
386	12	3	0	0.3721901750 	0.3125753739 	40.0290161302 
387	42	3	0	15.8491128657 	7.2941891764 	39.0000985498 
388	40	3	0	7.5702038560 	0.3129602496 	35.5477698662 
389	43	3	0	0.3760320205 	6.4191683626 	38.9996415685 
390	39	3	0	8.6550745170 	13.4005048003 	35.5472860949 
391	41	3	0	7.5662724519 	6.4188636601 	36.5771628437 
392	9	3	0	15.8453087441 	13.4001022712 	40.0294963953 
393	41	3	0	7.5701424018 	6.4151726139 	39.0001058374 
394	38	3	0	15.8491803666 	13.3964029781 	35.5477665465 
395	43	3	0	0.3721366171 	6.4154683590 	36.5766623233 
396	7	3	0	8.6511700006 	13.3967822183 	40.0290211330 
397	42	3	0	15.8452538172 	7.2905034233 	36.5771670734 
398	5	3	0	7.5663236025 	0.3092617747 	40.0294962605 
399	41	3	0	8.6550184344 	7.2901931643 	38.9996383497 
400	35	3	0	0.3760959006 	0.3088596614 	35.5472852749 
401	41	3	0	9.2066395211 	7.7415387436 	37.7879616397 
402	41	3	0	10.3446838993 	8.6835379453 	37.7877215307 
403	35	3	0	0.9276814553 	0.7601959915 	34.3356300268 
404	12	3	0	2.0657247582 	1.7022191901 	41.2400494504 
405	42	3	0	15.2935689541 	7.7417162128 	37.7888016036 
406	42	3	0	14.1553838711 	8.6835948851 	37.7890364160 
407	40	3	0	7.0146072185 	0.7605018336 	34.3364606343 
408	40	3	0	5.8764156184 	1.7023608159 	34.3366786352 
409	43	3	0	0.9276667504 	5.9678186051 	37.7879670334 
410	43	3	0	2.0657137870 	5.0258174845 	37.7877177222 
411	39	3	0	9.2066621353 	12.9491655853 	34.3356230356 
412	7	3	0	10.3447006072 	12.0071482529 	41.2400462481 
413	41	3	0	7.0145810521 	5.9676391505 	37.7887996151 
414	41	3	0	5.8764019702 	5.0257670989 	37.7890376373 
415	38	3	0	15.2935871013 	12.9488618708 	34.3364640926 
416	38	3	0	14.1553916522 	12.0070002806 	34.3366841356 
417	41	4	0	9.0496978458 	7.6212006419 	35.6244645950 
418	12	4	0	0.7707585108 	0.6398727337 	39.0768053415 
419	42	4	0	15.4505924057 	7.6215215299 	39.9523136184 
420	40	4	0	7.1716734659 	0.6403147911 	36.4999692965 
421	43	4	0	0.7780084486 	6.0948885779 	39.9513800951 
422	39	4	0	9.0570469743 	13.0762418783 	36.4990412740 
423	41	4	0	7.1642956917 	6.0945973849 	35.6253865427 
424	9	4	0	15.4433150072 	13.0758291349 	39.0777282155 
425	41	4	0	7.1716214035 	6.0878320926 	39.9523132674 
426	38	4	0	15.4506487701 	13.0690506308 	36.4999698360 
427	43	4	0	0.7707275032 	6.0881699117 	35.6244666228 
428	7	4	0	9.0497330571 	13.0694866119 	39.0768029251 
429	42	4	0	15.4432827237 	7.6147734766 	35.6253836452 
430	5	4	0	7.1643321004 	0.6335298930 	39.0777288176 
431	41	4	0	9.0569952281 	7.6144646442 	39.9513810652 
432	35	4	0	0.7780648595 	0.6331235904 	36.4990426646 
433	1	1	0	12.2500171490 	24.3079115078 	1.5388233607 
434	1	1	0	12.2500139933 	24.3078878534 	4.9911202229 
435	1	1	0	3.9710225294 	17.3265963617 	1.5387765650 
436	1	1	0	3.9710254914 	17.3266240375 	4.9911647929 
437	1	2	0	10.8008730370 	23.0343085959 	2.1392335309 
438	1	2	0	2.5219261618 	16.0530077841 	5.5915761381 
439	1	2	0	13.6990744299 	23.0342618698 	4.3906721363 
440	1	2	0	5.4201355572 	16.0530044765 	0.9383309272 
441	1	2	0	2.5251675820 	18.6034769875 	4.3892124036 
442	1	2	0	10.8041872224 	25.5847728419 	0.9368845173 
443	1	2	0	5.4169817894 	18.6033941904 	2.1406879707 
444	1	2	0	13.6959913208 	25.5846543562 	5.5930379047 
445	1	2	0	5.4201012744 	18.6002223896 	4.3906571095 
446	1	2	0	13.6991125492 	25.5814809899 	0.9383115998 
447	1	2	0	2.5218933742 	18.6001807523 	2.1392541802 
448	1	2	0	10.8009028022 	25.5814736564 	5.5915894387 
449	1	2	0	13.6959539542 	23.0310956159 	2.1406684763 
450	1	2	0	5.4170139213 	16.0498272309 	5.5930284456 
451	1	2	0	10.8041508629 	23.0310090708 	4.3892269151 
452	1	2	0	2.5252102542 	16.0497110187 	0.9368993723 
453	1	2	0	12.2499978434 	23.3411013299 	6.7173083093 
454	1	2	0	3.9710391591 	16.3598241397 	3.2649679863 
455	1	2	0	3.9710219643 	18.2933729534 	6.7173098140 
456	1	2	0	12.2500149922 	25.2746501524 	3.2649663692 
457	44	3	0	8.6511186546 	21.2564661355 	2.0532551611 
458	45	3	0	0.3721901750 	14.2751375371 	5.5055998813 
459	46	3	0	15.8491128641 	21.2567513409 	4.4766823024 
460	7	3	0	7.5702038556 	14.2755224130 	1.0243536170 
461	47	3	0	0.3760320211 	20.3817305252 	4.4762253206 
462	5	3	0	8.6550745163 	27.3630669639 	1.0238698442 
463	44	3	0	7.5662724521 	20.3814258234 	2.0537465949 
464	48	3	0	15.8453087440 	27.3626644343 	5.5060801453 
465	44	3	0	7.5701424019 	20.3777347771 	4.4766895880 
466	49	3	0	15.8491803673 	27.3589651418 	1.0243502975 
467	47	3	0	0.3721366175 	20.3780305218 	2.0532460734 
468	11	3	0	8.6511700000 	27.3593443819 	5.5056048849 
469	46	3	0	15.8452538155 	21.2530655878 	2.0537508221 
470	10	3	0	7.5663236023 	14.2718239380 	5.5060800118 
471	44	3	0	8.6550184344 	21.2527553274 	4.4762221000 
472	50	3	0	0.3760959012 	14.2714218249 	1.0238690256 
473	44	3	0	9.2066395208 	21.7041009064 	3.2645453900 
474	44	3	0	10.3446838992 	22.6461001088 	3.2643052821 
475	50	3	0	0.9276814553 	14.7227581546 	-0.1877862229 
476	45	3	0	2.0657247586 	15.6647813537 	6.7166332016 
477	46	3	0	15.2935689521 	21.7042783776 	3.2653853538 
478	46	3	0	14.1553838732 	22.6461570464 	3.2656201664 
479	7	3	0	7.0146072176 	14.7230639975 	-0.1869556147 
480	7	3	0	5.8764156192 	15.6649229785 	-0.1867376102 
481	47	3	0	0.9276667514 	19.9303807673 	3.2645507835 
482	47	3	0	2.0657137863 	18.9883796482 	3.2643014726 
483	5	3	0	9.2066621354 	26.9117277484 	-0.1877932123 
484	11	3	0	10.3447006078 	25.9697104154 	6.7166299978 
485	44	3	0	7.0145810523 	19.9302013138 	3.2653833655 
486	44	3	0	5.8764019702 	18.9883292619 	3.2656213882 
487	49	3	0	15.2935871009 	26.9114240336 	-0.1869521573 
488	49	3	0	14.1553916513 	25.9695624431 	-0.1867321130 
489	44	4	0	9.0496978459 	21.5837628051 	1.1010483455 
490	45	4	0	0.7707585108 	14.6024348969 	4.5533890921 
491	46	4	0	15.4505924062 	21.5840836926 	5.4288973681 
492	7	4	0	7.1716734659 	14.6028769543 	1.9765530473 
493	47	4	0	0.7780084483 	20.0574507413 	5.4279638452 
494	5	4	0	9.0570469747 	27.0388040412 	1.9756250254 
495	44	4	0	7.1642956916 	20.0571595480 	1.1019702931 
496	48	4	0	15.4433150073 	27.0383912981 	4.5543119667 
497	44	4	0	7.1716214035 	20.0503942557 	5.4288970182 
498	49	4	0	15.4506487699 	27.0316127938 	1.9765535868 
499	47	4	0	0.7707275030 	20.0507320749 	1.1010503739 
500	11	4	0	9.0497330573 	27.0320487748 	4.5533866753 
501	46	4	0	15.4432827242 	21.5773356393 	1.1019673969 
502	10	4	0	7.1643321004 	14.5960920562 	4.5543125682 
503	44	4	0	9.0569952282 	21.5770268073 	5.4279648160 
504	50	4	0	0.7780648594 	14.5956857534 	1.9756264154 
505	1	1	0	12.2500171507 	24.3079115006 	8.4435066153 
506	1	1	0	12.2500139973 	24.3078878498 	11.8958034761 
507	1	1	0	3.9710225306 	17.3265963635 	8.4434598100 
508	1	1	0	3.9710254950 	17.3266240393 	11.8958480426 
509	1	2	0	10.8008730369 	23.0343085971 	9.0439167804 
510	1	2	0	2.5219261609 	16.0530077834 	12.4962593872 
511	1	2	0	13.6990744297 	23.0342618701 	11.2953553860 
512	1	2	0	5.4201355569 	16.0530044766 	7.8430141795 
513	1	2	0	2.5251675807 	18.6034769878 	11.2938956519 
514	1	2	0	10.8041872213 	25.5847728437 	7.8415677660 
515	1	2	0	5.4169817892 	18.6033941902 	9.0453712213 
516	1	2	0	13.6959913197 	25.5846543561 	12.4977211525 
517	1	2	0	5.4201012737 	18.6002223892 	11.2953403587 
518	1	2	0	13.6991125490 	25.5814809907 	7.8429948486 
519	1	2	0	2.5218933741 	18.6001807519 	9.0439374303 
520	1	2	0	10.8009028012 	25.5814736573 	12.4962726871 
521	1	2	0	13.6959539543 	23.0310956166 	9.0453517258 
522	1	2	0	5.4170139211 	16.0498272305 	12.4977116957 
523	1	2	0	10.8041508621 	23.0310090712 	11.2939101652 
524	1	2	0	2.5252102540 	16.0497110186 	7.8415826246 
525	1	2	0	12.2499978430 	23.3411013308 	13.6219915600 
526	1	2	0	3.9710391585 	16.3598241387 	10.1696512375 
527	1	2	0	3.9710219644 	18.2933729527 	13.6219930643 
528	1	2	0	12.2500149916 	25.2746501544 	10.1696496171 
529	51	3	0	8.6511186542 	21.2564661351 	8.9579384118 
530	52	3	0	0.3721901750 	14.2751375371 	12.4102831305 
531	53	3	0	15.8491128658 	21.2567513395 	11.3813655520 
532	10	3	0	7.5702038560 	14.2755224127 	7.9290368661 
533	54	3	0	0.3760320211 	20.3817305252 	11.3809085712 
534	11	3	0	8.6550745167 	27.3630669636 	7.9285530953 
535	51	3	0	7.5662724524 	20.3814258236 	8.9584298450 
536	55	3	0	15.8453087441 	27.3626644344 	12.4107633962 
537	51	3	0	7.5701424022 	20.3777347773 	11.3813728373 
538	48	3	0	15.8491803663 	27.3589651409 	7.9290335484 
539	54	3	0	0.3721366175 	20.3780305217 	8.9579293226 
540	19	3	0	8.6511700002 	27.3593443817 	12.4102881340 
541	53	3	0	15.8452538174 	21.2530655862 	8.9584340732 
542	18	3	0	7.5663236025 	14.2718239379 	12.4107632609 
543	51	3	0	8.6550184340 	21.2527553272 	11.3809053502 
544	45	3	0	0.3760959011 	14.2714218249 	7.9285522752 
545	51	3	0	9.2066395205 	21.7041009062 	10.1692286401 
546	51	3	0	10.3446839000 	22.6461001091 	10.1689885304 
547	45	3	0	0.9276814548 	14.7227581543 	6.7168970277 
548	52	3	0	2.0657247586 	15.6647813537 	13.6213164535 
549	53	3	0	15.2935689518 	21.7042783777 	10.1700686033 
550	53	3	0	14.1553838710 	22.6461570481 	10.1703034158 
551	10	3	0	7.0146072188 	14.7230639965 	6.7177276353 
552	10	3	0	5.8764156186 	15.6649229791 	6.7179456378 
553	54	3	0	0.9276667526 	19.9303807665 	10.1692340333 
554	54	3	0	2.0657137863 	18.9883796485 	10.1689847244 
555	11	3	0	9.2066621357 	26.9117277481 	6.7168900372 
556	19	3	0	10.3447006077 	25.9697104155 	13.6213132484 
557	51	3	0	7.0145810529 	19.9302013143 	10.1700666150 
558	51	3	0	5.8764019696 	18.9883292614 	10.1703046390 
559	48	3	0	15.2935870995 	26.9114240325 	6.7177310929 
560	48	3	0	14.1553916529 	25.9695624444 	6.7179511355 
561	51	4	0	9.0496978461 	21.5837628052 	8.0057315950 
562	52	4	0	0.7707585107 	14.6024348968 	11.4580723423 
563	53	4	0	15.4505924058 	21.5840836929 	12.3335806184 
564	10	4	0	7.1716734658 	14.6028769544 	8.8812362973 
565	54	4	0	0.7780084483 	20.0574507412 	12.3326470949 
566	11	4	0	9.0570469745 	27.0388040413 	8.8803082746 
567	51	4	0	7.1642956915 	20.0571595479 	8.0066535429 
568	55	4	0	15.4433150072 	27.0383912981 	11.4589952161 
569	51	4	0	7.1716214034 	20.0503942557 	12.3335802683 
570	48	4	0	15.4506487702 	27.0316127941 	8.8812368359 
571	54	4	0	0.7707275029 	20.0507320750 	8.0057336241 
572	19	4	0	9.0497330572 	27.0320487748 	11.4580699255 
573	53	4	0	15.4432827236 	21.5773356397 	8.0066506461 
574	18	4	0	7.1643321005 	14.5960920562 	11.4589958184 
575	51	4	0	9.0569952282 	21.5770268074 	12.3326480658 
576	45	4	0	0.7780648593 	14.5956857534 	8.8803096651 
577	1	1	0	12.2500171506 	24.3079115017 	15.3481898576 
578	1	1	0	12.2500139999 	24.3078878536 	18.8004867335 
579	1	1	0	3.9710225263 	17.3265963641 	15.3481430584 
580	1	1	0	3.9710254930 	17.3266240359 	18.8005313013 
581	1	2	0	10.8008730370 	23.0343085970 	15.9486000328 
582	1	2	0	2.5219261617 	16.0530077845 	19.4009426356 
583	1	2	0	13.6990744294 	23.0342618695 	18.2000386335 
584	1	2	0	5.4201355585 	16.0530044755 	14.7476974291 
585	1	2	0	2.5251675806 	18.6034769887 	18.1985789003 
586	1	2	0	10.8041872218 	25.5847728432 	14.7462510177 
587	1	2	0	5.4169817901 	18.6033941904 	15.9500544727 
588	1	2	0	13.6959913187 	25.5846543548 	19.4024044016 
589	1	2	0	5.4201012743 	18.6002223899 	18.2000236064 
590	1	2	0	13.6991125486 	25.5814809904 	14.7476781006 
591	1	2	0	2.5218933744 	18.6001807522 	15.9486206827 
592	1	2	0	10.8009028007 	25.5814736571 	19.4009559353 
593	1	2	0	13.6959539543 	23.0310956164 	15.9500349781 
594	1	2	0	5.4170139215 	16.0498272307 	19.4023949433 
595	1	2	0	10.8041508613 	23.0310090702 	18.1985934124 
596	1	2	0	2.5252102547 	16.0497110186 	14.7462658739 
597	1	2	0	12.2499978439 	23.3411013307 	20.5266748078 
598	1	2	0	3.9710391592 	16.3598241388 	17.0743344855 
599	1	2	0	3.9710219639 	18.2933729530 	20.5266763126 
600	1	2	0	12.2500149914 	25.2746501541 	17.0743328671 
601	56	3	0	8.6511186551 	21.2564661358 	15.8626216608 
602	57	3	0	0.3721901747 	14.2751375368 	19.3149663820 
603	58	3	0	15.8491128652 	21.2567513400 	18.2860488021 
604	18	3	0	7.5702038562 	14.2755224125 	14.8337201173 
605	59	3	0	0.3760320210 	20.3817305253 	18.2855918220 
606	19	3	0	8.6550745167 	27.3630669636 	14.8332363449 
607	56	3	0	7.5662724516 	20.3814258230 	15.8631130940 
608	60	3	0	15.8453087440 	27.3626644343 	19.3154466470 
609	56	3	0	7.5701424012 	20.3777347765 	18.2860560889 
610	55	3	0	15.8491803666 	27.3589651412 	14.8337167970 
611	59	3	0	0.3721366173 	20.3780305220 	15.8626125723 
612	26	3	0	8.6511699991 	27.3593443826 	19.3149713854 
613	58	3	0	15.8452538168 	21.2530655867 	15.8631173221 
614	25	3	0	7.5663236035 	14.2718239370 	19.3154465119 
615	56	3	0	8.6550184352 	21.2527553281 	18.2855886015 
616	52	3	0	0.3760959009 	14.2714218247 	14.8332355249 
617	56	3	0	9.2066395217 	21.7041009073 	17.0739118895 
618	56	3	0	10.3446838985 	22.6461001079 	17.0736717803 
619	52	3	0	0.9276814556 	14.7227581548 	13.6215802774 
620	57	3	0	2.0657247590 	15.6647813538 	20.5259997011 
621	58	3	0	15.2935689513 	21.7042783782 	17.0747518538 
622	58	3	0	14.1553838721 	22.6461570474 	17.0749866653 
623	18	3	0	7.0146072168 	14.7230639982 	13.6224108856 
624	18	3	0	5.8764156184 	15.6649229793 	13.6226288875 
625	59	3	0	0.9276667538 	19.9303807654 	17.0739172833 
626	59	3	0	2.0657137864 	18.9883796481 	17.0736679717 
627	19	3	0	9.2066621361 	26.9117277478 	13.6215732868 
628	26	3	0	10.3447006089 	25.9697104144 	20.5259964979 
629	56	3	0	7.0145810513 	19.9302013129 	17.0747498643 
630	56	3	0	5.8764019710 	18.9883292625 	17.0749878885 
631	55	3	0	15.2935871012 	26.9114240339 	13.6224143429 
632	55	3	0	14.1553916525 	25.9695624440 	13.6226343859 
633	56	4	0	9.0496978458 	21.5837628050 	14.9104148453 
634	57	4	0	0.7707585110 	14.6024348971 	18.3627555915 
635	58	4	0	15.4505924059 	21.5840836928 	19.2382638680 
636	18	4	0	7.1716734658 	14.6028769543 	15.7859195467 
637	59	4	0	0.7780084482 	20.0574507413 	19.2373303442 
638	19	4	0	9.0570469745 	27.0388040413 	15.7849915246 
639	56	4	0	7.1642956918 	20.0571595481 	14.9113367933 
640	60	4	0	15.4433150071 	27.0383912980 	18.3636784656 
641	56	4	0	7.1716214038 	20.0503942560 	19.2382635174 
642	55	4	0	15.4506487700 	27.0316127940 	15.7859200864 
643	59	4	0	0.7707275030 	20.0507320749 	14.9104168739 
644	26	4	0	9.0497330576 	27.0320487745 	18.3627531746 
645	58	4	0	15.4432827238 	21.5773356396 	14.9113338963 
646	25	4	0	7.1643321001 	14.5960920565 	18.3636790677 
647	56	4	0	9.0569952278 	21.5770268070 	19.2373313150 
648	52	4	0	0.7780648595 	14.5956857534 	15.7849929151 
649	1	1	0	12.2500171401 	24.3079114998 	22.2528731087 
650	1	1	0	12.2500139998 	24.3078878463 	25.7051699739 
651	1	1	0	3.9710225325 	17.3265963638 	22.2528263057 
652	1	1	0	3.9710254961 	17.3266240413 	25.7052145399 
653	1	2	0	10.8008730389 	23.0343085978 	22.8532832815 
654	1	2	0	2.5219261601 	16.0530077824 	26.3056258873 
655	1	2	0	13.6990744288 	23.0342618711 	25.1047218844 
656	1	2	0	5.4201355572 	16.0530044761 	21.6523806804 
657	1	2	0	2.5251675806 	18.6034769875 	25.1032621518 
658	1	2	0	10.8041872240 	25.5847728426 	21.6509342686 
659	1	2	0	5.4169817887 	18.6033941899 	22.8547377218 
660	1	2	0	13.6959913201 	25.5846543572 	26.3070876523 
661	1	2	0	5.4201012729 	18.6002223884 	25.1047068595 
662	1	2	0	13.6991125508 	25.5814809912 	21.6523613517 
663	1	2	0	2.5218933732 	18.6001807525 	22.8533039315 
664	1	2	0	10.8009028002 	25.5814736582 	26.3056391871 
665	1	2	0	13.6959539561 	23.0310956163 	22.8547182254 
666	1	2	0	5.4170139211 	16.0498272304 	26.3070781969 
667	1	2	0	10.8041508613 	23.0310090711 	25.1032766650 
668	1	2	0	2.5252102539 	16.0497110187 	21.6509491263 
669	1	2	0	12.2499978425 	23.3411013307 	27.4313580603 
670	1	2	0	3.9710391582 	16.3598241382 	23.9790177387 
671	1	2	0	3.9710219657 	18.2933729533 	27.4313595638 
672	1	2	0	12.2500149925 	25.2746501555 	23.9790161188 
673	61	3	0	8.6511186533 	21.2564661344 	22.7673049125 
674	62	3	0	0.3721901744 	14.2751375365 	26.2196496307 
675	63	3	0	15.8491128654 	21.2567513398 	25.1907320507 
676	25	3	0	7.5702038571 	14.2755224118 	21.7384033661 
677	64	3	0	0.3760320209 	20.3817305254 	25.1902750708 
678	26	3	0	8.6550745156 	27.3630669644 	21.7379195931 
679	61	3	0	7.5662724525 	20.3814258237 	22.7677963453 
680	65	3	0	15.8453087447 	27.3626644348 	26.2201298952 
681	61	3	0	7.5701424026 	20.3777347777 	25.1907393352 
682	60	3	0	15.8491803659 	27.3589651406 	21.7384000485 
683	64	3	0	0.3721366176 	20.3780305217 	22.7672958210 
684	33	3	0	8.6511700004 	27.3593443815 	26.2196546324 
685	63	3	0	15.8452538165 	21.2530655868 	22.7678005714 
686	32	3	0	7.5663236018 	14.2718239385 	26.2201297595 
687	61	3	0	8.6550184331 	21.2527553263 	25.1902718490 
688	57	3	0	0.3760959010 	14.2714218248 	21.7379187748 
689	61	3	0	9.2066395200 	21.7041009058 	23.9785951403 
690	61	3	0	10.3446839011 	22.6461001101 	23.9783550291 
691	57	3	0	0.9276814543 	14.7227581538 	20.5262635267 
692	62	3	0	2.0657247597 	15.6647813549 	27.4306829536 
693	63	3	0	15.2935689520 	21.7042783777 	23.9794351036 
694	63	3	0	14.1553838716 	22.6461570474 	23.9796699187 
695	25	3	0	7.0146072177 	14.7230639974 	20.5270941348 
696	25	3	0	5.8764156170 	15.6649229805 	20.5273121376 
697	64	3	0	0.9276667537 	19.9303807655 	23.9786005337 
698	64	3	0	2.0657137863 	18.9883796485 	23.9783512232 
699	26	3	0	9.2066621344 	26.9117277492 	20.5262565365 
700	33	3	0	10.3447006075 	25.9697104158 	27.4306797483 
701	61	3	0	7.0145810545 	19.9302013156 	23.9794331153 
702	61	3	0	5.8764019694 	18.9883292612 	23.9796711374 
703	60	3	0	15.2935871010 	26.9114240338 	20.5270975924 
704	60	3	0	14.1553916528 	25.9695624445 	20.5273176331 
705	61	4	0	9.0496978464 	21.5837628054 	21.8150980941 
706	62	4	0	0.7707585109 	14.6024348970 	25.2674388416 
707	63	4	0	15.4505924057 	21.5840836930 	26.1429471184 
708	25	4	0	7.1716734656 	14.6028769546 	22.6906027971 
709	64	4	0	0.7780084483 	20.0574507412 	26.1420135945 
710	26	4	0	9.0570469749 	27.0388040410 	22.6896747753 
711	61	4	0	7.1642956914 	20.0571595478 	21.8160200422 
712	65	4	0	15.4433150071 	27.0383912980 	25.2683617159 
713	61	4	0	7.1716214032 	20.0503942555 	26.1429467688 
714	60	4	0	15.4506487704 	27.0316127942 	22.6906033354 
715	64	4	0	0.7707275028 	20.0507320751 	21.8151001242 
716	33	4	0	9.0497330570 	27.0320487750 	25.2674364257 
717	63	4	0	15.4432827240 	21.5773356394 	21.8160171465 
718	32	4	0	7.1643321007 	14.5960920560 	25.2683623186 
719	61	4	0	9.0569952285 	21.5770268076 	26.1420145660 
720	57	4	0	0.7780648594 	14.5956857534 	22.6896761650 
721	1	1	0	12.2500171517 	24.3079115065 	29.1575563554 
722	1	1	0	12.2500139968 	24.3078878549 	32.6098532321 
723	1	1	0	3.9710225137 	17.3265963602 	29.1575095596 
724	1	1	0	3.9710254977 	17.3266240350 	32.6098977952 
725	1	2	0	10.8008730365 	23.0343085960 	29.7579665322 
726	1	2	0	2.5219261606 	16.0530077841 	33.2103091369 
727	1	2	0	13.6990744301 	23.0342618689 	32.0094051327 
728	1	2	0	5.4201355606 	16.0530044755 	28.5570639287 
729	1	2	0	2.5251675800 	18.6034769891 	32.0079454022 
730	1	2	0	10.8041872219 	25.5847728423 	28.5556175175 
731	1	2	0	5.4169817924 	18.6033941916 	29.7594209709 
732	1	2	0	13.6959913200 	25.5846543557 	33.2117709030 
733	1	2	0	5.4201012728 	18.6002223892 	32.0093901068 
734	1	2	0	13.6991125484 	25.5814809898 	28.5570445999 
735	1	2	0	2.5218933771 	18.6001807518 	29.7579871815 
736	1	2	0	10.8009028014 	25.5814736566 	33.2103224368 
737	1	2	0	13.6959539545 	23.0310956155 	29.7594014784 
738	1	2	0	5.4170139202 	16.0498272315 	33.2117614458 
739	1	2	0	10.8041508614 	23.0310090697 	32.0079599108 
740	1	2	0	2.5252102579 	16.0497110204 	28.5556323737 
741	1	2	0	12.2499978433 	23.3411013310 	34.3360413069 
742	1	2	0	3.9710391601 	16.3598241401 	30.8837009862 
743	1	2	0	3.9710219640 	18.2933729535 	34.3360428118 
744	1	2	0	12.2500149915 	25.2746501530 	30.8836993674 
745	66	3	0	8.6511186554 	21.2564661360 	29.6719881590 
746	67	3	0	0.3721901750 	14.2751375371 	33.1243328806 
747	68	3	0	15.8491128645 	21.2567513405 	32.0954153032 
748	32	3	0	7.5702038554 	14.2755224132 	28.6430866185 
749	69	3	0	0.3760320208 	20.3817305255 	32.0949583213 
750	33	3	0	8.6550745167 	27.3630669637 	28.6426028442 
751	66	3	0	7.5662724505 	20.3814258221 	29.6724795916 
752	70	3	0	15.8453087442 	27.3626644345 	33.1248131459 
753	66	3	0	7.5701424006 	20.3777347760 	32.0954225878 
754	65	3	0	15.8491803671 	27.3589651416 	28.6430832966 
755	69	3	0	0.3721366169 	20.3780305223 	29.6719790739 
756	40	3	0	8.6511699997 	27.3593443821 	33.1243378847 
757	68	3	0	15.8452538161 	21.2530655873 	29.6724838209 
758	39	3	0	7.5663236030 	14.2718239375 	33.1248130123 
759	66	3	0	8.6550184352 	21.2527553281 	32.0949551018 
760	62	3	0	0.3760958999 	14.2714218239 	28.6426020219 
761	66	3	0	9.2066395233 	21.7041009086 	30.8832783897 
762	66	3	0	10.3446838980 	22.6461001078 	30.8830382824 
763	62	3	0	0.9276814534 	14.7227581531 	27.4309467775 
764	67	3	0	2.0657247586 	15.6647813535 	34.3353662026 
765	68	3	0	15.2935689500 	21.7042783792 	30.8841183528 
766	68	3	0	14.1553838728 	22.6461570470 	30.8843531655 
767	32	3	0	7.0146072152 	14.7230639994 	27.4317773854 
768	32	3	0	5.8764156194 	15.6649229781 	27.4319953853 
769	69	3	0	0.9276667518 	19.9303807670 	30.8832837820 
770	69	3	0	2.0657137867 	18.9883796475 	30.8830344702 
771	33	3	0	9.2066621368 	26.9117277472 	27.4309397876 
772	40	3	0	10.3447006079 	25.9697104152 	34.3353629956 
773	66	3	0	7.0145810509 	19.9302013126 	30.8841163648 
774	66	3	0	5.8764019721 	18.9883292636 	30.8843543903 
775	65	3	0	15.2935871004 	26.9114240333 	27.4317808422 
776	65	3	0	14.1553916517 	25.9695624432 	27.4320008866 
777	66	4	0	9.0496978456 	21.5837628048 	28.7197813457 
778	67	4	0	0.7707585108 	14.6024348969 	32.1721220917 
779	68	4	0	15.4505924062 	21.5840836925 	33.0476303671 
780	32	4	0	7.1716734662 	14.6028769541 	29.5952860456 
781	69	4	0	0.7780084482 	20.0574507413 	33.0466968442 
782	33	4	0	9.0570469746 	27.0388040413 	29.5943580244 
783	66	4	0	7.1642956923 	20.0571595484 	28.7207032939 
784	70	4	0	15.4433150071 	27.0383912980 	32.1730449656 
785	66	4	0	7.1716214039 	20.0503942560 	33.0476300172 
786	65	4	0	15.4506487699 	27.0316127939 	29.5952865861 
787	69	4	0	0.7707275033 	20.0507320747 	28.7197833728 
788	40	4	0	9.0497330575 	27.0320487746 	32.1721196746 
789	68	4	0	15.4432827240 	21.5773356394 	28.7207003966 
790	39	4	0	7.1643321001 	14.5960920564 	32.1730455672 
791	66	4	0	9.0569952278 	21.5770268070 	33.0466978144 
792	62	4	0	0.7780648599 	14.5956857538 	29.5943594159 
793	1	1	0	12.2500171486 	24.3079114962 	36.0622396129 
794	1	1	0	12.2500140003 	24.3078878517 	39.5145364756 
795	1	1	0	3.9710225267 	17.3265963657 	36.0621928135 
796	1	1	0	3.9710254909 	17.3266240401 	39.5145810355 
797	1	2	0	10.8008730378 	23.0343085982 	36.6626497807 
798	1	2	0	2.5219261616 	16.0530077836 	40.1149923884 
799	1	2	0	13.6990744293 	23.0342618699 	38.9140883847 
800	1	2	0	5.4201355580 	16.0530044757 	35.4617471790 
801	1	2	0	2.5251675818 	18.6034769873 	38.9126286541 
802	1	2	0	10.8041872218 	25.5847728440 	35.4603007675 
803	1	2	0	5.4169817898 	18.6033941898 	36.6641042196 
804	1	2	0	13.6959913195 	25.5846543560 	40.1164541518 
805	1	2	0	5.4201012742 	18.6002223889 	38.9140733606 
806	1	2	0	13.6991125494 	25.5814809915 	35.4617278507 
807	1	2	0	2.5218933749 	18.6001807515 	36.6626704285 
808	1	2	0	10.8009028005 	25.5814736572 	40.1150056862 
809	1	2	0	13.6959539539 	23.0310956177 	36.6640847244 
810	1	2	0	5.4170139217 	16.0498272303 	40.1164446961 
811	1	2	0	10.8041508613 	23.0310090706 	38.9126431651 
812	1	2	0	2.5252102544 	16.0497110184 	35.4603156226 
813	1	2	0	12.2499978428 	23.3411013292 	41.2407245583 
814	1	2	0	3.9710391594 	16.3598241386 	37.7883842375 
815	1	2	0	3.9710219645 	18.2933729536 	41.2407260635 
816	1	2	0	12.2500149915 	25.2746501550 	37.7883826172 
817	71	3	0	8.6511186541 	21.2564661350 	36.5766714118 
818	50	3	0	0.3721901751 	14.2751375371 	40.0290161304 
819	72	3	0	15.8491128659 	21.2567513394 	39.0000985505 
820	39	3	0	7.5702038562 	14.2755224125 	35.5477698668 
821	73	3	0	0.3760320199 	20.3817305262 	38.9996415687 
822	40	3	0	8.6550745166 	27.3630669636 	35.5472860954 
823	71	3	0	7.5662724525 	20.3814258237 	36.5771628443 
824	49	3	0	15.8453087451 	27.3626644352 	40.0294963960 
825	71	3	0	7.5701424024 	20.3777347775 	39.0001058365 
826	70	3	0	15.8491803662 	27.3589651409 	35.5477665484 
827	73	3	0	0.3721366166 	20.3780305226 	36.5766623234 
828	5	3	0	8.6511699999 	27.3593443819 	40.0290211335 
829	72	3	0	15.8452538174 	21.2530655862 	36.5771670732 
830	7	3	0	7.5663236018 	14.2718239384 	40.0294962601 
831	71	3	0	8.6550184340 	21.2527553271 	38.9996383497 
832	67	3	0	0.3760959013 	14.2714218251 	35.5472852753 
833	71	3	0	9.2066395204 	21.7041009061 	37.7879616399 
834	71	3	0	10.3446838999 	22.6461001090 	37.7877215281 
835	67	3	0	0.9276814556 	14.7227581548 	34.3356300263 
836	50	3	0	2.0657247583 	15.6647813534 	41.2400494530 
837	72	3	0	15.2935689531 	21.7042783767 	37.7888016027 
838	72	3	0	14.1553838709 	22.6461570482 	37.7890364168 
839	39	3	0	7.0146072181 	14.7230639971 	34.3364606340 
840	39	3	0	5.8764156182 	15.6649229795 	34.3366786348 
841	73	3	0	0.9276667505 	19.9303807681 	37.7879670335 
842	73	3	0	2.0657137878 	18.9883796471 	37.7877177223 
843	40	3	0	9.2066621360 	26.9117277478 	34.3356230356 
844	5	3	0	10.3447006083 	25.9697104153 	41.2400462484 
845	71	3	0	7.0145810528 	19.9302013142 	37.7887996145 
846	71	3	0	5.8764019697 	18.9883292617 	37.7890376372 
847	70	3	0	15.2935871000 	26.9114240329 	34.3364640924 
848	70	3	0	14.1553916525 	25.9695624440 	34.3366841315 
849	71	4	0	9.0496978461 	21.5837628053 	35.6244645941 
850	50	4	0	0.7707585108 	14.6024348969 	39.0768053415 
851	72	4	0	15.4505924057 	21.5840836930 	39.9523136182 
852	39	4	0	7.1716734659 	14.6028769543 	36.4999692963 
853	73	4	0	0.7780084487 	20.0574507409 	39.9513800951 
854	40	4	0	9.0570469743 	27.0388040414 	36.4990412739 
855	71	4	0	7.1642956915 	20.0571595479 	35.6253865423 
856	49	4	0	15.4433150069 	27.0383912978 	39.0777282151 
857	71	4	0	7.1716214034 	20.0503942556 	39.9523132679 
858	70	4	0	15.4506487703 	27.0316127942 	36.4999698351 
859	73	4	0	0.7707275033 	20.0507320748 	35.6244666227 
860	5	4	0	9.0497330573 	27.0320487748 	39.0768029247 
861	72	4	0	15.4432827236 	21.5773356398 	35.6253836452 
862	7	4	0	7.1643321006 	14.5960920560 	39.0777288179 
863	71	4	0	9.0569952282 	21.5770268073 	39.9513810652 
864	67	4	0	0.7780648593 	14.5956857533 	36.4990426643 
865	1	1	0	28.8079748033 	10.3453493408 	1.5388233615 
866	1	1	0	28.8079716646 	10.3453256900 	4.9911202240 
867	1	1	0	20.5289801797 	3.3640342008 	1.5387765607 
868	1	1	0	20.5289831661 	3.3640618744 	4.9911647954 
869	1	2	0	27.3588307010 	9.0717464343 	2.1392335312 
870	1	2	0	19.0798838209 	2.0904456197 	5.5915761378 
871	1	2	0	30.2570320904 	9.0716997071 	4.3906721357 
872	1	2	0	21.9780932212 	2.0904423127 	0.9383309295 
873	1	2	0	19.0831252411 	4.6409148255 	4.3892124030 
874	1	2	0	27.3621448862 	11.6222106786 	0.9368845173 
875	1	2	0	21.9749394541 	4.6408320281 	2.1406879717 
876	1	2	0	30.2539489815 	11.6220921928 	5.5930379046 
877	1	2	0	21.9780589336 	4.6376602253 	4.3906571082 
878	1	2	0	30.2570702131 	11.6189188282 	0.9383116000 
879	1	2	0	19.0798510389 	4.6376185877 	2.1392541816 
880	1	2	0	27.3588604615 	11.6189114945 	5.5915894382 
881	1	2	0	30.2539116177 	9.0685334528 	2.1406684759 
882	1	2	0	21.9749715798 	2.0872650694 	5.5930284449 
883	1	2	0	27.3621085225 	9.0684469066 	4.3892269152 
884	1	2	0	19.0831679184 	2.0871488559 	0.9368993739 
885	1	2	0	28.8079555049 	9.3785391661 	6.7173083096 
886	1	2	0	20.5289968210 	2.3972619757 	3.2649679869 
887	1	2	0	20.5289796260 	4.3308107895 	6.7173098134 
888	1	2	0	28.8079726541 	11.3120879901 	3.2649663689 
889	74	3	0	25.2090763164 	7.2939039722 	2.0532551617 
890	48	3	0	16.9301478373 	0.3125753741 	5.5055998795 
891	6	3	0	32.4070705267 	7.2941891773 	4.4766823014 
892	75	3	0	24.1281615165 	0.3129602507 	1.0243536179 
893	4	3	0	16.9339896833 	6.4191683620 	4.4762253221 
894	76	3	0	25.2130321787 	13.4005048005 	1.0238698444 
895	74	3	0	24.1242301138 	6.4188636601 	2.0537465935 
896	45	3	0	32.4032664070 	13.4001022719 	5.5060801462 
897	74	3	0	24.1281000640 	6.4151726142 	4.4766895871 
898	50	3	0	32.4071380286 	13.3964029782 	1.0243502992 
899	4	3	0	16.9300942792 	6.4154683589 	2.0532460749 
900	77	3	0	25.2091276616 	13.3967822190 	5.5056048837 
901	6	3	0	32.4032114778 	7.2905034243 	2.0537508213 
902	78	3	0	24.1242812643 	0.3092617749 	5.5060800139 
903	74	3	0	25.2129760964 	7.2901931643 	4.4762221012 
904	49	3	0	16.9340535622 	0.3088596610 	1.0238690237 
905	74	3	0	25.7645971831 	7.7415387437 	3.2645453908 
906	74	3	0	26.9026415614 	8.6835379458 	3.2643052802 
907	49	3	0	17.4856391164 	0.7601959907 	-0.1877862216 
908	48	3	0	18.6236824202 	1.7022191903 	6.7166332025 
909	6	3	0	31.8515266141 	7.7417162144 	3.2653853554 
910	6	3	0	30.7133415344 	8.6835948839 	3.2656201676 
911	75	3	0	23.5725648794 	0.7605018344 	-0.1869556134 
912	75	3	0	22.4343732824 	1.7023608141 	-0.1867376131 
913	4	3	0	17.4856244135 	5.9678186042 	3.2645507823 
914	4	3	0	18.6236714480 	5.0258174854 	3.2643014710 
915	76	3	0	25.7646197982 	12.9491655845 	-0.1877932127 
916	77	3	0	26.9026582703 	12.0071482521 	6.7166299996 
917	74	3	0	23.5725387140 	5.9676391505 	3.2653833651 
918	74	3	0	22.4343596323 	5.0257670989 	3.2656213900 
919	50	3	0	31.8515447619 	12.9488618697 	-0.1869521578 
920	50	3	0	30.7133493139 	12.0070002803 	-0.1867321150 
921	74	4	0	25.6076555079 	7.6212006421 	1.1010483452 
922	48	4	0	17.3287161725 	0.6398727335 	4.5533890929 
923	6	4	0	32.0085500679 	7.6215215297 	5.4288973686 
924	75	4	0	23.7296311282 	0.6403147908 	1.9765530467 
925	4	4	0	17.3359661100 	6.0948885783 	5.4279638446 
926	76	4	0	25.6150046366 	13.0762418781 	1.9756250253 
927	74	4	0	23.7222533537 	6.0945973850 	1.1019702937 
928	45	4	0	32.0012726689 	13.0758291347 	4.5543119661 
929	74	4	0	23.7295790654 	6.0878320927 	5.4288970185 
930	50	4	0	32.0086064322 	13.0690506310 	1.9765535861 
931	4	4	0	17.3286851652 	6.0881699118 	1.1010503733 
932	77	4	0	25.6076907193 	13.0694866115 	4.5533866758 
933	6	4	0	32.0012403862 	7.6147734762 	1.1019673972 
934	78	4	0	23.7222897622 	0.6335298931 	4.5543125675 
935	74	4	0	25.6149528900 	7.6144646442 	5.4279648155 
936	49	4	0	17.3360225217 	0.6331235904 	1.9756264161 
937	1	1	0	28.8079748082 	10.3453493419 	8.4435066124 
938	1	1	0	28.8079716588 	10.3453256916 	11.8958034792 
939	1	1	0	20.5289801825 	3.3640342037 	8.4434598104 
940	1	1	0	20.5289831613 	3.3640618748 	11.8958480452 
941	1	2	0	27.3588307002 	9.0717464338 	9.0439167806 
942	1	2	0	19.0798838214 	2.0904456196 	12.4962593874 
943	1	2	0	30.2570320919 	9.0716997062 	11.2953553845 
944	1	2	0	21.9780932210 	2.0904423120 	7.8430141803 
945	1	2	0	19.0831252423 	4.6409148248 	11.2938956531 
946	1	2	0	27.3621448845 	11.6222106793 	7.8415677662 
947	1	2	0	21.9749394533 	4.6408320273 	9.0453712213 
948	1	2	0	30.2539489819 	11.6220921922 	12.4977211520 
949	1	2	0	21.9780589352 	4.6376602261 	11.2953403574 
950	1	2	0	30.2570702120 	11.6189188275 	7.8429948497 
951	1	2	0	19.0798510390 	4.6376185871 	9.0439374309 
952	1	2	0	27.3588604624 	11.6189114943 	12.4962726871 
953	1	2	0	30.2539116167 	9.0685334530 	9.0453517263 
954	1	2	0	21.9749715811 	2.0872650689 	12.4977116951 
955	1	2	0	27.3621085240 	9.0684469070 	11.2939101635 
956	1	2	0	19.0831679179 	2.0871488556 	7.8415826244 
957	1	2	0	28.8079555060 	9.3785391665 	13.6219915598 
958	1	2	0	20.5289968212 	2.3972619751 	10.1696512369 
959	1	2	0	20.5289796266 	4.3308107902 	13.6219930635 
960	1	2	0	28.8079726543 	11.3120879897 	10.1696496170 
961	79	3	0	25.2090763168 	7.2939039725 	8.9579384118 
962	55	3	0	16.9301478362 	0.3125753733 	12.4102831299 
963	16	3	0	32.4070705262 	7.2941891776 	11.3813655526 
964	78	3	0	24.1281615175 	0.3129602499 	7.9290368668 
965	15	3	0	16.9339896830 	6.4191683622 	11.3809085705 
966	77	3	0	25.2130321782 	13.4005048008 	7.9285530953 
967	79	3	0	24.1242301143 	6.4188636605 	8.9584298438 
968	52	3	0	32.4032664065 	13.4001022716 	12.4107633960 
969	79	3	0	24.1281000642 	6.4151726143 	11.3813728378 
970	45	3	0	32.4071380290 	13.3964029785 	7.9290335485 
971	15	3	0	16.9300942791 	6.4154683590 	8.9579293254 
972	80	3	0	25.2091276605 	13.3967822200 	12.4102881345 
973	16	3	0	32.4032114775 	7.2905034246 	8.9584340715 
974	81	3	0	24.1242812642 	0.3092617749 	12.4107632629 
975	79	3	0	25.2129760969 	7.2901931647 	11.3809053508 
976	48	3	0	16.9340535630 	0.3088596617 	7.9285522748 
977	79	3	0	25.7645971825 	7.7415387432 	10.1692286397 
978	79	3	0	26.9026415609 	8.6835379454 	10.1689885318 
979	48	3	0	17.4856391181 	0.7601959922 	6.7168970287 
980	55	3	0	18.6236824215 	1.7022191913 	13.6213164527 
981	16	3	0	31.8515266134 	7.7417162151 	10.1700686049 
982	16	3	0	30.7133415350 	8.6835948835 	10.1703034163 
983	78	3	0	23.5725648820 	0.7605018324 	6.7177276356 
984	78	3	0	22.4343732809 	1.7023608158 	6.7179456360 
985	15	3	0	17.4856244119 	5.9678186055 	10.1692340329 
986	15	3	0	18.6236714482 	5.0258174853 	10.1689847214 
987	77	3	0	25.7646197989 	12.9491655840 	6.7168900356 
988	80	3	0	26.9026582721 	12.0071482503 	13.6213132474 
989	79	3	0	23.5725387134 	5.9676391501 	10.1700666146 
990	79	3	0	22.4343596319 	5.0257670987 	10.1703046406 
991	45	3	0	31.8515447616 	12.9488618695 	6.7177310922 
992	45	3	0	30.7133493135 	12.0070002801 	6.7179511345 
993	79	4	0	25.6076555078 	7.6212006420 	8.0057315952 
994	55	4	0	17.3287161728 	0.6398727337 	11.4580723424 
995	16	4	0	32.0085500681 	7.6215215295 	12.3335806179 
996	78	4	0	23.7296311279 	0.6403147910 	8.8812362970 
997	15	4	0	17.3359661102 	6.0948885782 	12.3326470952 
998	77	4	0	25.6150046365 	13.0762418781 	8.8803082747 
999	79	4	0	23.7222533536 	6.0945973849 	8.0066535434 
1000	52	4	0	32.0012726691 	13.0758291348 	11.4589952161 
1001	79	4	0	23.7295790654 	6.0878320927 	12.3335802681 
1002	45	4	0	32.0086064321 	13.0690506309 	8.8812368360 
1003	15	4	0	17.3286851653 	6.0881699117 	8.0057336230 
1004	80	4	0	25.6076907197 	13.0694866113 	11.4580699251 
1005	16	4	0	32.0012403863 	7.6147734761 	8.0066506470 
1006	81	4	0	23.7222897623 	0.6335298930 	11.4589958176 
1007	79	4	0	25.6149528899 	7.6144646441 	12.3326480655 
1008	48	4	0	17.3360225214 	0.6331235902 	8.8803096652 
1009	1	1	0	28.8079748046 	10.3453493412 	15.3481898559 
1010	1	1	0	28.8079716667 	10.3453256911 	18.8004867324 
1011	1	1	0	20.5289801820 	3.3640341990 	15.3481430586 
1012	1	1	0	20.5289831642 	3.3640618736 	18.8005312954 
1013	1	2	0	27.3588307012 	9.0717464345 	15.9486000324 
1014	1	2	0	19.0798838206 	2.0904456194 	19.4009426376 
1015	1	2	0	30.2570320902 	9.0716997068 	18.2000386327 
1016	1	2	0	21.9780932207 	2.0904423131 	14.7476974309 
1017	1	2	0	19.0831252419 	4.6409148251 	18.1985789027 
1018	1	2	0	27.3621448850 	11.6222106795 	14.7462510188 
1019	1	2	0	21.9749394539 	4.6408320284 	15.9500544718 
1020	1	2	0	30.2539489806 	11.6220921921 	19.4024044019 
1021	1	2	0	21.9780589345 	4.6376602260 	18.2000236070 
1022	1	2	0	30.2570702126 	11.6189188276 	14.7476781010 
1023	1	2	0	19.0798510387 	4.6376185879 	15.9486206816 
1024	1	2	0	27.3588604611 	11.6189114947 	19.4009559365 
1025	1	2	0	30.2539116178 	9.0685334524 	15.9500349776 
1026	1	2	0	21.9749715805 	2.0872650692 	19.4023949446 
1027	1	2	0	27.3621085221 	9.0684469063 	18.1985934121 
1028	1	2	0	19.0831679178 	2.0871488561 	14.7462658744 
1029	1	2	0	28.8079555052 	9.3785391668 	20.5266748080 
1030	1	2	0	20.5289968209 	2.3972619760 	17.0743344869 
1031	1	2	0	20.5289796261 	4.3308107902 	20.5266763135 
1032	1	2	0	28.8079726538 	11.3120879904 	17.0743328677 
1033	82	3	0	25.2090763172 	7.2939039729 	15.8626216614 
1034	60	3	0	16.9301478363 	0.3125753734 	19.3149663794 
1035	23	3	0	32.4070705264 	7.2941891775 	18.2860488020 
1036	81	3	0	24.1281615177 	0.3129602497 	14.8337201160 
1037	22	3	0	16.9339896837 	6.4191683617 	18.2855918211 
1038	80	3	0	25.2130321769 	13.4005048019 	14.8332363439 
1039	82	3	0	24.1242301138 	6.4188636601 	15.8631130927 
1040	57	3	0	32.4032664074 	13.4001022723 	19.3154466473 
1041	82	3	0	24.1281000639 	6.4151726140 	18.2860560878 
1042	52	3	0	32.4071380287 	13.3964029782 	14.8337167983 
1043	22	3	0	16.9300942797 	6.4154683584 	15.8626125745 
1044	83	3	0	25.2091276614 	13.3967822193 	19.3149713839 
1045	23	3	0	32.4032114777 	7.2905034244 	15.8631173211 
1046	84	3	0	24.1242812648 	0.3092617745 	19.3154465134 
1047	82	3	0	25.2129760974 	7.2901931652 	18.2855886018 
1048	55	3	0	16.9340535618 	0.3088596608 	14.8332355240 
1049	82	3	0	25.7645971831 	7.7415387438 	17.0739118899 
1050	82	3	0	26.9026415602 	8.6835379447 	17.0736717808 
1051	55	3	0	17.4856391180 	0.7601959921 	13.6215802786 
1052	60	3	0	18.6236824213 	1.7022191911 	20.5259997020 
1053	23	3	0	31.8515266134 	7.7417162150 	17.0747518538 
1054	23	3	0	30.7133415348 	8.6835948837 	17.0749866679 
1055	81	3	0	23.5725648817 	0.7605018325 	13.6224108865 
1056	81	3	0	22.4343732808 	1.7023608156 	13.6226288852 
1057	22	3	0	17.4856244129 	5.9678186047 	17.0739172826 
1058	22	3	0	18.6236714474 	5.0258174859 	17.0736679709 
1059	80	3	0	25.7646197981 	12.9491655847 	13.6215732866 
1060	83	3	0	26.9026582710 	12.0071482515 	20.5259964970 
1061	82	3	0	23.5725387127 	5.9676391495 	17.0747498644 
1062	82	3	0	22.4343596324 	5.0257670989 	17.0749878904 
1063	52	3	0	31.8515447618 	12.9488618697 	13.6224143422 
1064	52	3	0	30.7133493140 	12.0070002808 	13.6226343854 
1065	82	4	0	25.6076555077 	7.6212006419 	14.9104148452 
1066	60	4	0	17.3287161728 	0.6398727337 	18.3627555924 
1067	23	4	0	32.0085500681 	7.6215215296 	19.2382638680 
1068	81	4	0	23.7296311278 	0.6403147911 	15.7859195471 
1069	22	4	0	17.3359661100 	6.0948885784 	19.2373303446 
1070	80	4	0	25.6150046369 	13.0762418777 	15.7849915253 
1071	82	4	0	23.7222533538 	6.0945973851 	14.9113367937 
1072	57	4	0	32.0012726687 	13.0758291345 	18.3636784653 
1073	82	4	0	23.7295790655 	6.0878320928 	19.2382635179 
1074	52	4	0	32.0086064321 	13.0690506309 	15.7859200859 
1075	22	4	0	17.3286851651 	6.0881699119 	14.9104168732 
1076	83	4	0	25.6076907194 	13.0694866115 	18.3627531752 
1077	23	4	0	32.0012403863 	7.6147734762 	14.9113338970 
1078	84	4	0	23.7222897621 	0.6335298931 	18.3636790671 
1079	82	4	0	25.6149528897 	7.6144646440 	19.2373313148 
1080	55	4	0	17.3360225217 	0.6331235905 	15.7849929155 
1081	1	1	0	28.8079748040 	10.3453493404 	22.2528731086 
1082	1	1	0	28.8079716713 	10.3453256907 	25.7051699791 
1083	1	1	0	20.5289801838 	3.3640341994 	22.2528263076 
1084	1	1	0	20.5289831546 	3.3640618776 	25.7052145419 
1085	1	2	0	27.3588307016 	9.0717464350 	22.8532832811 
1086	1	2	0	19.0798838230 	2.0904456198 	26.3056258876 
1087	1	2	0	30.2570320890 	9.0716997074 	25.1047218841 
1088	1	2	0	21.9780932204 	2.0904423130 	21.6523806810 
1089	1	2	0	19.0831252436 	4.6409148240 	25.1032621523 
1090	1	2	0	27.3621448857 	11.6222106789 	21.6509342687 
1091	1	2	0	21.9749394533 	4.6408320278 	22.8547377210 
1092	1	2	0	30.2539489797 	11.6220921919 	26.3070876517 
1093	1	2	0	21.9780589363 	4.6376602259 	25.1047068571 
1094	1	2	0	30.2570702129 	11.6189188281 	21.6523613510 
1095	1	2	0	19.0798510380 	4.6376185883 	22.8533039302 
1096	1	2	0	27.3588604605 	11.6189114946 	26.3056391858 
1097	1	2	0	30.2539116176 	9.0685334527 	22.8547182264 
1098	1	2	0	21.9749715830 	2.0872650674 	26.3070781958 
1099	1	2	0	27.3621085213 	9.0684469063 	25.1032766628 
1100	1	2	0	19.0831679176 	2.0871488561 	21.6509491247 
1101	1	2	0	28.8079555042 	9.3785391665 	27.4313580594 
1102	1	2	0	20.5289968218 	2.3972619753 	23.9790177376 
1103	1	2	0	20.5289796271 	4.3308107896 	27.4313595631 
1104	1	2	0	28.8079726533 	11.3120879905 	23.9790161177 
1105	85	3	0	25.2090763173 	7.2939039730 	22.7673049117 
1106	65	3	0	16.9301478366 	0.3125753737 	26.2196496301 
1107	30	3	0	32.4070705270 	7.2941891770 	25.1907320499 
1108	84	3	0	24.1281615182 	0.3129602494 	21.7384033655 
1109	29	3	0	16.9339896824 	6.4191683627 	25.1902750691 
1110	83	3	0	25.2130321777 	13.4005048012 	21.7379195939 
1111	85	3	0	24.1242301139 	6.4188636602 	22.7677963430 
1112	62	3	0	32.4032664078 	13.4001022726 	26.2201298973 
1113	85	3	0	24.1281000638 	6.4151726140 	25.1907393381 
1114	57	3	0	32.4071380291 	13.3964029786 	21.7384000487 
1115	29	3	0	16.9300942788 	6.4154683592 	22.7672958242 
1116	86	3	0	25.2091276620 	13.3967822188 	26.2196546327 
1117	30	3	0	32.4032114780 	7.2905034242 	22.7678005713 
1118	87	3	0	24.1242812637 	0.3092617753 	26.2201297608 
1119	85	3	0	25.2129760975 	7.2901931653 	25.1902718519 
1120	60	3	0	16.9340535622 	0.3088596610 	21.7379187745 
1121	85	3	0	25.7645971830 	7.7415387437 	23.9785951392 
1122	85	3	0	26.9026415600 	8.6835379445 	23.9783550309 
1123	60	3	0	17.4856391186 	0.7601959926 	20.5262635276 
1124	65	3	0	18.6236824211 	1.7022191911 	27.4306829521 
1125	30	3	0	31.8515266150 	7.7417162137 	23.9794351055 
1126	30	3	0	30.7133415342 	8.6835948843 	23.9796699169 
1127	84	3	0	23.5725648822 	0.7605018321 	20.5270941358 
1128	84	3	0	22.4343732803 	1.7023608161 	20.5273121351 
1129	29	3	0	17.4856244120 	5.9678186055 	23.9786005328 
1130	29	3	0	18.6236714490 	5.0258174846 	23.9783512234 
1131	83	3	0	25.7646197980 	12.9491655847 	20.5262565365 
1132	86	3	0	26.9026582703 	12.0071482523 	27.4306797492 
1133	85	3	0	23.5725387125 	5.9676391493 	23.9794331134 
1134	85	3	0	22.4343596326 	5.0257670993 	23.9796711411 
1135	57	3	0	31.8515447620 	12.9488618698 	20.5270975911 
1136	57	3	0	30.7133493132 	12.0070002799 	20.5273176339 
1137	85	4	0	25.6076555077 	7.6212006420 	21.8150980948 
1138	65	4	0	17.3287161727 	0.6398727336 	25.2674388419 
1139	30	4	0	32.0085500677 	7.6215215299 	26.1429471186 
1140	84	4	0	23.7296311278 	0.6403147912 	22.6906027971 
1141	29	4	0	17.3359661105 	6.0948885780 	26.1420135953 
1142	83	4	0	25.6150046367 	13.0762418779 	22.6896747749 
1143	85	4	0	23.7222533537 	6.0945973850 	21.8160200434 
1144	62	4	0	32.0012726686 	13.0758291345 	25.2683617149 
1145	85	4	0	23.7295790656 	6.0878320928 	26.1429467676 
1146	57	4	0	32.0086064321 	13.0690506309 	22.6906033357 
1147	29	4	0	17.3286851653 	6.0881699118 	21.8151001228 
1148	86	4	0	25.6076907192 	13.0694866117 	25.2674364256 
1149	30	4	0	32.0012403862 	7.6147734762 	21.8160171465 
1150	87	4	0	23.7222897625 	0.6335298928 	25.2683623181 
1151	85	4	0	25.6149528896 	7.6144646439 	26.1420145646 
1152	60	4	0	17.3360225215 	0.6331235904 	22.6896761651 
1153	1	1	0	28.8079748078 	10.3453493421 	29.1575563553 
1154	1	1	0	28.8079716582 	10.3453256911 	32.6098532308 
1155	1	1	0	20.5289801842 	3.3640341999 	29.1575095609 
1156	1	1	0	20.5289831631 	3.3640618727 	32.6098977939 
1157	1	2	0	27.3588307001 	9.0717464337 	29.7579665320 
1158	1	2	0	19.0798838211 	2.0904456198 	33.2103091383 
1159	1	2	0	30.2570320918 	9.0716997064 	32.0094051333 
1160	1	2	0	21.9780932202 	2.0904423132 	28.5570639291 
1161	1	2	0	19.0831252418 	4.6409148253 	32.0079454023 
1162	1	2	0	27.3621448849 	11.6222106788 	28.5556175178 
1163	1	2	0	21.9749394530 	4.6408320278 	29.7594209702 
1164	1	2	0	30.2539489822 	11.6220921926 	33.2117709019 
1165	1	2	0	21.9780589349 	4.6376602264 	32.0093901069 
1166	1	2	0	30.2570702123 	11.6189188278 	28.5570446012 
1167	1	2	0	19.0798510383 	4.6376185879 	29.7579871802 
1168	1	2	0	27.3588604629 	11.6189114941 	33.2103224367 
1169	1	2	0	30.2539116170 	9.0685334528 	29.7594014779 
1170	1	2	0	21.9749715809 	2.0872650690 	33.2117614448 
1171	1	2	0	27.3621085241 	9.0684469071 	32.0079599121 
1172	1	2	0	19.0831679175 	2.0871488557 	28.5556323734 
1173	1	2	0	28.8079555059 	9.3785391668 	34.3360413077 
1174	1	2	0	20.5289968208 	2.3972619762 	30.8837009863 
1175	1	2	0	20.5289796260 	4.3308107903 	34.3360428129 
1176	1	2	0	28.8079726543 	11.3120879901 	30.8836993677 
1177	88	3	0	25.2090763169 	7.2939039727 	29.6719881608 
1178	70	3	0	16.9301478368 	0.3125753738 	33.1243328792 
1179	37	3	0	32.4070705258 	7.2941891780 	32.0954153023 
1180	87	3	0	24.1281615172 	0.3129602502 	28.6430866168 
1181	36	3	0	16.9339896837 	6.4191683616 	32.0949583212 
1182	86	3	0	25.2130321782 	13.4005048008 	28.6426028441 
1183	88	3	0	24.1242301140 	6.4188636603 	29.6724795933 
1184	67	3	0	32.4032664065 	13.4001022716 	33.1248131457 
1185	88	3	0	24.1281000641 	6.4151726142 	32.0954225875 
1186	62	3	0	32.4071380299 	13.3964029792 	28.6430832968 
1187	36	3	0	16.9300942797 	6.4154683585 	29.6719790740 
1188	89	3	0	25.2091276609 	13.3967822196 	33.1243378850 
1189	37	3	0	32.4032114772 	7.2905034249 	29.6724838204 
1190	90	3	0	24.1242812648 	0.3092617744 	33.1248130131 
1191	88	3	0	25.2129760968 	7.2901931648 	32.0949551001 
1192	65	3	0	16.9340535624 	0.3088596612 	28.6426020238 
1193	88	3	0	25.7645971828 	7.7415387434 	30.8832783898 
1194	88	3	0	26.9026415607 	8.6835379452 	30.8830382811 
1195	65	3	0	17.4856391170 	0.7601959913 	27.4309467783 
1196	70	3	0	18.6236824208 	1.7022191906 	34.3353661999 
1197	37	3	0	31.8515266131 	7.7417162153 	30.8841183543 
1198	37	3	0	30.7133415355 	8.6835948831 	30.8843531654 
1199	87	3	0	23.5725648797 	0.7605018341 	27.4317773850 
1200	87	3	0	22.4343732818 	1.7023608147 	27.4319953862 
1201	36	3	0	17.4856244132 	5.9678186044 	30.8832837812 
1202	36	3	0	18.6236714476 	5.0258174857 	30.8830344719 
1203	86	3	0	25.7646197987 	12.9491655841 	27.4309397862 
1204	89	3	0	26.9026582714 	12.0071482510 	34.3353629960 
1205	88	3	0	23.5725387134 	5.9676391500 	30.8841163640 
1206	88	3	0	22.4343596322 	5.0257670987 	30.8843543908 
1207	62	3	0	31.8515447631 	12.9488618708 	27.4317808427 
1208	62	3	0	30.7133493123 	12.0070002791 	27.4320008838 
1209	88	4	0	25.6076555078 	7.6212006419 	28.7197813449 
1210	70	4	0	17.3287161727 	0.6398727336 	32.1721220921 
1211	37	4	0	32.0085500683 	7.6215215294 	33.0476303672 
1212	87	4	0	23.7296311281 	0.6403147909 	29.5952860463 
1213	36	4	0	17.3359661099 	6.0948885784 	33.0466968441 
1214	86	4	0	25.6150046366 	13.0762418780 	29.5943580245 
1215	88	4	0	23.7222533537 	6.0945973850 	28.7207032930 
1216	67	4	0	32.0012726690 	13.0758291348 	32.1730449656 
1217	88	4	0	23.7295790654 	6.0878320927 	33.0476300177 
1218	62	4	0	32.0086064317 	13.0690506306 	29.5952865861 
1219	36	4	0	17.3286851651 	6.0881699118 	28.7197833729 
1220	89	4	0	25.6076907197 	13.0694866113 	32.1721196744 
1221	37	4	0	32.0012403864 	7.6147734761 	28.7207003968 
1222	90	4	0	23.7222897621 	0.6335298931 	32.1730455669 
1223	88	4	0	25.6149528899 	7.6144646441 	33.0466978151 
1224	65	4	0	17.3360225216 	0.6331235904 	29.5943594150 
1225	1	1	0	28.8079748059 	10.3453493395 	36.0622396096 
1226	1	1	0	28.8079716704 	10.3453256867 	39.5145364749 
1227	1	1	0	20.5289801853 	3.3640342008 	36.0621928101 
1228	1	1	0	20.5289831544 	3.3640618787 	39.5145810406 
1229	1	2	0	27.3588307009 	9.0717464348 	36.6626497805 
1230	1	2	0	19.0798838230 	2.0904456196 	40.1149923869 
1231	1	2	0	30.2570320890 	9.0716997081 	38.9140883850 
1232	1	2	0	21.9780932206 	2.0904423126 	35.4617471794 
1233	1	2	0	19.0831252437 	4.6409148238 	38.9126286528 
1234	1	2	0	27.3621448852 	11.6222106794 	35.4603007684 
1235	1	2	0	21.9749394528 	4.6408320274 	36.6641042199 
1236	1	2	0	30.2539489800 	11.6220921926 	40.1164541529 
1237	1	2	0	21.9780589363 	4.6376602258 	38.9140733575 
1238	1	2	0	30.2570702123 	11.6189188277 	35.4617278501 
1239	1	2	0	19.0798510374 	4.6376185884 	36.6626704296 
1240	1	2	0	27.3588604605 	11.6189114954 	40.1150056870 
1241	1	2	0	30.2539116176 	9.0685334527 	36.6640847256 
1242	1	2	0	21.9749715828 	2.0872650676 	40.1164446954 
1243	1	2	0	27.3621085217 	9.0684469071 	38.9126431637 
1244	1	2	0	19.0831679175 	2.0871488560 	35.4603156245 
1245	1	2	0	28.8079555049 	9.3785391671 	41.2407245584 
1246	1	2	0	20.5289968217 	2.3972619750 	37.7883842368 
1247	1	2	0	20.5289796277 	4.3308107892 	41.2407260633 
1248	1	2	0	28.8079726532 	11.3120879911 	37.7883826178 
1249	91	3	0	25.2090763168 	7.2939039726 	36.5766714112 
1250	49	3	0	16.9301478364 	0.3125753735 	40.0290161302 
1251	43	3	0	32.4070705278 	7.2941891764 	39.0000985490 
1252	90	3	0	24.1281615183 	0.3129602493 	35.5477698658 
1253	42	3	0	16.9339896820 	6.4191683630 	38.9996415689 
1254	89	3	0	25.2130321776 	13.4005048013 	35.5472860937 
1255	91	3	0	24.1242301140 	6.4188636603 	36.5771628434 
1256	50	3	0	32.4032664067 	13.4001022717 	40.0294963961 
1257	91	3	0	24.1281000640 	6.4151726142 	39.0001058376 
1258	67	3	0	32.4071380283 	13.3964029779 	35.5477665483 
1259	42	3	0	16.9300942784 	6.4154683595 	36.5766623239 
1260	76	3	0	25.2091276626 	13.3967822183 	40.0290211321 
1261	43	3	0	32.4032114788 	7.2905034236 	36.5771670716 
1262	75	3	0	24.1242812629 	0.3092617759 	40.0294962600 
1263	91	3	0	25.2129760969 	7.2901931648 	38.9996383509 
1264	70	3	0	16.9340535628 	0.3088596615 	35.5472852744 
1265	91	3	0	25.7645971830 	7.7415387436 	37.7879616393 
1266	91	3	0	26.9026415609 	8.6835379450 	37.7877215302 
1267	70	3	0	17.4856391181 	0.7601959921 	34.3356300278 
1268	49	3	0	18.6236824212 	1.7022191914 	41.2400494530 
1269	43	3	0	31.8515266153 	7.7417162134 	37.7888016046 
1270	43	3	0	30.7133415333 	8.6835948850 	37.7890364164 
1271	90	3	0	23.5725648814 	0.7605018328 	34.3364606346 
1272	90	3	0	22.4343732802 	1.7023608162 	34.3366786357 
1273	42	3	0	17.4856244125 	5.9678186050 	37.7879670321 
1274	42	3	0	18.6236714493 	5.0258174843 	37.7877177225 
1275	89	3	0	25.7646197971 	12.9491655854 	34.3356230353 
1276	76	3	0	26.9026582696 	12.0071482527 	41.2400462484 
1277	91	3	0	23.5725387134 	5.9676391500 	37.7887996134 
1278	91	3	0	22.4343596321 	5.0257670989 	37.7890376404 
1279	67	3	0	31.8515447617 	12.9488618695 	34.3364640913 
1280	67	3	0	30.7133493141 	12.0070002808 	34.3366841343 
1281	91	4	0	25.6076555079 	7.6212006420 	35.6244645946 
1282	49	4	0	17.3287161728 	0.6398727337 	39.0768053414 
1283	43	4	0	32.0085500676 	7.6215215300 	39.9523136187 
1284	90	4	0	23.7296311278 	0.6403147912 	36.4999692967 
1285	42	4	0	17.3359661105 	6.0948885779 	39.9513800950 
1286	89	4	0	25.6150046367 	13.0762418779 	36.4990412747 
1287	91	4	0	23.7222533537 	6.0945973850 	35.6253865429 
1288	50	4	0	32.0012726689 	13.0758291347 	39.0777282152 
1289	91	4	0	23.7295790655 	6.0878320927 	39.9523132675 
1290	67	4	0	32.0086064323 	13.0690506310 	36.4999698352 
1291	42	4	0	17.3286851654 	6.0881699117 	35.6244666225 
1292	76	4	0	25.6076907190 	13.0694866118 	39.0768029254 
1293	43	4	0	32.0012403859 	7.6147734764 	35.6253836459 
1294	75	4	0	23.7222897627 	0.6335298926 	39.0777288181 
1295	91	4	0	25.6149528898 	7.6144646441 	39.9513810646 
1296	70	4	0	17.3360225214 	0.6331235902 	36.4990426646 
1297	1	1	0	28.8079748043 	24.3079115022 	1.5388233652 
1298	1	1	0	28.8079716701 	24.3078878562 	4.9911202256 
1299	1	1	0	20.5289801848 	17.3265963631 	1.5387765570 
1300	1	1	0	20.5289831621 	17.3266240370 	4.9911648005 
1301	1	2	0	27.3588307014 	23.0343085981 	2.1392335306 
1302	1	2	0	19.0798838213 	16.0530077829 	5.5915761364 
1303	1	2	0	30.2570320895 	23.0342618701 	4.3906721361 
1304	1	2	0	21.9780932207 	16.0530044758 	0.9383309302 
1305	1	2	0	19.0831252418 	18.6034769886 	4.3892124016 
1306	1	2	0	27.3621448855 	25.5847728425 	0.9368845154 
1307	1	2	0	21.9749394533 	18.6033941912 	2.1406879732 
1308	1	2	0	30.2539489798 	25.5846543545 	5.5930379040 
1309	1	2	0	21.9780589348 	18.6002223892 	4.3906571066 
1310	1	2	0	30.2570702129 	25.5814809915 	0.9383115991 
1311	1	2	0	19.0798510374 	18.6001807518 	2.1392541835 
1312	1	2	0	27.3588604602 	25.5814736578 	5.5915894381 
1313	1	2	0	30.2539116178 	23.0310956159 	2.1406684756 
1314	1	2	0	21.9749715809 	16.0498272323 	5.5930284440 
1315	1	2	0	27.3621085214 	23.0310090690 	4.3892269152 
1316	1	2	0	19.0831679171 	16.0497110187 	0.9368993748 
1317	1	2	0	28.8079555051 	23.3411013285 	6.7173083093 
1318	1	2	0	20.5289968208 	16.3598241388 	3.2649679865 
1319	1	2	0	20.5289796268 	18.2933729527 	6.7173098127 
1320	1	2	0	28.8079726534 	25.2746501529 	3.2649663677 
1321	92	3	0	25.2090763169 	21.2564661357 	2.0532551622 
1322	8	3	0	16.9301478360 	14.2751375363 	5.5055998807 
1323	47	3	0	32.4070705271 	21.2567513401 	4.4766823012 
1324	76	3	0	24.1281615178 	14.2755224128 	1.0243536170 
1325	46	3	0	16.9339896834 	20.3817305250 	4.4762253223 
1326	75	3	0	25.2130321791 	27.3630669633 	1.0238698458 
1327	92	3	0	24.1242301139 	20.3814258233 	2.0537465935 
1328	3	3	0	32.4032664073 	27.3626644352 	5.5060801480 
1329	92	3	0	24.1281000637 	20.3777347770 	4.4766895885 
1330	12	3	0	32.4071380284 	27.3589651411 	1.0243502996 
1331	46	3	0	16.9300942796 	20.3780305216 	2.0532460733 
1332	78	3	0	25.2091276612 	27.3593443824 	5.5056048836 
1333	47	3	0	32.4032114783 	21.2530655870 	2.0537508220 
1334	77	3	0	24.1242812642 	14.2718239381 	5.5060800131 
1335	92	3	0	25.2129760972 	21.2527553281 	4.4762221025 
1336	9	3	0	16.9340535620 	14.2714218240 	1.0238690245 
1337	92	3	0	25.7645971833 	21.7041009070 	3.2645453898 
1338	92	3	0	26.9026415607 	22.6461001082 	3.2643052799 
1339	9	3	0	17.4856391179 	14.7227581551 	-0.1877862211 
1340	8	3	0	18.6236824217 	15.6647813548 	6.7166332024 
1341	47	3	0	31.8515266144 	21.7042783773 	3.2653853548 
1342	47	3	0	30.7133415338 	22.6461570478 	3.2656201668 
1343	76	3	0	23.5725648798 	14.7230639972 	-0.1869556135 
1344	76	3	0	22.4343732808 	15.6649229787 	-0.1867376126 
1345	46	3	0	17.4856244148 	19.9303807662 	3.2645507831 
1346	46	3	0	18.6236714475 	18.9883796489 	3.2643014705 
1347	75	3	0	25.7646198002 	26.9117277460 	-0.1877932131 
1348	78	3	0	26.9026582711 	25.9697104147 	6.7166299993 
1349	92	3	0	23.5725387130 	19.9302013128 	3.2653833641 
1350	92	3	0	22.4343596326 	18.9883292622 	3.2656213898 
1351	12	3	0	31.8515447617 	26.9114240327 	-0.1869521582 
1352	12	3	0	30.7133493144 	25.9695624438 	-0.1867321158 
1353	92	4	0	25.6076555079 	21.5837628052 	1.1010483452 
1354	8	4	0	17.3287161729 	14.6024348970 	4.5533890922 
1355	47	4	0	32.0085500678 	21.5840836929 	5.4288973687 
1356	76	4	0	23.7296311278 	14.6028769542 	1.9765530472 
1357	46	4	0	17.3359661099 	20.0574507415 	5.4279638444 
1358	75	4	0	25.6150046364 	27.0388040414 	1.9756250247 
1359	92	4	0	23.7222533537 	20.0571595481 	1.1019702938 
1360	3	4	0	32.0012726687 	27.0383912976 	4.5543119655 
1361	92	4	0	23.7295790657 	20.0503942560 	5.4288970179 
1362	12	4	0	32.0086064323 	27.0316127942 	1.9765535858 
1363	46	4	0	17.3286851650 	20.0507320751 	1.1010503740 
1364	78	4	0	25.6076907194 	27.0320487746 	4.5533866758 
1365	47	4	0	32.0012403860 	21.5773356394 	1.1019673969 
1366	77	4	0	23.7222897623 	14.5960920562 	4.5543125677 
1367	92	4	0	25.6149528897 	21.5770268070 	5.4279648149 
1368	9	4	0	17.3360225217 	14.5956857535 	1.9756264158 
1369	1	1	0	28.8079748015 	24.3079115065 	8.4435066120 
1370	1	1	0	28.8079716682 	24.3078878518 	11.8958034759 
1371	1	1	0	20.5289801793 	17.3265963652 	8.4434598079 
1372	1	1	0	20.5289831667 	17.3266240391 	11.8958480441 
1373	1	2	0	27.3588307017 	23.0343085975 	9.0439167810 
1374	1	2	0	19.0798838201 	16.0530077822 	12.4962593872 
1375	1	2	0	30.2570320892 	23.0342618710 	11.2953553851 
1376	1	2	0	21.9780932216 	16.0530044754 	7.8430141812 
1377	1	2	0	19.0831252414 	18.6034769880 	11.2938956532 
1378	1	2	0	27.3621448861 	25.5847728415 	7.8415677669 
1379	1	2	0	21.9749394544 	18.6033941914 	9.0453712218 
1380	1	2	0	30.2539489804 	25.5846543555 	12.4977211529 
1381	1	2	0	21.9780589339 	18.6002223885 	11.2953403574 
1382	1	2	0	30.2570702133 	25.5814809908 	7.8429948503 
1383	1	2	0	19.0798510396 	18.6001807501 	9.0439374314 
1384	1	2	0	27.3588604604 	25.5814736585 	12.4962726875 
1385	1	2	0	30.2539116183 	23.0310956152 	9.0453517255 
1386	1	2	0	21.9749715802 	16.0498272320 	12.4977116948 
1387	1	2	0	27.3621085223 	23.0310090700 	11.2939101649 
1388	1	2	0	19.0831679183 	16.0497110190 	7.8415826255 
1389	1	2	0	28.8079555054 	23.3411013298 	13.6219915603 
1390	1	2	0	20.5289968210 	16.3598241382 	10.1696512377 
1391	1	2	0	20.5289796257 	18.2933729533 	13.6219930638 
1392	1	2	0	28.8079726539 	25.2746501531 	10.1696496178 
1393	93	3	0	25.2090763169 	21.2564661357 	8.9579384120 
1394	17	3	0	16.9301478366 	14.2751375369 	12.4102831289 
1395	54	3	0	32.4070705265 	21.2567513405 	11.3813655507 
1396	77	3	0	24.1281615174 	14.2755224132 	7.9290368675 
1397	53	3	0	16.9339896835 	20.3817305249 	11.3809085710 
1398	78	3	0	25.2130321775 	27.3630669644 	7.9285530940 
1399	93	3	0	24.1242301143 	20.3814258236 	8.9584298431 
1400	14	3	0	32.4032664069 	27.3626644350 	12.4107633966 
1401	93	3	0	24.1281000645 	20.3777347776 	11.3813728371 
1402	3	3	0	32.4071380290 	27.3589651416 	7.9290335488 
1403	53	3	0	16.9300942794 	20.3780305218 	8.9579293254 
1404	81	3	0	25.2091276614 	27.3593443823 	12.4102881331 
1405	54	3	0	32.4032114775 	21.2530655877 	8.9584340711 
1406	80	3	0	24.1242812645 	14.2718239378 	12.4107632639 
1407	93	3	0	25.2129760970 	21.2527553279 	11.3809053510 
1408	8	3	0	16.9340535618 	14.2714218239 	7.9285522740 
1409	93	3	0	25.7645971823 	21.7041009061 	10.1692286408 
1410	93	3	0	26.9026415609 	22.6461001084 	10.1689885296 
1411	8	3	0	17.4856391174 	14.7227581547 	6.7168970285 
1412	17	3	0	18.6236824210 	15.6647813538 	13.6213164545 
1413	54	3	0	31.8515266145 	21.7042783772 	10.1700686047 
1414	54	3	0	30.7133415346 	22.6461570470 	10.1703034182 
1415	77	3	0	23.5725648810 	14.7230639963 	6.7177276352 
1416	77	3	0	22.4343732808 	15.6649229787 	6.7179456358 
1417	53	3	0	17.4856244120 	19.9303807686 	10.1692340323 
1418	53	3	0	18.6236714478 	18.9883796489 	10.1689847212 
1419	78	3	0	25.7646197986 	26.9117277474 	6.7168900362 
1420	81	3	0	26.9026582709 	25.9697104146 	13.6213132487 
1421	93	3	0	23.5725387133 	19.9302013131 	10.1700666146 
1422	93	3	0	22.4343596318 	18.9883292616 	10.1703046410 
1423	3	3	0	31.8515447627 	26.9114240336 	6.7177310911 
1424	3	3	0	30.7133493133 	25.9695624433 	6.7179511339 
1425	93	4	0	25.6076555079 	21.5837628051 	8.0057315950 
1426	17	4	0	17.3287161726 	14.6024348967 	11.4580723429 
1427	54	4	0	32.0085500679 	21.5840836928 	12.3335806187 
1428	77	4	0	23.7296311281 	14.6028769541 	8.8812362967 
1429	53	4	0	17.3359661100 	20.0574507415 	12.3326470949 
1430	78	4	0	25.6150046368 	27.0388040410 	8.8803082754 
1431	93	4	0	23.7222533537 	20.0571595481 	8.0066535437 
1432	14	4	0	32.0012726689 	27.0383912978 	11.4589952159 
1433	93	4	0	23.7295790653 	20.0503942557 	12.3335802685 
1434	3	4	0	32.0086064321 	27.0316127941 	8.8812368360 
1435	53	4	0	17.3286851652 	20.0507320749 	8.0057336230 
1436	81	4	0	25.6076907193 	27.0320487747 	11.4580699258 
1437	54	4	0	32.0012403863 	21.5773356392 	8.0066506472 
1438	80	4	0	23.7222897622 	14.5960920563 	11.4589958172 
1439	93	4	0	25.6149528899 	21.5770268072 	12.3326480654 
1440	8	4	0	17.3360225217 	14.5956857536 	8.8803096658 
1441	1	1	0	28.8079748011 	24.3079115058 	15.3481898562 
1442	1	1	0	28.8079716688 	24.3078878555 	18.8004867322 
1443	1	1	0	20.5289801843 	17.3265963606 	15.3481430578 
1444	1	1	0	20.5289831607 	17.3266240366 	18.8005312949 
1445	1	2	0	27.3588307016 	23.0343085974 	15.9486000332 
1446	1	2	0	19.0798838214 	16.0530077830 	19.4009426375 
1447	1	2	0	30.2570320890 	23.0342618707 	18.2000386335 
1448	1	2	0	21.9780932201 	16.0530044766 	14.7476974311 
1449	1	2	0	19.0831252426 	18.6034769880 	18.1985789020 
1450	1	2	0	27.3621448864 	25.5847728415 	14.7462510182 
1451	1	2	0	21.9749394535 	18.6033941916 	15.9500544721 
1452	1	2	0	30.2539489809 	25.5846543554 	19.4024044022 
1453	1	2	0	21.9780589350 	18.6002223893 	18.2000236073 
1454	1	2	0	30.2570702135 	25.5814809911 	14.7476781006 
1455	1	2	0	19.0798510383 	18.6001807514 	15.9486206809 
1456	1	2	0	27.3588604607 	25.5814736577 	19.4009559356 
1457	1	2	0	30.2539116181 	23.0310956154 	15.9500349774 
1458	1	2	0	21.9749715816 	16.0498272317 	19.4023949455 
1459	1	2	0	27.3621085217 	23.0310090691 	18.1985934128 
1460	1	2	0	19.0831679174 	16.0497110194 	14.7462658736 
1461	1	2	0	28.8079555050 	23.3411013290 	20.5266748087 
1462	1	2	0	20.5289968211 	16.3598241395 	17.0743344872 
1463	1	2	0	20.5289796262 	18.2933729537 	20.5266763130 
1464	1	2	0	28.8079726539 	25.2746501530 	17.0743328676 
1465	94	3	0	25.2090763172 	21.2564661361 	15.8626216613 
1466	24	3	0	16.9301478362 	14.2751375365 	19.3149663798 
1467	59	3	0	32.4070705256 	21.2567513413 	18.2860488011 
1468	80	3	0	24.1281615180 	14.2755224126 	14.8337201153 
1469	58	3	0	16.9339896838 	20.3817305246 	18.2855918209 
1470	81	3	0	25.2130321775 	27.3630669645 	14.8332363434 
1471	94	3	0	24.1242301136 	20.3814258231 	15.8631130928 
1472	21	3	0	32.4032664084 	27.3626644362 	19.3154466469 
1473	94	3	0	24.1281000636 	20.3777347770 	18.2860560883 
1474	14	3	0	32.4071380287 	27.3589651414 	14.8337167990 
1475	58	3	0	16.9300942799 	20.3780305214 	15.8626125742 
1476	84	3	0	25.2091276609 	27.3593443827 	19.3149713840 
1477	59	3	0	32.4032114768 	21.2530655882 	15.8631173211 
1478	83	3	0	24.1242812645 	14.2718239378 	19.3154465127 
1479	94	3	0	25.2129760974 	21.2527553283 	18.2855886022 
1480	17	3	0	16.9340535623 	14.2714218243 	14.8332355249 
1481	94	3	0	25.7645971836 	21.7041009072 	17.0739118902 
1482	94	3	0	26.9026415601 	22.6461001078 	17.0736717789 
1483	17	3	0	17.4856391193 	14.7227581562 	13.6215802776 
1484	24	3	0	18.6236824215 	15.6647813543 	20.5259997028 
1485	59	3	0	31.8515266149 	21.7042783769 	17.0747518541 
1486	59	3	0	30.7133415357 	22.6461570461 	17.0749866674 
1487	80	3	0	23.5725648832 	14.7230639945 	13.6224108855 
1488	80	3	0	22.4343732801 	15.6649229795 	13.6226288857 
1489	58	3	0	17.4856244128 	19.9303807679 	17.0739172819 
1490	58	3	0	18.6236714472 	18.9883796492 	17.0736679730 
1491	81	3	0	25.7646197985 	26.9117277475 	13.6215732869 
1492	84	3	0	26.9026582715 	25.9697104144 	20.5259964985 
1493	94	3	0	23.5725387127 	19.9302013125 	17.0747498641 
1494	94	3	0	22.4343596328 	18.9883292623 	17.0749878900 
1495	14	3	0	31.8515447615 	26.9114240326 	13.6224143411 
1496	14	3	0	30.7133493136 	25.9695624434 	13.6226343852 
1497	94	4	0	25.6076555077 	21.5837628050 	14.9104148452 
1498	24	4	0	17.3287161727 	14.6024348969 	18.3627555923 
1499	59	4	0	32.0085500682 	21.5840836926 	19.2382638682 
1500	80	4	0	23.7296311278 	14.6028769542 	15.7859195474 
1501	58	4	0	17.3359661099 	20.0574507415 	19.2373303446 
1502	81	4	0	25.6150046369 	27.0388040410 	15.7849915254 
1503	94	4	0	23.7222533538 	20.0571595482 	14.9113367938 
1504	21	4	0	32.0012726685 	27.0383912974 	18.3636784653 
1505	94	4	0	23.7295790657 	20.0503942560 	19.2382635177 
1506	14	4	0	32.0086064322 	27.0316127941 	15.7859200857 
1507	58	4	0	17.3286851650 	20.0507320750 	14.9104168733 
1508	84	4	0	25.6076907196 	27.0320487745 	18.3627531751 
1509	59	4	0	32.0012403864 	21.5773356391 	14.9113338971 
1510	83	4	0	23.7222897622 	14.5960920562 	18.3636790674 
1511	94	4	0	25.6149528897 	21.5770268070 	19.2373313146 
1512	17	4	0	17.3360225216 	14.5956857535 	15.7849929152 
1513	1	1	0	28.8079748034 	24.3079115077 	22.2528731055 
1514	1	1	0	28.8079716660 	24.3078878542 	25.7051699778 
1515	1	1	0	20.5289801860 	17.3265963613 	22.2528263101 
1516	1	1	0	20.5289831563 	17.3266240354 	25.7052145415 
1517	1	2	0	27.3588307010 	23.0343085969 	22.8532832816 
1518	1	2	0	19.0798838224 	16.0530077835 	26.3056258886 
1519	1	2	0	30.2570320897 	23.0342618704 	25.1047218837 
1520	1	2	0	21.9780932200 	16.0530044766 	21.6523806805 
1521	1	2	0	19.0831252431 	18.6034769882 	25.1032621525 
1522	1	2	0	27.3621448860 	25.5847728412 	21.6509342689 
1523	1	2	0	21.9749394524 	18.6033941908 	22.8547377204 
1524	1	2	0	30.2539489810 	25.5846543557 	26.3070876543 
1525	1	2	0	21.9780589361 	18.6002223899 	25.1047068577 
1526	1	2	0	30.2570702134 	25.5814809909 	21.6523613516 
1527	1	2	0	19.0798510379 	18.6001807515 	22.8533039297 
1528	1	2	0	27.3588604617 	25.5814736574 	26.3056391880 
1529	1	2	0	30.2539116176 	23.0310956155 	22.8547182266 
1530	1	2	0	21.9749715824 	16.0498272317 	26.3070781955 
1531	1	2	0	27.3621085221 	23.0310090693 	25.1032766622 
1532	1	2	0	19.0831679168 	16.0497110189 	21.6509491235 
1533	1	2	0	28.8079555046 	23.3411013301 	27.4313580572 
1534	1	2	0	20.5289968214 	16.3598241399 	23.9790177373 
1535	1	2	0	20.5289796266 	18.2933729540 	27.4313595632 
1536	1	2	0	28.8079726539 	25.2746501527 	23.9790161185 
1537	95	3	0	25.2090763171 	21.2564661359 	22.7673049108 
1538	31	3	0	16.9301478361 	14.2751375364 	26.2196496299 
1539	64	3	0	32.4070705258 	21.2567513411 	25.1907320508 
1540	83	3	0	24.1281615180 	14.2755224126 	21.7384033658 
1541	63	3	0	16.9339896833 	20.3817305250 	25.1902750701 
1542	84	3	0	25.2130321772 	27.3630669648 	21.7379195932 
1543	95	3	0	24.1242301134 	20.3814258229 	22.7677963432 
1544	28	3	0	32.4032664069 	27.3626644350 	26.2201298963 
1545	95	3	0	24.1281000634 	20.3777347768 	25.1907393382 
1546	21	3	0	32.4071380301 	27.3589651425 	21.7384000486 
1547	63	3	0	16.9300942797 	20.3780305216 	22.7672958237 
1548	87	3	0	25.2091276623 	27.3593443816 	26.2196546332 
1549	64	3	0	32.4032114767 	21.2530655883 	22.7678005706 
1550	86	3	0	24.1242812641 	14.2718239382 	26.2201297615 
1551	95	3	0	25.2129760971 	21.2527553280 	25.1902718517 
1552	24	3	0	16.9340535621 	14.2714218241 	21.7379187750 
1553	95	3	0	25.7645971839 	21.7041009075 	23.9785951391 
1554	95	3	0	26.9026415603 	22.6461001081 	23.9783550320 
1555	24	3	0	17.4856391187 	14.7227581558 	20.5262635277 
1556	31	3	0	18.6236824215 	15.6647813545 	27.4306829508 
1557	64	3	0	31.8515266147 	21.7042783771 	23.9794351047 
1558	64	3	0	30.7133415356 	22.6461570462 	23.9796699178 
1559	83	3	0	23.5725648816 	14.7230639957 	20.5270941358 
1560	83	3	0	22.4343732802 	15.6649229793 	20.5273121349 
1561	63	3	0	17.4856244127 	19.9303807680 	23.9786005329 
1562	63	3	0	18.6236714479 	18.9883796485 	23.9783512233 
1563	84	3	0	25.7646197979 	26.9117277480 	20.5262565361 
1564	87	3	0	26.9026582694 	25.9697104160 	27.4306797466 
1565	95	3	0	23.5725387132 	19.9302013129 	23.9794331139 
1566	95	3	0	22.4343596330 	18.9883292625 	23.9796711405 
1567	21	3	0	31.8515447610 	26.9114240322 	20.5270975915 
1568	21	3	0	30.7133493119 	25.9695624421 	20.5273176334 
1569	95	4	0	25.6076555078 	21.5837628050 	21.8150980951 
1570	31	4	0	17.3287161728 	14.6024348969 	25.2674388419 
1571	64	4	0	32.0085500681 	21.5840836927 	26.1429471181 
1572	83	4	0	23.7296311278 	14.6028769542 	22.6906027970 
1573	63	4	0	17.3359661102 	20.0574507414 	26.1420135948 
1574	84	4	0	25.6150046370 	27.0388040409 	22.6896747752 
1575	95	4	0	23.7222533539 	20.0571595482 	21.8160200434 
1576	28	4	0	32.0012726689 	27.0383912977 	25.2683617154 
1577	95	4	0	23.7295790657 	20.0503942560 	26.1429467674 
1578	21	4	0	32.0086064318 	27.0316127938 	22.6906033358 
1579	63	4	0	17.3286851649 	20.0507320751 	21.8151001232 
1580	87	4	0	25.6076907192 	27.0320487748 	25.2674364254 
1581	64	4	0	32.0012403865 	21.5773356391 	21.8160171470 
1582	86	4	0	23.7222897625 	14.5960920561 	25.2683623177 
1583	95	4	0	25.6149528898 	21.5770268071 	26.1420145646 
1584	24	4	0	17.3360225216 	14.5956857535 	22.6896761650 
1585	1	1	0	28.8079748097 	24.3079115000 	29.1575563658 
1586	1	1	0	28.8079716590 	24.3078878537 	32.6098532220 
1587	1	1	0	20.5289801866 	17.3265963624 	29.1575095619 
1588	1	1	0	20.5289831695 	17.3266240344 	32.6098977948 
1589	1	2	0	27.3588307000 	23.0343085977 	29.7579665289 
1590	1	2	0	19.0798838199 	16.0530077829 	33.2103091365 
1591	1	2	0	30.2570320914 	23.0342618700 	32.0094051369 
1592	1	2	0	21.9780932202 	16.0530044762 	28.5570639285 
1593	1	2	0	19.0831252409 	18.6034769888 	32.0079454028 
1594	1	2	0	27.3621448842 	25.5847728432 	28.5556175162 
1595	1	2	0	21.9749394525 	18.6033941910 	29.7594209701 
1596	1	2	0	30.2539489822 	25.5846543558 	33.2117709029 
1597	1	2	0	21.9780589333 	18.6002223890 	32.0093901077 
1598	1	2	0	30.2570702119 	25.5814809914 	28.5570445995 
1599	1	2	0	19.0798510381 	18.6001807510 	29.7579871807 
1600	1	2	0	27.3588604629 	25.5814736570 	33.2103224379 
1601	1	2	0	30.2539116162 	23.0310956172 	29.7594014745 
1602	1	2	0	21.9749715797 	16.0498272329 	33.2117614449 
1603	1	2	0	27.3621085238 	23.0310090703 	32.0079599152 
1604	1	2	0	19.0831679166 	16.0497110186 	28.5556323733 
1605	1	2	0	28.8079555053 	23.3411013285 	34.3360413093 
1606	1	2	0	20.5289968198 	16.3598241398 	30.8837009858 
1607	1	2	0	20.5289796260 	18.2933729543 	34.3360428129 
1608	1	2	0	28.8079726541 	25.2746501536 	30.8836993676 
1609	96	3	0	25.2090763158 	21.2564661348 	29.6719881619 
1610	38	3	0	16.9301478363 	14.2751375365 	33.1243328791 
1611	69	3	0	32.4070705266 	21.2567513404 	32.0954153011 
1612	86	3	0	24.1281615176 	14.2755224129 	28.6430866163 
1613	68	3	0	16.9339896847 	20.3817305239 	32.0949583223 
1614	87	3	0	25.2130321789 	27.3630669634 	28.6426028455 
1615	96	3	0	24.1242301145 	20.3814258237 	29.6724795943 
1616	35	3	0	32.4032664067 	27.3626644348 	33.1248131458 
1617	96	3	0	24.1281000645 	20.3777347776 	32.0954225859 
1618	28	3	0	32.4071380288 	27.3589651414 	28.6430832986 
1619	68	3	0	16.9300942807 	20.3780305208 	29.6719790733 
1620	90	3	0	25.2091276615 	27.3593443822 	33.1243378844 
1621	69	3	0	32.4032114781 	21.2530655872 	29.6724838228 
1622	89	3	0	24.1242812652 	14.2718239373 	33.1248130140 
1623	96	3	0	25.2129760958 	21.2527553271 	32.0949550995 
1624	31	3	0	16.9340535619 	14.2714218239 	28.6426020244 
1625	96	3	0	25.7645971822 	21.7041009061 	30.8832783898 
1626	96	3	0	26.9026415621 	22.6461001094 	30.8830382807 
1627	31	3	0	17.4856391182 	14.7227581554 	27.4309467784 
1628	38	3	0	18.6236824216 	15.6647813542 	34.3353662034 
1629	69	3	0	31.8515266153 	21.7042783765 	30.8841183531 
1630	69	3	0	30.7133415338 	22.6461570475 	30.8843531649 
1631	86	3	0	23.5725648806 	14.7230639966 	27.4317773855 
1632	86	3	0	22.4343732808 	15.6649229787 	27.4319953866 
1633	68	3	0	17.4856244138 	19.9303807670 	30.8832837820 
1634	68	3	0	18.6236714463 	18.9883796501 	30.8830344700 
1635	87	3	0	25.7646197993 	26.9117277468 	27.4309397862 
1636	90	3	0	26.9026582707 	25.9697104149 	34.3353629977 
1637	96	3	0	23.5725387152 	19.9302013146 	30.8841163642 
1638	96	3	0	22.4343596318 	18.9883292612 	30.8843543898 
1639	28	3	0	31.8515447616 	26.9114240327 	27.4317808418 
1640	28	3	0	30.7133493138 	25.9695624434 	27.4320008819 
1641	96	4	0	25.6076555082 	21.5837628054 	28.7197813442 
1642	38	4	0	17.3287161727 	14.6024348968 	32.1721220921 
1643	69	4	0	32.0085500680 	21.5840836927 	33.0476303679 
1644	86	4	0	23.7296311279 	14.6028769542 	29.5952860465 
1645	68	4	0	17.3359661096 	20.0574507418 	33.0466968435 
1646	87	4	0	25.6150046363 	27.0388040414 	29.5943580239 
1647	96	4	0	23.7222533535 	20.0571595479 	28.7207032925 
1648	35	4	0	32.0012726690 	27.0383912978 	32.1730449656 
1649	96	4	0	23.7295790653 	20.0503942557 	33.0476300183 
1650	28	4	0	32.0086064321 	27.0316127941 	29.5952865853 
1651	68	4	0	17.3286851648 	20.0507320752 	28.7197833734 
1652	90	4	0	25.6076907195 	27.0320487745 	32.1721196747 
1653	69	4	0	32.0012403858 	21.5773356396 	28.7207003958 
1654	89	4	0	23.7222897620 	14.5960920565 	32.1730455665 
1655	96	4	0	25.6149528902 	21.5770268075 	33.0466978155 
1656	31	4	0	17.3360225217 	14.5956857535 	29.5943594149 
1657	1	1	0	28.8079748107 	24.3079115079 	36.0622396115 
1658	1	1	0	28.8079716721 	24.3078878493 	39.5145364710 
1659	1	1	0	20.5289801789 	17.3265963604 	36.0621928087 
1660	1	1	0	20.5289831575 	17.3266240389 	39.5145810415 
1661	1	2	0	27.3588306994 	23.0343085966 	36.6626497800 
1662	1	2	0	19.0798838221 	16.0530077829 	40.1149923872 
1663	1	2	0	30.2570320884 	23.0342618715 	38.9140883862 
1664	1	2	0	21.9780932217 	16.0530044759 	35.4617471805 
1665	1	2	0	19.0831252431 	18.6034769877 	38.9126286521 
1666	1	2	0	27.3621448845 	25.5847728419 	35.4603007664 
1667	1	2	0	21.9749394542 	18.6033941916 	36.6641042209 
1668	1	2	0	30.2539489798 	25.5846543558 	40.1164541545 
1669	1	2	0	21.9780589352 	18.6002223887 	38.9140733576 
1670	1	2	0	30.2570702111 	25.5814809896 	35.4617278482 
1671	1	2	0	19.0798510392 	18.6001807513 	36.6626704294 
1672	1	2	0	27.3588604598 	25.5814736590 	40.1150056884 
1673	1	2	0	30.2539116169 	23.0310956152 	36.6640847246 
1674	1	2	0	21.9749715824 	16.0498272311 	40.1164446947 
1675	1	2	0	27.3621085217 	23.0310090704 	38.9126431646 
1676	1	2	0	19.0831679186 	16.0497110200 	35.4603156236 
1677	1	2	0	28.8079555045 	23.3411013303 	41.2407245585 
1678	1	2	0	20.5289968220 	16.3598241393 	37.7883842370 
1679	1	2	0	20.5289796267 	18.2933729528 	41.2407260641 
1680	1	2	0	28.8079726524 	25.2746501529 	37.7883826180 
1681	97	3	0	25.2090763174 	21.2564661362 	36.5766714095 
1682	9	3	0	16.9301478363 	14.2751375366 	40.0290161293 
1683	73	3	0	32.4070705278 	21.2567513395 	39.0000985485 
1684	89	3	0	24.1281615183 	14.2755224123 	35.5477698660 
1685	72	3	0	16.9339896827 	20.3817305256 	38.9996415694 
1686	90	3	0	25.2130321780 	27.3630669642 	35.5472860935 
1687	97	3	0	24.1242301130 	20.3814258226 	36.5771628417 
1688	12	3	0	32.4032664064 	27.3626644346 	40.0294963960 
1689	97	3	0	24.1281000632 	20.3777347766 	39.0001058375 
1690	35	3	0	32.4071380288 	27.3589651414 	35.5477665471 
1691	72	3	0	16.9300942789 	20.3780305222 	36.5766623247 
1692	75	3	0	25.2091276629 	27.3593443811 	40.0290211310 
1693	73	3	0	32.4032114787 	21.2530655867 	36.5771670719 
1694	76	3	0	24.1242812642 	14.2718239380 	40.0294962607 
1695	97	3	0	25.2129760973 	21.2527553282 	38.9996383513 
1696	38	3	0	16.9340535619 	14.2714218240 	35.5472852731 
1697	97	3	0	25.7645971845 	21.7041009079 	37.7879616402 
1698	97	3	0	26.9026415601 	22.6461001075 	37.7877215303 
1699	38	3	0	17.4856391178 	14.7227581550 	34.3356300281 
1700	9	3	0	18.6236824214 	15.6647813545 	41.2400494519 
1701	73	3	0	31.8515266161 	21.7042783759 	37.7888016046 
1702	73	3	0	30.7133415330 	22.6461570486 	37.7890364166 
1703	89	3	0	23.5725648821 	14.7230639953 	34.3364606345 
1704	89	3	0	22.4343732796 	15.6649229797 	34.3366786340 
1705	72	3	0	17.4856244118 	19.9303807687 	37.7879670314 
1706	72	3	0	18.6236714486 	18.9883796478 	37.7877177231 
1707	90	3	0	25.7646197973 	26.9117277484 	34.3356230356 
1708	75	3	0	26.9026582690 	25.9697104162 	41.2400462492 
1709	97	3	0	23.5725387128 	19.9302013126 	37.7887996147 
1710	97	3	0	22.4343596334 	18.9883292630 	37.7890376396 
1711	35	3	0	31.8515447626 	26.9114240334 	34.3364640909 
1712	35	3	0	30.7133493138 	25.9695624437 	34.3366841369 
1713	97	4	0	25.6076555076 	21.5837628049 	35.6244645953 
1714	9	4	0	17.3287161727 	14.6024348968 	39.0768053417 
1715	73	4	0	32.0085500675 	21.5840836932 	39.9523136189 
1716	89	4	0	23.7296311278 	14.6028769542 	36.4999692966 
1717	72	4	0	17.3359661103 	20.0574507412 	39.9513800948 
1718	90	4	0	25.6150046367 	27.0388040411 	36.4990412747 
1719	97	4	0	23.7222533541 	20.0571595484 	35.6253865436 
1720	12	4	0	32.0012726690 	27.0383912978 	39.0777282152 
1721	97	4	0	23.7295790657 	20.0503942560 	39.9523132673 
1722	35	4	0	32.0086064320 	27.0316127940 	36.4999698358 
1723	72	4	0	17.3286851653 	20.0507320748 	35.6244666223 
1724	75	4	0	25.6076907189 	27.0320487750 	39.0768029260 
1725	73	4	0	32.0012403859 	21.5773356395 	35.6253836458 
1726	76	4	0	23.7222897624 	14.5960920560 	39.0777288176 
1727	97	4	0	25.6149528898 	21.5770268072 	39.9513810644 
1728	38	4	0	17.3360225218 	14.5956857536 	36.4990426653 

Bonds

1 1 3 8
2 1 3 11
3 1 3 15
4 1 3 20
5 1 3 22
6 1 3 383
7 1 4 6
8 1 4 9
9 1 4 13
10 1 4 18
11 1 4 22
12 1 4 23
13 2 6 44
14 2 8 48
15 2 9 50
16 2 11 54
17 2 13 54
18 2 15 50
19 2 18 120
20 2 20 404
21 4 26 58
22 3 26 115
23 3 26 1328
24 3 28 47
25 4 28 60
26 3 28 462
27 3 29 49
28 4 29 61
29 3 31 53
30 4 31 63
31 3 33 39
32 3 33 53
33 4 33 65
34 3 35 49
35 4 35 67
36 3 35 901
37 4 38 70
38 3 38 119
39 3 40 43
40 4 40 72
41 5 47 48
42 5 49 50
43 5 53 54
44 1 75 23
45 1 75 80
46 1 75 83
47 1 75 87
48 1 75 92
49 1 75 94
50 2 80 120
51 2 83 126
52 2 87 122
53 2 92 44
54 3 100 119
55 4 100 132
56 3 100 534
57 3 103 125
58 4 103 135
59 3 107 121
60 4 107 139
61 3 107 973
62 3 112 115
63 4 112 144
64 5 115 44
65 5 119 120
66 5 121 122
67 1 76 78
68 1 76 81
69 1 76 85
70 1 76 90
71 1 76 94
72 1 76 95
73 2 78 116
74 2 81 122
75 2 85 126
76 2 90 192
77 4 98 130
78 3 98 187
79 3 98 1400
80 3 101 121
81 4 101 133
82 3 105 111
83 3 105 125
84 4 105 137
85 4 110 142
86 3 110 191
87 5 125 126
88 1 147 95
89 1 147 152
90 1 147 155
91 1 147 159
92 1 147 164
93 1 147 166
94 1 148 150
95 1 148 153
96 1 148 157
97 1 148 162
98 1 148 166
99 1 148 167
100 2 150 188
101 2 152 192
102 2 153 194
103 2 155 198
104 2 157 198
105 2 159 194
106 2 162 264
107 2 164 116
108 4 170 202
109 3 170 259
110 3 170 1472
111 3 172 191
112 4 172 204
113 3 172 606
114 3 173 193
115 4 173 205
116 3 175 197
117 4 175 207
118 3 177 183
119 3 177 197
120 4 177 209
121 3 179 193
122 4 179 211
123 3 179 1045
124 4 182 214
125 3 182 263
126 3 184 187
127 4 184 216
128 5 187 116
129 5 191 192
130 5 193 194
131 5 197 198
132 5 259 188
133 1 219 167
134 1 219 224
135 1 219 227
136 1 219 231
137 1 219 236
138 1 219 238
139 1 220 222
140 1 220 225
141 1 220 229
142 1 220 234
143 1 220 238
144 1 220 239
145 2 222 260
146 2 224 264
147 2 225 266
148 2 227 270
149 2 229 270
150 2 231 266
151 2 234 336
152 2 236 188
153 4 242 274
154 3 242 331
155 3 242 1544
156 3 244 263
157 4 244 276
158 3 244 678
159 3 245 265
160 4 245 277
161 3 247 269
162 4 247 279
163 3 249 255
164 3 249 269
165 4 249 281
166 3 251 265
167 4 251 283
168 3 251 1117
169 4 254 286
170 3 254 335
171 3 256 259
172 4 256 288
173 5 263 264
174 5 265 266
175 5 269 270
176 1 291 239
177 1 291 296
178 1 291 299
179 1 291 303
180 1 291 308
181 1 291 310
182 2 296 336
183 2 299 342
184 2 303 338
185 2 308 260
186 3 316 335
187 4 316 348
188 3 316 750
189 3 319 341
190 4 319 351
191 3 323 337
192 4 323 355
193 3 323 1189
194 3 328 331
195 4 328 360
196 5 331 260
197 5 335 336
198 5 337 338
199 5 43 404
200 1 292 294
201 1 292 297
202 1 292 301
203 1 292 306
204 1 292 310
205 1 292 311
206 2 294 332
207 2 297 338
208 2 301 342
209 2 306 408
210 4 314 346
211 3 314 403
212 3 314 1616
213 3 317 337
214 4 317 349
215 3 321 327
216 3 321 341
217 4 321 353
218 4 326 358
219 3 326 407
220 5 341 342
221 1 363 311
222 1 363 368
223 1 363 371
224 1 363 375
225 1 363 380
226 1 363 382
227 1 364 366
228 1 364 369
229 1 364 373
230 1 364 378
231 1 364 382
232 1 364 383
233 2 366 404
234 2 368 408
235 2 369 410
236 2 371 414
237 2 373 414
238 2 375 410
239 2 378 48
240 2 380 332
241 3 386 43
242 4 386 418
243 3 386 1688
244 3 388 407
245 4 388 420
246 3 388 822
247 3 389 409
248 4 389 421
249 3 391 413
250 4 391 423
251 3 393 399
252 3 393 413
253 4 393 425
254 3 395 409
255 4 395 427
256 3 395 1261
257 3 398 47
258 4 398 430
259 3 400 403
260 4 400 432
261 5 403 332
262 5 407 408
263 5 409 410
264 5 413 414
265 1 435 440
266 1 435 443
267 1 435 447
268 1 435 452
269 1 435 454
270 1 435 815
271 1 436 438
272 1 436 441
273 1 436 445
274 1 436 450
275 1 436 454
276 1 436 455
277 2 438 476
278 2 440 480
279 2 441 482
280 2 443 486
281 2 445 486
282 2 447 482
283 2 450 552
284 2 452 836
285 4 458 490
286 3 458 547
287 3 458 896
288 3 460 30
289 3 460 479
290 4 460 492
291 3 461 481
292 4 461 493
293 3 463 485
294 4 463 495
295 3 465 471
296 3 465 485
297 4 465 497
298 3 467 481
299 4 467 499
300 3 467 1333
301 4 470 502
302 3 470 551
303 3 472 475
304 4 472 504
305 5 479 480
306 5 481 482
307 5 485 486
308 1 507 455
309 1 507 512
310 1 507 515
311 1 507 519
312 1 507 524
313 1 507 526
314 2 512 552
315 2 515 558
316 2 519 554
317 2 524 476
318 3 532 102
319 3 532 551
320 4 532 564
321 3 535 557
322 4 535 567
323 3 539 553
324 4 539 571
325 3 539 1405
326 3 544 547
327 4 544 576
328 5 547 476
329 5 551 552
330 5 553 554
331 1 508 510
332 1 508 513
333 1 508 517
334 1 508 522
335 1 508 526
336 1 508 527
337 2 510 548
338 2 513 554
339 2 517 558
340 2 522 624
341 4 530 562
342 3 530 619
343 3 530 968
344 3 533 553
345 4 533 565
346 3 537 543
347 3 537 557
348 4 537 569
349 4 542 574
350 3 542 623
351 5 557 558
352 1 579 527
353 1 579 584
354 1 579 587
355 1 579 591
356 1 579 596
357 1 579 598
358 1 580 582
359 1 580 585
360 1 580 589
361 1 580 594
362 1 580 598
363 1 580 599
364 2 582 620
365 2 584 624
366 2 585 626
367 2 587 630
368 2 589 630
369 2 591 626
370 2 594 696
371 2 596 548
372 4 602 634
373 3 602 691
374 3 602 1040
375 3 604 174
376 3 604 623
377 4 604 636
378 3 605 625
379 4 605 637
380 3 607 629
381 4 607 639
382 3 609 615
383 3 609 629
384 4 609 641
385 3 611 625
386 4 611 643
387 3 611 1477
388 4 614 646
389 3 614 695
390 3 616 619
391 4 616 648
392 5 619 548
393 5 623 624
394 5 625 626
395 5 629 630
396 5 691 620
397 1 651 599
398 1 651 656
399 1 651 659
400 1 651 663
401 1 651 668
402 1 651 670
403 1 652 654
404 1 652 657
405 1 652 661
406 1 652 666
407 1 652 670
408 1 652 671
409 2 654 692
410 2 656 696
411 2 657 698
412 2 659 702
413 2 661 702
414 2 663 698
415 2 666 768
416 2 668 620
417 4 674 706
418 3 674 763
419 3 674 1112
420 3 676 246
421 3 676 695
422 4 676 708
423 3 677 697
424 4 677 709
425 3 679 701
426 4 679 711
427 3 681 687
428 3 681 701
429 4 681 713
430 3 683 697
431 4 683 715
432 3 683 1549
433 4 686 718
434 3 686 767
435 3 688 691
436 4 688 720
437 5 695 696
438 5 697 698
439 5 701 702
440 1 723 671
441 1 723 728
442 1 723 731
443 1 723 735
444 1 723 740
445 1 723 742
446 2 728 768
447 2 731 774
448 2 735 770
449 2 740 692
450 3 748 318
451 3 748 767
452 4 748 780
453 3 751 773
454 4 751 783
455 3 755 769
456 4 755 787
457 3 755 1621
458 3 760 763
459 4 760 792
460 5 763 692
461 5 767 768
462 5 769 770
463 5 475 836
464 1 724 726
465 1 724 729
466 1 724 733
467 1 724 738
468 1 724 742
469 1 724 743
470 2 726 764
471 2 729 770
472 2 733 774
473 2 738 840
474 4 746 778
475 3 746 835
476 3 746 1184
477 3 749 769
478 4 749 781
479 3 753 759
480 3 753 773
481 4 753 785
482 4 758 790
483 3 758 839
484 5 773 774
485 1 795 743
486 1 795 800
487 1 795 803
488 1 795 807
489 1 795 812
490 1 795 814
491 1 796 798
492 1 796 801
493 1 796 805
494 1 796 810
495 1 796 814
496 1 796 815
497 2 798 836
498 2 800 840
499 2 801 842
500 2 803 846
501 2 805 846
502 2 807 842
503 2 810 480
504 2 812 764
505 3 818 475
506 4 818 850
507 3 818 1256
508 3 820 390
509 3 820 839
510 4 820 852
511 3 821 841
512 4 821 853
513 3 823 845
514 4 823 855
515 3 825 831
516 3 825 845
517 4 825 857
518 3 827 841
519 4 827 859
520 3 827 1693
521 3 830 479
522 4 830 862
523 3 832 835
524 4 832 864
525 5 835 764
526 5 839 840
527 5 841 842
528 5 845 846
529 1 1 5
530 1 1 10
531 1 1 14
532 1 1 17
533 1 1 24
534 1 1 381
535 1 2 7
536 1 2 12
537 1 2 16
538 1 2 19
539 1 2 21
540 1 2 24
541 2 5 42
542 2 7 46
543 2 10 412
544 2 12 128
545 2 14 56
546 2 16 52
547 2 17 46
548 2 19 42
549 3 25 31
550 3 25 41
551 4 25 57
552 3 27 45
553 4 27 59
554 3 27 893
555 3 30 51
556 4 30 62
557 4 32 64
558 3 32 127
559 3 34 55
560 4 34 66
561 3 34 1336
562 4 36 68
563 3 36 123
564 3 36 470
565 3 37 45
566 4 37 69
567 3 39 41
568 4 39 71
569 5 41 42
570 5 45 46
571 5 55 56
572 1 73 21
573 1 73 77
574 1 73 82
575 1 73 86
576 1 73 89
577 1 73 96
578 2 77 114
579 2 82 52
580 2 86 128
581 2 89 118
582 3 97 103
583 3 97 113
584 4 97 129
585 3 102 123
586 4 102 134
587 3 106 127
588 4 106 138
589 3 106 1408
590 3 109 117
591 4 109 141
592 5 113 114
593 5 123 52
594 5 127 128
595 1 74 79
596 1 74 84
597 1 74 88
598 1 74 91
599 1 74 93
600 1 74 96
601 2 79 118
602 2 84 200
603 2 88 124
604 2 91 114
605 3 99 117
606 4 99 131
607 3 99 965
608 4 104 136
609 3 104 199
610 4 108 140
611 3 108 195
612 3 108 542
613 3 111 113
614 4 111 143
615 5 117 118
616 1 145 93
617 1 145 149
618 1 145 154
619 1 145 158
620 1 145 161
621 1 145 168
622 1 146 151
623 1 146 156
624 1 146 160
625 1 146 163
626 1 146 165
627 1 146 168
628 2 149 186
629 2 151 190
630 2 154 124
631 2 156 272
632 2 158 200
633 2 160 196
634 2 161 190
635 2 163 186
636 3 169 175
637 3 169 185
638 4 169 201
639 3 171 189
640 4 171 203
641 3 171 1037
642 3 174 195
643 4 174 206
644 4 176 208
645 3 176 271
646 3 178 199
647 4 178 210
648 3 178 1480
649 4 180 212
650 3 180 267
651 3 180 614
652 3 181 189
653 4 181 213
654 3 183 185
655 4 183 215
656 5 185 186
657 5 189 190
658 5 195 124
659 5 199 200
660 5 267 196
661 1 217 165
662 1 217 221
663 1 217 226
664 1 217 230
665 1 217 233
666 1 217 240
667 1 218 223
668 1 218 228
669 1 218 232
670 1 218 235
671 1 218 237
672 1 218 240
673 2 221 258
674 2 223 262
675 2 226 196
676 2 228 344
677 2 230 272
678 2 232 268
679 2 233 262
680 2 235 258
681 3 241 247
682 3 241 257
683 4 241 273
684 3 243 261
685 4 243 275
686 3 243 1109
687 3 246 267
688 4 246 278
689 4 248 280
690 3 248 343
691 3 250 271
692 4 250 282
693 3 250 1552
694 4 252 284
695 3 252 339
696 3 252 686
697 3 253 261
698 4 253 285
699 3 255 257
700 4 255 287
701 5 257 258
702 5 261 262
703 5 271 272
704 1 289 237
705 1 289 293
706 1 289 298
707 1 289 302
708 1 289 305
709 1 289 312
710 2 293 330
711 2 298 268
712 2 302 344
713 2 305 334
714 3 313 319
715 3 313 329
716 4 313 345
717 3 318 339
718 4 318 350
719 3 322 343
720 4 322 354
721 3 322 1624
722 3 325 333
723 4 325 357
724 5 329 330
725 5 339 268
726 5 343 344
727 5 51 412
728 1 290 295
729 1 290 300
730 1 290 304
731 1 290 307
732 1 290 309
733 1 290 312
734 2 295 334
735 2 300 416
736 2 304 340
737 2 307 330
738 3 315 333
739 4 315 347
740 3 315 1181
741 4 320 352
742 3 320 415
743 4 324 356
744 3 324 411
745 3 324 758
746 3 327 329
747 4 327 359
748 5 333 334
749 1 361 309
750 1 361 365
751 1 361 370
752 1 361 374
753 1 361 377
754 1 361 384
755 1 362 367
756 1 362 372
757 1 362 376
758 1 362 379
759 1 362 381
760 1 362 384
761 2 365 402
762 2 367 406
763 2 370 340
764 2 372 56
765 2 374 416
766 2 376 412
767 2 377 406
768 2 379 402
769 3 385 391
770 3 385 401
771 4 385 417
772 3 387 405
773 4 387 419
774 3 387 1253
775 3 390 411
776 4 390 422
777 3 392 55
778 4 392 424
779 3 394 415
780 4 394 426
781 3 394 1696
782 3 396 51
783 4 396 428
784 3 396 830
785 3 397 405
786 4 397 429
787 3 399 401
788 4 399 431
789 5 401 402
790 5 405 406
791 5 411 340
792 5 415 416
793 1 433 437
794 1 433 442
795 1 433 446
796 1 433 449
797 1 433 456
798 1 433 813
799 1 434 439
800 1 434 444
801 1 434 448
802 1 434 451
803 1 434 453
804 1 434 456
805 2 437 474
806 2 439 478
807 2 442 844
808 2 444 560
809 2 446 488
810 2 448 484
811 2 449 478
812 2 451 474
813 3 457 463
814 3 457 473
815 4 457 489
816 3 459 477
817 4 459 491
818 3 459 1325
819 3 462 483
820 4 462 494
821 4 464 496
822 3 464 559
823 3 466 487
824 4 466 498
825 3 466 904
826 3 468 38
827 4 468 500
828 3 468 555
829 3 469 477
830 4 469 501
831 3 471 473
832 4 471 503
833 5 473 474
834 5 477 478
835 5 487 488
836 1 505 453
837 1 505 509
838 1 505 514
839 1 505 518
840 1 505 521
841 1 505 528
842 2 509 546
843 2 514 484
844 2 518 560
845 2 521 550
846 3 529 535
847 3 529 545
848 4 529 561
849 3 534 555
850 4 534 566
851 3 538 559
852 4 538 570
853 3 538 976
854 3 541 549
855 4 541 573
856 5 545 546
857 5 555 484
858 5 559 560
859 1 506 511
860 1 506 516
861 1 506 520
862 1 506 523
863 1 506 525
864 1 506 528
865 2 511 550
866 2 516 632
867 2 520 556
868 2 523 546
869 3 531 549
870 4 531 563
871 3 531 1397
872 4 536 568
873 3 536 631
874 3 540 110
875 4 540 572
876 3 540 627
877 3 543 545
878 4 543 575
879 5 549 550
880 1 577 525
881 1 577 581
882 1 577 586
883 1 577 590
884 1 577 593
885 1 577 600
886 1 578 583
887 1 578 588
888 1 578 592
889 1 578 595
890 1 578 597
891 1 578 600
892 2 581 618
893 2 583 622
894 2 586 556
895 2 588 704
896 2 590 632
897 2 592 628
898 2 593 622
899 2 595 618
900 3 601 607
901 3 601 617
902 4 601 633
903 3 603 621
904 4 603 635
905 3 603 1469
906 3 606 627
907 4 606 638
908 4 608 640
909 3 608 703
910 3 610 631
911 4 610 642
912 3 610 1048
913 3 612 182
914 4 612 644
915 3 612 699
916 3 613 621
917 4 613 645
918 3 615 617
919 4 615 647
920 5 617 618
921 5 621 622
922 5 627 556
923 5 631 632
924 5 699 628
925 1 649 597
926 1 649 653
927 1 649 658
928 1 649 662
929 1 649 665
930 1 649 672
931 1 650 655
932 1 650 660
933 1 650 664
934 1 650 667
935 1 650 669
936 1 650 672
937 2 653 690
938 2 655 694
939 2 658 628
940 2 660 776
941 2 662 704
942 2 664 700
943 2 665 694
944 2 667 690
945 3 673 679
946 3 673 689
947 4 673 705
948 3 675 693
949 4 675 707
950 3 675 1541
951 3 678 699
952 4 678 710
953 4 680 712
954 3 680 775
955 3 682 703
956 4 682 714
957 3 682 1120
958 3 684 254
959 4 684 716
960 3 684 771
961 3 685 693
962 4 685 717
963 3 687 689
964 4 687 719
965 5 689 690
966 5 693 694
967 5 703 704
968 1 721 669
969 1 721 725
970 1 721 730
971 1 721 734
972 1 721 737
973 1 721 744
974 2 725 762
975 2 730 700
976 2 734 776
977 2 737 766
978 3 745 751
979 3 745 761
980 4 745 777
981 3 750 771
982 4 750 782
983 3 754 775
984 4 754 786
985 3 754 1192
986 3 757 765
987 4 757 789
988 5 761 762
989 5 771 700
990 5 775 776
991 5 483 844
992 1 722 727
993 1 722 732
994 1 722 736
995 1 722 739
996 1 722 741
997 1 722 744
998 2 727 766
999 2 732 848
1000 2 736 772
1001 2 739 762
1002 3 747 765
1003 4 747 779
1004 3 747 1613
1005 4 752 784
1006 3 752 847
1007 3 756 326
1008 4 756 788
1009 3 756 843
1010 3 759 761
1011 4 759 791
1012 5 765 766
1013 1 793 741
1014 1 793 797
1015 1 793 802
1016 1 793 806
1017 1 793 809
1018 1 793 816
1019 1 794 799
1020 1 794 804
1021 1 794 808
1022 1 794 811
1023 1 794 813
1024 1 794 816
1025 2 797 834
1026 2 799 838
1027 2 802 772
1028 2 804 488
1029 2 806 848
1030 2 808 844
1031 2 809 838
1032 2 811 834
1033 3 817 823
1034 3 817 833
1035 4 817 849
1036 3 819 837
1037 4 819 851
1038 3 819 1685
1039 3 822 843
1040 4 822 854
1041 3 824 487
1042 4 824 856
1043 3 826 847
1044 4 826 858
1045 3 826 1264
1046 3 828 398
1047 3 828 483
1048 4 828 860
1049 3 829 837
1050 4 829 861
1051 3 831 833
1052 4 831 863
1053 5 833 834
1054 5 837 838
1055 5 843 772
1056 5 847 848
1057 1 867 872
1058 1 867 875
1059 1 867 879
1060 1 867 884
1061 1 867 886
1062 1 867 1247
1063 1 868 870
1064 1 868 873
1065 1 868 877
1066 1 868 882
1067 1 868 886
1068 1 868 887
1069 2 870 908
1070 2 872 912
1071 2 873 914
1072 2 875 918
1073 2 877 918
1074 2 879 914
1075 2 882 984
1076 2 884 1268
1077 3 890 464
1078 4 890 922
1079 3 890 979
1080 3 892 911
1081 4 892 924
1082 3 892 1326
1083 3 893 913
1084 4 893 925
1085 3 895 917
1086 4 895 927
1087 3 897 903
1088 3 897 917
1089 4 897 929
1090 3 899 37
1091 3 899 913
1092 4 899 931
1093 4 902 934
1094 3 902 983
1095 3 904 907
1096 4 904 936
1097 5 911 912
1098 5 913 914
1099 5 917 918
1100 1 939 887
1101 1 939 944
1102 1 939 947
1103 1 939 951
1104 1 939 956
1105 1 939 958
1106 2 944 984
1107 2 947 990
1108 2 951 986
1109 2 956 908
1110 3 964 983
1111 4 964 996
1112 3 964 1398
1113 3 967 989
1114 4 967 999
1115 3 971 109
1116 3 971 985
1117 4 971 1003
1118 3 976 979
1119 4 976 1008
1120 5 979 908
1121 5 983 984
1122 5 985 986
1123 1 940 942
1124 1 940 945
1125 1 940 949
1126 1 940 954
1127 1 940 958
1128 1 940 959
1129 2 942 980
1130 2 945 986
1131 2 949 990
1132 2 954 1056
1133 3 962 536
1134 4 962 994
1135 3 962 1051
1136 3 965 985
1137 4 965 997
1138 3 969 975
1139 3 969 989
1140 4 969 1001
1141 4 974 1006
1142 3 974 1055
1143 5 989 990
1144 1 1011 959
1145 1 1011 1016
1146 1 1011 1019
1147 1 1011 1023
1148 1 1011 1028
1149 1 1011 1030
1150 1 1012 1014
1151 1 1012 1017
1152 1 1012 1021
1153 1 1012 1026
1154 1 1012 1030
1155 1 1012 1031
1156 2 1014 1052
1157 2 1016 1056
1158 2 1017 1058
1159 2 1019 1062
1160 2 1021 1062
1161 2 1023 1058
1162 2 1026 1128
1163 2 1028 980
1164 3 1034 608
1165 4 1034 1066
1166 3 1034 1123
1167 3 1036 1055
1168 4 1036 1068
1169 3 1036 1470
1170 3 1037 1057
1171 4 1037 1069
1172 3 1039 1061
1173 4 1039 1071
1174 3 1041 1047
1175 3 1041 1061
1176 4 1041 1073
1177 3 1043 181
1178 3 1043 1057
1179 4 1043 1075
1180 4 1046 1078
1181 3 1046 1127
1182 3 1048 1051
1183 4 1048 1080
1184 5 1051 980
1185 5 1055 1056
1186 5 1057 1058
1187 5 1061 1062
1188 5 1123 1052
1189 1 1083 1031
1190 1 1083 1088
1191 1 1083 1091
1192 1 1083 1095
1193 1 1083 1100
1194 1 1083 1102
1195 1 1084 1086
1196 1 1084 1089
1197 1 1084 1093
1198 1 1084 1098
1199 1 1084 1102
1200 1 1084 1103
1201 2 1086 1124
1202 2 1088 1128
1203 2 1089 1130
1204 2 1091 1134
1205 2 1093 1134
1206 2 1095 1130
1207 2 1098 1200
1208 2 1100 1052
1209 3 1106 680
1210 4 1106 1138
1211 3 1106 1195
1212 3 1108 1127
1213 4 1108 1140
1214 3 1108 1542
1215 3 1109 1129
1216 4 1109 1141
1217 3 1111 1133
1218 4 1111 1143
1219 3 1113 1119
1220 3 1113 1133
1221 4 1113 1145
1222 3 1115 253
1223 3 1115 1129
1224 4 1115 1147
1225 4 1118 1150
1226 3 1118 1199
1227 3 1120 1123
1228 4 1120 1152
1229 5 1127 1128
1230 5 1129 1130
1231 5 1133 1134
1232 1 1155 1103
1233 1 1155 1160
1234 1 1155 1163
1235 1 1155 1167
1236 1 1155 1172
1237 1 1155 1174
1238 2 1160 1200
1239 2 1163 1206
1240 2 1167 1202
1241 2 1172 1124
1242 3 1180 1199
1243 4 1180 1212
1244 3 1180 1614
1245 3 1183 1205
1246 4 1183 1215
1247 3 1187 325
1248 3 1187 1201
1249 4 1187 1219
1250 3 1192 1195
1251 4 1192 1224
1252 5 1195 1124
1253 5 1199 1200
1254 5 1201 1202
1255 5 907 1268
1256 1 1156 1158
1257 1 1156 1161
1258 1 1156 1165
1259 1 1156 1170
1260 1 1156 1174
1261 1 1156 1175
1262 2 1158 1196
1263 2 1161 1202
1264 2 1165 1206
1265 2 1170 1272
1266 3 1178 752
1267 4 1178 1210
1268 3 1178 1267
1269 3 1181 1201
1270 4 1181 1213
1271 3 1185 1191
1272 3 1185 1205
1273 4 1185 1217
1274 4 1190 1222
1275 3 1190 1271
1276 5 1205 1206
1277 1 1227 1175
1278 1 1227 1232
1279 1 1227 1235
1280 1 1227 1239
1281 1 1227 1244
1282 1 1227 1246
1283 1 1228 1230
1284 1 1228 1233
1285 1 1228 1237
1286 1 1228 1242
1287 1 1228 1246
1288 1 1228 1247
1289 2 1230 1268
1290 2 1232 1272
1291 2 1233 1274
1292 2 1235 1278
1293 2 1237 1278
1294 2 1239 1274
1295 2 1242 912
1296 2 1244 1196
1297 3 1250 824
1298 3 1250 907
1299 4 1250 1282
1300 3 1252 1271
1301 4 1252 1284
1302 3 1252 1686
1303 3 1253 1273
1304 4 1253 1285
1305 3 1255 1277
1306 4 1255 1287
1307 3 1257 1263
1308 3 1257 1277
1309 4 1257 1289
1310 3 1259 397
1311 3 1259 1273
1312 4 1259 1291
1313 3 1262 911
1314 4 1262 1294
1315 3 1264 1267
1316 4 1264 1296
1317 5 1267 1196
1318 5 1271 1272
1319 5 1273 1274
1320 5 1277 1278
1321 1 1299 1304
1322 1 1299 1307
1323 1 1299 1311
1324 1 1299 1316
1325 1 1299 1318
1326 1 1299 1679
1327 1 1300 1302
1328 1 1300 1305
1329 1 1300 1309
1330 1 1300 1314
1331 1 1300 1318
1332 1 1300 1319
1333 2 1302 1340
1334 2 1304 1344
1335 2 1305 1346
1336 2 1307 1350
1337 2 1309 1350
1338 2 1311 1346
1339 2 1314 1416
1340 2 1316 1700
1341 3 1322 32
1342 4 1322 1354
1343 3 1322 1411
1344 3 1324 894
1345 3 1324 1343
1346 4 1324 1356
1347 3 1325 1345
1348 4 1325 1357
1349 3 1327 1349
1350 4 1327 1359
1351 3 1329 1335
1352 3 1329 1349
1353 4 1329 1361
1354 3 1331 469
1355 3 1331 1345
1356 4 1331 1363
1357 4 1334 1366
1358 3 1334 1415
1359 3 1336 1339
1360 4 1336 1368
1361 5 1343 1344
1362 5 1345 1346
1363 5 1349 1350
1364 1 1371 1319
1365 1 1371 1376
1366 1 1371 1379
1367 1 1371 1383
1368 1 1371 1388
1369 1 1371 1390
1370 2 1376 1416
1371 2 1379 1422
1372 2 1383 1418
1373 2 1388 1340
1374 3 1396 966
1375 3 1396 1415
1376 4 1396 1428
1377 3 1399 1421
1378 4 1399 1431
1379 3 1403 541
1380 3 1403 1417
1381 4 1403 1435
1382 3 1408 1411
1383 4 1408 1440
1384 5 1411 1340
1385 5 1415 1416
1386 5 1417 1418
1387 1 1372 1374
1388 1 1372 1377
1389 1 1372 1381
1390 1 1372 1386
1391 1 1372 1390
1392 1 1372 1391
1393 2 1374 1412
1394 2 1377 1418
1395 2 1381 1422
1396 2 1386 1488
1397 3 1394 104
1398 4 1394 1426
1399 3 1394 1483
1400 3 1397 1417
1401 4 1397 1429
1402 3 1401 1407
1403 3 1401 1421
1404 4 1401 1433
1405 4 1406 1438
1406 3 1406 1487
1407 5 1421 1422
1408 1 1443 1391
1409 1 1443 1448
1410 1 1443 1451
1411 1 1443 1455
1412 1 1443 1460
1413 1 1443 1462
1414 1 1444 1446
1415 1 1444 1449
1416 1 1444 1453
1417 1 1444 1458
1418 1 1444 1462
1419 1 1444 1463
1420 2 1446 1484
1421 2 1448 1488
1422 2 1449 1490
1423 2 1451 1494
1424 2 1453 1494
1425 2 1455 1490
1426 2 1458 1560
1427 2 1460 1412
1428 3 1466 176
1429 4 1466 1498
1430 3 1466 1555
1431 3 1468 1038
1432 3 1468 1487
1433 4 1468 1500
1434 3 1469 1489
1435 4 1469 1501
1436 3 1471 1493
1437 4 1471 1503
1438 3 1473 1479
1439 3 1473 1493
1440 4 1473 1505
1441 3 1475 613
1442 3 1475 1489
1443 4 1475 1507
1444 4 1478 1510
1445 3 1478 1559
1446 3 1480 1483
1447 4 1480 1512
1448 5 1483 1412
1449 5 1487 1488
1450 5 1489 1490
1451 5 1493 1494
1452 5 1555 1484
1453 1 1515 1463
1454 1 1515 1520
1455 1 1515 1523
1456 1 1515 1527
1457 1 1515 1532
1458 1 1515 1534
1459 1 1516 1518
1460 1 1516 1521
1461 1 1516 1525
1462 1 1516 1530
1463 1 1516 1534
1464 1 1516 1535
1465 2 1518 1556
1466 2 1520 1560
1467 2 1521 1562
1468 2 1523 1566
1469 2 1525 1566
1470 2 1527 1562
1471 2 1530 1632
1472 2 1532 1484
1473 3 1538 248
1474 4 1538 1570
1475 3 1538 1627
1476 3 1540 1110
1477 3 1540 1559
1478 4 1540 1572
1479 3 1541 1561
1480 4 1541 1573
1481 3 1543 1565
1482 4 1543 1575
1483 3 1545 1551
1484 3 1545 1565
1485 4 1545 1577
1486 3 1547 685
1487 3 1547 1561
1488 4 1547 1579
1489 4 1550 1582
1490 3 1550 1631
1491 3 1552 1555
1492 4 1552 1584
1493 5 1559 1560
1494 5 1561 1562
1495 5 1565 1566
1496 1 1587 1535
1497 1 1587 1592
1498 1 1587 1595
1499 1 1587 1599
1500 1 1587 1604
1501 1 1587 1606
1502 2 1592 1632
1503 2 1595 1638
1504 2 1599 1634
1505 2 1604 1556
1506 3 1612 1182
1507 3 1612 1631
1508 4 1612 1644
1509 3 1615 1637
1510 4 1615 1647
1511 3 1619 757
1512 3 1619 1633
1513 4 1619 1651
1514 3 1624 1627
1515 4 1624 1656
1516 5 1627 1556
1517 5 1631 1632
1518 5 1633 1634
1519 5 1339 1700
1520 1 1588 1590
1521 1 1588 1593
1522 1 1588 1597
1523 1 1588 1602
1524 1 1588 1606
1525 1 1588 1607
1526 2 1590 1628
1527 2 1593 1634
1528 2 1597 1638
1529 2 1602 1704
1530 3 1610 320
1531 4 1610 1642
1532 3 1610 1699
1533 3 1613 1633
1534 4 1613 1645
1535 3 1617 1623
1536 3 1617 1637
1537 4 1617 1649
1538 4 1622 1654
1539 3 1622 1703
1540 5 1637 1638
1541 1 1659 1607
1542 1 1659 1664
1543 1 1659 1667
1544 1 1659 1671
1545 1 1659 1676
1546 1 1659 1678
1547 1 1660 1662
1548 1 1660 1665
1549 1 1660 1669
1550 1 1660 1674
1551 1 1660 1678
1552 1 1660 1679
1553 2 1662 1700
1554 2 1664 1704
1555 2 1665 1706
1556 2 1667 1710
1557 2 1669 1710
1558 2 1671 1706
1559 2 1674 1344
1560 2 1676 1628
1561 3 1682 392
1562 3 1682 1339
1563 4 1682 1714
1564 3 1684 1254
1565 3 1684 1703
1566 4 1684 1716
1567 3 1685 1705
1568 4 1685 1717
1569 3 1687 1709
1570 4 1687 1719
1571 3 1689 1695
1572 3 1689 1709
1573 4 1689 1721
1574 3 1691 829
1575 3 1691 1705
1576 4 1691 1723
1577 3 1694 1343
1578 4 1694 1726
1579 3 1696 1699
1580 4 1696 1728
1581 5 1699 1628
1582 5 1703 1704
1583 5 1705 1706
1584 5 1709 1710
1585 1 865 869
1586 1 865 874
1587 1 865 878
1588 1 865 881
1589 1 865 888
1590 1 865 1245
1591 1 866 871
1592 1 866 876
1593 1 866 880
1594 1 866 883
1595 1 866 885
1596 1 866 888
1597 2 869 906
1598 2 871 910
1599 2 874 1276
1600 2 876 992
1601 2 878 920
1602 2 880 916
1603 2 881 910
1604 2 883 906
1605 3 889 895
1606 3 889 905
1607 4 889 921
1608 3 891 29
1609 3 891 909
1610 4 891 923
1611 3 894 915
1612 4 894 926
1613 4 896 928
1614 3 896 991
1615 3 898 472
1616 3 898 919
1617 4 898 930
1618 4 900 932
1619 3 900 987
1620 3 900 1334
1621 3 901 909
1622 4 901 933
1623 3 903 905
1624 4 903 935
1625 5 905 906
1626 5 909 910
1627 5 919 920
1628 1 937 885
1629 1 937 941
1630 1 937 946
1631 1 937 950
1632 1 937 953
1633 1 937 960
1634 2 941 978
1635 2 946 916
1636 2 950 992
1637 2 953 982
1638 3 961 967
1639 3 961 977
1640 4 961 993
1641 3 966 987
1642 4 966 998
1643 3 970 544
1644 3 970 991
1645 4 970 1002
1646 3 973 981
1647 4 973 1005
1648 5 977 978
1649 5 987 916
1650 5 991 992
1651 1 938 943
1652 1 938 948
1653 1 938 952
1654 1 938 955
1655 1 938 957
1656 1 938 960
1657 2 943 982
1658 2 948 1064
1659 2 952 988
1660 2 955 978
1661 3 963 101
1662 3 963 981
1663 4 963 995
1664 4 968 1000
1665 3 968 1063
1666 4 972 1004
1667 3 972 1059
1668 3 972 1406
1669 3 975 977
1670 4 975 1007
1671 5 981 982
1672 1 1009 957
1673 1 1009 1013
1674 1 1009 1018
1675 1 1009 1022
1676 1 1009 1025
1677 1 1009 1032
1678 1 1010 1015
1679 1 1010 1020
1680 1 1010 1024
1681 1 1010 1027
1682 1 1010 1029
1683 1 1010 1032
1684 2 1013 1050
1685 2 1015 1054
1686 2 1018 988
1687 2 1020 1136
1688 2 1022 1064
1689 2 1024 1060
1690 2 1025 1054
1691 2 1027 1050
1692 3 1033 1039
1693 3 1033 1049
1694 4 1033 1065
1695 3 1035 173
1696 3 1035 1053
1697 4 1035 1067
1698 3 1038 1059
1699 4 1038 1070
1700 4 1040 1072
1701 3 1040 1135
1702 3 1042 616
1703 3 1042 1063
1704 4 1042 1074
1705 4 1044 1076
1706 3 1044 1131
1707 3 1044 1478
1708 3 1045 1053
1709 4 1045 1077
1710 3 1047 1049
1711 4 1047 1079
1712 5 1049 1050
1713 5 1053 1054
1714 5 1059 988
1715 5 1063 1064
1716 5 1131 1060
1717 1 1081 1029
1718 1 1081 1085
1719 1 1081 1090
1720 1 1081 1094
1721 1 1081 1097
1722 1 1081 1104
1723 1 1082 1087
1724 1 1082 1092
1725 1 1082 1096
1726 1 1082 1099
1727 1 1082 1101
1728 1 1082 1104
1729 2 1085 1122
1730 2 1087 1126
1731 2 1090 1060
1732 2 1092 1208
1733 2 1094 1136
1734 2 1096 1132
1735 2 1097 1126
1736 2 1099 1122
1737 3 1105 1111
1738 3 1105 1121
1739 4 1105 1137
1740 3 1107 245
1741 3 1107 1125
1742 4 1107 1139
1743 3 1110 1131
1744 4 1110 1142
1745 4 1112 1144
1746 3 1112 1207
1747 3 1114 688
1748 3 1114 1135
1749 4 1114 1146
1750 4 1116 1148
1751 3 1116 1203
1752 3 1116 1550
1753 3 1117 1125
1754 4 1117 1149
1755 3 1119 1121
1756 4 1119 1151
1757 5 1121 1122
1758 5 1125 1126
1759 5 1135 1136
1760 1 1153 1101
1761 1 1153 1157
1762 1 1153 1162
1763 1 1153 1166
1764 1 1153 1169
1765 1 1153 1176
1766 2 1157 1194
1767 2 1162 1132
1768 2 1166 1208
1769 2 1169 1198
1770 3 1177 1183
1771 3 1177 1193
1772 4 1177 1209
1773 3 1182 1203
1774 4 1182 1214
1775 3 1186 760
1776 3 1186 1207
1777 4 1186 1218
1778 3 1189 1197
1779 4 1189 1221
1780 5 1193 1194
1781 5 1203 1132
1782 5 1207 1208
1783 5 915 1276
1784 1 1154 1159
1785 1 1154 1164
1786 1 1154 1168
1787 1 1154 1171
1788 1 1154 1173
1789 1 1154 1176
1790 2 1159 1198
1791 2 1164 1280
1792 2 1168 1204
1793 2 1171 1194
1794 3 1179 317
1795 3 1179 1197
1796 4 1179 1211
1797 4 1184 1216
1798 3 1184 1279
1799 4 1188 1220
1800 3 1188 1275
1801 3 1188 1622
1802 3 1191 1193
1803 4 1191 1223
1804 5 1197 1198
1805 1 1225 1173
1806 1 1225 1229
1807 1 1225 1234
1808 1 1225 1238
1809 1 1225 1241
1810 1 1225 1248
1811 1 1226 1231
1812 1 1226 1236
1813 1 1226 1240
1814 1 1226 1243
1815 1 1226 1245
1816 1 1226 1248
1817 2 1229 1266
1818 2 1231 1270
1819 2 1234 1204
1820 2 1236 920
1821 2 1238 1280
1822 2 1240 1276
1823 2 1241 1270
1824 2 1243 1266
1825 3 1249 1255
1826 3 1249 1265
1827 4 1249 1281
1828 3 1251 389
1829 3 1251 1269
1830 4 1251 1283
1831 3 1254 1275
1832 4 1254 1286
1833 3 1256 919
1834 4 1256 1288
1835 3 1258 832
1836 3 1258 1279
1837 4 1258 1290
1838 3 1260 915
1839 4 1260 1292
1840 3 1260 1694
1841 3 1261 1269
1842 4 1261 1293
1843 3 1263 1265
1844 4 1263 1295
1845 5 1265 1266
1846 5 1269 1270
1847 5 1275 1204
1848 5 1279 1280
1849 1 1297 1301
1850 1 1297 1306
1851 1 1297 1310
1852 1 1297 1313
1853 1 1297 1320
1854 1 1297 1677
1855 1 1298 1303
1856 1 1298 1308
1857 1 1298 1312
1858 1 1298 1315
1859 1 1298 1317
1860 1 1298 1320
1861 2 1301 1338
1862 2 1303 1342
1863 2 1306 1708
1864 2 1308 1424
1865 2 1310 1352
1866 2 1312 1348
1867 2 1313 1342
1868 2 1315 1338
1869 3 1321 1327
1870 3 1321 1337
1871 4 1321 1353
1872 3 1323 461
1873 3 1323 1341
1874 4 1323 1355
1875 3 1326 1347
1876 4 1326 1358
1877 4 1328 1360
1878 3 1328 1423
1879 3 1330 40
1880 3 1330 1351
1881 4 1330 1362
1882 3 1332 902
1883 4 1332 1364
1884 3 1332 1419
1885 3 1333 1341
1886 4 1333 1365
1887 3 1335 1337
1888 4 1335 1367
1889 5 1337 1338
1890 5 1341 1342
1891 5 1351 1352
1892 1 1369 1317
1893 1 1369 1373
1894 1 1369 1378
1895 1 1369 1382
1896 1 1369 1385
1897 1 1369 1392
1898 2 1373 1410
1899 2 1378 1348
1900 2 1382 1424
1901 2 1385 1414
1902 3 1393 1399
1903 3 1393 1409
1904 4 1393 1425
1905 3 1398 1419
1906 4 1398 1430
1907 3 1402 112
1908 3 1402 1423
1909 4 1402 1434
1910 3 1405 1413
1911 4 1405 1437
1912 5 1409 1410
1913 5 1419 1348
1914 5 1423 1424
1915 1 1370 1375
1916 1 1370 1380
1917 1 1370 1384
1918 1 1370 1387
1919 1 1370 1389
1920 1 1370 1392
1921 2 1375 1414
1922 2 1380 1496
1923 2 1384 1420
1924 2 1387 1410
1925 3 1395 533
1926 3 1395 1413
1927 4 1395 1427
1928 4 1400 1432
1929 3 1400 1495
1930 3 1404 974
1931 4 1404 1436
1932 3 1404 1491
1933 3 1407 1409
1934 4 1407 1439
1935 5 1413 1414
1936 1 1441 1389
1937 1 1441 1445
1938 1 1441 1450
1939 1 1441 1454
1940 1 1441 1457
1941 1 1441 1464
1942 1 1442 1447
1943 1 1442 1452
1944 1 1442 1456
1945 1 1442 1459
1946 1 1442 1461
1947 1 1442 1464
1948 2 1445 1482
1949 2 1447 1486
1950 2 1450 1420
1951 2 1452 1568
1952 2 1454 1496
1953 2 1456 1492
1954 2 1457 1486
1955 2 1459 1482
1956 3 1465 1471
1957 3 1465 1481
1958 4 1465 1497
1959 3 1467 605
1960 3 1467 1485
1961 4 1467 1499
1962 3 1470 1491
1963 4 1470 1502
1964 4 1472 1504
1965 3 1472 1567
1966 3 1474 184
1967 3 1474 1495
1968 4 1474 1506
1969 3 1476 1046
1970 4 1476 1508
1971 3 1476 1563
1972 3 1477 1485
1973 4 1477 1509
1974 3 1479 1481
1975 4 1479 1511
1976 5 1481 1482
1977 5 1485 1486
1978 5 1491 1420
1979 5 1495 1496
1980 5 1563 1492
1981 1 1513 1461
1982 1 1513 1517
1983 1 1513 1522
1984 1 1513 1526
1985 1 1513 1529
1986 1 1513 1536
1987 1 1514 1519
1988 1 1514 1524
1989 1 1514 1528
1990 1 1514 1531
1991 1 1514 1533
1992 1 1514 1536
1993 2 1517 1554
1994 2 1519 1558
1995 2 1522 1492
1996 2 1524 1640
1997 2 1526 1568
1998 2 1528 1564
1999 2 1529 1558
2000 2 1531 1554
2001 3 1537 1543
2002 3 1537 1553
2003 4 1537 1569
2004 3 1539 677
2005 3 1539 1557
2006 4 1539 1571
2007 3 1542 1563
2008 4 1542 1574
2009 4 1544 1576
2010 3 1544 1639
2011 3 1546 256
2012 3 1546 1567
2013 4 1546 1578
2014 3 1548 1118
2015 4 1548 1580
2016 3 1548 1635
2017 3 1549 1557
2018 4 1549 1581
2019 3 1551 1553
2020 4 1551 1583
2021 5 1553 1554
2022 5 1557 1558
2023 5 1567 1568
2024 1 1585 1533
2025 1 1585 1589
2026 1 1585 1594
2027 1 1585 1598
2028 1 1585 1601
2029 1 1585 1608
2030 2 1589 1626
2031 2 1594 1564
2032 2 1598 1640
2033 2 1601 1630
2034 3 1609 1615
2035 3 1609 1625
2036 4 1609 1641
2037 3 1614 1635
2038 4 1614 1646
2039 3 1618 328
2040 3 1618 1639
2041 4 1618 1650
2042 3 1621 1629
2043 4 1621 1653
2044 5 1625 1626
2045 5 1635 1564
2046 5 1639 1640
2047 5 1347 1708
2048 1 1586 1591
2049 1 1586 1596
2050 1 1586 1600
2051 1 1586 1603
2052 1 1586 1605
2053 1 1586 1608
2054 2 1591 1630
2055 2 1596 1712
2056 2 1600 1636
2057 2 1603 1626
2058 3 1611 749
2059 3 1611 1629
2060 4 1611 1643
2061 4 1616 1648
2062 3 1616 1711
2063 3 1620 1190
2064 4 1620 1652
2065 3 1620 1707
2066 3 1623 1625
2067 4 1623 1655
2068 5 1629 1630
2069 1 1657 1605
2070 1 1657 1661
2071 1 1657 1666
2072 1 1657 1670
2073 1 1657 1673
2074 1 1657 1680
2075 1 1658 1663
2076 1 1658 1668
2077 1 1658 1672
2078 1 1658 1675
2079 1 1658 1677
2080 1 1658 1680
2081 2 1661 1698
2082 2 1663 1702
2083 2 1666 1636
2084 2 1668 1352
2085 2 1670 1712
2086 2 1672 1708
2087 2 1673 1702
2088 2 1675 1698
2089 3 1681 1687
2090 3 1681 1697
2091 4 1681 1713
2092 3 1683 821
2093 3 1683 1701
2094 4 1683 1715
2095 3 1686 1707
2096 4 1686 1718
2097 3 1688 1351
2098 4 1688 1720
2099 3 1690 400
2100 3 1690 1711
2101 4 1690 1722
2102 3 1692 1262
2103 3 1692 1347
2104 4 1692 1724
2105 3 1693 1701
2106 4 1693 1725
2107 3 1695 1697
2108 4 1695 1727
2109 5 1697 1698
2110 5 1701 1702
2111 5 1707 1636
2112 5 1711 1712

Angles

1 1 8 3 11
2 1 8 3 15
3 1 8 3 20
4 1 8 3 22
5 1 8 3 383
6 1 11 3 15
7 1 11 3 20
8 1 11 3 22
9 1 11 3 383
10 1 15 3 20
11 1 15 3 22
12 1 15 3 383
13 1 20 3 22
14 1 20 3 383
15 1 22 3 383
16 1 6 4 9
17 1 6 4 13
18 1 6 4 18
19 1 6 4 22
20 1 6 4 23
21 1 9 4 13
22 1 9 4 18
23 1 9 4 22
24 1 9 4 23
25 1 13 4 18
26 1 13 4 22
27 1 13 4 23
28 1 18 4 22
29 1 18 4 23
30 1 22 4 23
31 2 4 6 44
32 2 3 8 48
33 2 4 9 50
34 2 3 11 54
35 2 4 13 54
36 2 3 15 50
37 2 4 18 120
38 2 3 20 404
39 3 3 22 4
40 3 75 23 4
41 4 1328 26 115
42 5 1328 26 58
43 5 115 26 58
44 4 462 28 47
45 5 462 28 60
46 5 47 28 60
47 4 891 29 49
48 5 891 29 61
49 5 49 29 61
50 4 25 31 53
51 5 25 31 63
52 5 53 31 63
53 4 39 33 53
54 5 39 33 65
55 5 53 33 65
56 4 901 35 49
57 5 901 35 67
58 5 49 35 67
59 4 468 38 119
60 5 468 38 70
61 5 119 38 70
62 4 1330 40 43
63 5 1330 40 72
64 5 43 40 72
65 7 6 44 92
66 8 6 44 115
67 8 92 44 115
68 4 28 47 398
69 6 28 47 48
70 6 398 47 48
71 7 8 48 378
72 8 8 48 47
73 8 378 48 47
74 4 29 49 35
75 6 29 49 50
76 6 35 49 50
77 7 9 50 15
78 8 9 50 49
79 8 15 50 49
80 4 31 53 33
81 6 31 53 54
82 6 33 53 54
83 7 11 54 13
84 8 11 54 53
85 8 13 54 53
86 1 80 75 83
87 1 80 75 87
88 1 80 75 92
89 1 80 75 94
90 1 80 75 23
91 1 83 75 87
92 1 83 75 92
93 1 83 75 94
94 1 83 75 23
95 1 87 75 92
96 1 87 75 94
97 1 87 75 23
98 1 92 75 94
99 1 92 75 23
100 1 94 75 23
101 2 75 80 120
102 2 75 83 126
103 2 75 87 122
104 2 75 92 44
105 3 75 94 76
106 4 534 100 119
107 5 534 100 132
108 5 119 100 132
109 4 97 103 125
110 5 97 103 135
111 5 125 103 135
112 4 973 107 121
113 5 973 107 139
114 5 121 107 139
115 4 1402 112 115
116 5 1402 112 144
117 5 115 112 144
118 4 26 115 112
119 6 26 115 44
120 6 112 115 44
121 4 100 119 38
122 6 100 119 120
123 6 38 119 120
124 7 80 120 18
125 8 80 120 119
126 8 18 120 119
127 4 101 121 107
128 6 101 121 122
129 6 107 121 122
130 7 81 122 87
131 8 81 122 121
132 8 87 122 121
133 1 78 76 81
134 1 78 76 85
135 1 78 76 90
136 1 78 76 94
137 1 78 76 95
138 1 81 76 85
139 1 81 76 90
140 1 81 76 94
141 1 81 76 95
142 1 85 76 90
143 1 85 76 94
144 1 85 76 95
145 1 90 76 94
146 1 90 76 95
147 1 94 76 95
148 2 76 78 116
149 2 76 81 122
150 2 76 85 126
151 2 76 90 192
152 3 147 95 76
153 4 1400 98 187
154 5 1400 98 130
155 5 187 98 130
156 4 963 101 121
157 5 963 101 133
158 5 121 101 133
159 4 111 105 125
160 5 111 105 137
161 5 125 105 137
162 4 540 110 191
163 5 540 110 142
164 5 191 110 142
165 7 78 116 164
166 8 78 116 187
167 8 164 116 187
168 4 103 125 105
169 6 103 125 126
170 6 105 125 126
171 7 83 126 85
172 8 83 126 125
173 8 85 126 125
174 1 152 147 155
175 1 152 147 159
176 1 152 147 164
177 1 152 147 166
178 1 152 147 95
179 1 155 147 159
180 1 155 147 164
181 1 155 147 166
182 1 155 147 95
183 1 159 147 164
184 1 159 147 166
185 1 159 147 95
186 1 164 147 166
187 1 164 147 95
188 1 166 147 95
189 1 150 148 153
190 1 150 148 157
191 1 150 148 162
192 1 150 148 166
193 1 150 148 167
194 1 153 148 157
195 1 153 148 162
196 1 153 148 166
197 1 153 148 167
198 1 157 148 162
199 1 157 148 166
200 1 157 148 167
201 1 162 148 166
202 1 162 148 167
203 1 166 148 167
204 2 148 150 188
205 2 147 152 192
206 2 148 153 194
207 2 147 155 198
208 2 148 157 198
209 2 147 159 194
210 2 148 162 264
211 2 147 164 116
212 3 147 166 148
213 3 219 167 148
214 4 1472 170 259
215 5 1472 170 202
216 5 259 170 202
217 4 606 172 191
218 5 606 172 204
219 5 191 172 204
220 4 1035 173 193
221 5 1035 173 205
222 5 193 173 205
223 4 169 175 197
224 5 169 175 207
225 5 197 175 207
226 4 183 177 197
227 5 183 177 209
228 5 197 177 209
229 4 1045 179 193
230 5 1045 179 211
231 5 193 179 211
232 4 612 182 263
233 5 612 182 214
234 5 263 182 214
235 4 1474 184 187
236 5 1474 184 216
237 5 187 184 216
238 4 98 187 184
239 6 98 187 116
240 6 184 187 116
241 7 150 188 236
242 8 150 188 259
243 8 236 188 259
244 4 172 191 110
245 6 172 191 192
246 6 110 191 192
247 7 152 192 90
248 8 152 192 191
249 8 90 192 191
250 4 173 193 179
251 6 173 193 194
252 6 179 193 194
253 7 153 194 159
254 8 153 194 193
255 8 159 194 193
256 4 175 197 177
257 6 175 197 198
258 6 177 197 198
259 7 155 198 157
260 8 155 198 197
261 8 157 198 197
262 4 170 259 256
263 6 170 259 188
264 6 256 259 188
265 1 224 219 227
266 1 224 219 231
267 1 224 219 236
268 1 224 219 238
269 1 224 219 167
270 1 227 219 231
271 1 227 219 236
272 1 227 219 238
273 1 227 219 167
274 1 231 219 236
275 1 231 219 238
276 1 231 219 167
277 1 236 219 238
278 1 236 219 167
279 1 238 219 167
280 1 222 220 225
281 1 222 220 229
282 1 222 220 234
283 1 222 220 238
284 1 222 220 239
285 1 225 220 229
286 1 225 220 234
287 1 225 220 238
288 1 225 220 239
289 1 229 220 234
290 1 229 220 238
291 1 229 220 239
292 1 234 220 238
293 1 234 220 239
294 1 238 220 239
295 2 220 222 260
296 2 219 224 264
297 2 220 225 266
298 2 219 227 270
299 2 220 229 270
300 2 219 231 266
301 2 220 234 336
302 2 219 236 188
303 3 219 238 220
304 3 291 239 220
305 4 1544 242 331
306 5 1544 242 274
307 5 331 242 274
308 4 678 244 263
309 5 678 244 276
310 5 263 244 276
311 4 1107 245 265
312 5 1107 245 277
313 5 265 245 277
314 4 241 247 269
315 5 241 247 279
316 5 269 247 279
317 4 255 249 269
318 5 255 249 281
319 5 269 249 281
320 4 1117 251 265
321 5 1117 251 283
322 5 265 251 283
323 4 684 254 335
324 5 684 254 286
325 5 335 254 286
326 4 1546 256 259
327 5 1546 256 288
328 5 259 256 288
329 7 222 260 308
330 8 222 260 331
331 8 308 260 331
332 4 244 263 182
333 6 244 263 264
334 6 182 263 264
335 7 224 264 162
336 8 224 264 263
337 8 162 264 263
338 4 245 265 251
339 6 245 265 266
340 6 251 265 266
341 7 225 266 231
342 8 225 266 265
343 8 231 266 265
344 4 247 269 249
345 6 247 269 270
346 6 249 269 270
347 7 227 270 229
348 8 227 270 269
349 8 229 270 269
350 1 296 291 299
351 1 296 291 303
352 1 296 291 308
353 1 296 291 310
354 1 296 291 239
355 1 299 291 303
356 1 299 291 308
357 1 299 291 310
358 1 299 291 239
359 1 303 291 308
360 1 303 291 310
361 1 303 291 239
362 1 308 291 310
363 1 308 291 239
364 1 310 291 239
365 2 291 296 336
366 2 291 299 342
367 2 291 303 338
368 2 291 308 260
369 3 291 310 292
370 4 750 316 335
371 5 750 316 348
372 5 335 316 348
373 4 313 319 341
374 5 313 319 351
375 5 341 319 351
376 4 1189 323 337
377 5 1189 323 355
378 5 337 323 355
379 4 1618 328 331
380 5 1618 328 360
381 5 331 328 360
382 4 242 331 328
383 6 242 331 260
384 6 328 331 260
385 4 316 335 254
386 6 316 335 336
387 6 254 335 336
388 7 296 336 234
389 8 296 336 335
390 8 234 336 335
391 4 317 337 323
392 6 317 337 338
393 6 323 337 338
394 7 297 338 303
395 8 297 338 337
396 8 303 338 337
397 4 386 43 40
398 6 386 43 404
399 6 40 43 404
400 1 294 292 297
401 1 294 292 301
402 1 294 292 306
403 1 294 292 310
404 1 294 292 311
405 1 297 292 301
406 1 297 292 306
407 1 297 292 310
408 1 297 292 311
409 1 301 292 306
410 1 301 292 310
411 1 301 292 311
412 1 306 292 310
413 1 306 292 311
414 1 310 292 311
415 2 292 294 332
416 2 292 297 338
417 2 292 301 342
418 2 292 306 408
419 3 363 311 292
420 4 1616 314 403
421 5 1616 314 346
422 5 403 314 346
423 4 1179 317 337
424 5 1179 317 349
425 5 337 317 349
426 4 327 321 341
427 5 327 321 353
428 5 341 321 353
429 4 756 326 407
430 5 756 326 358
431 5 407 326 358
432 7 294 332 380
433 8 294 332 403
434 8 380 332 403
435 4 319 341 321
436 6 319 341 342
437 6 321 341 342
438 7 299 342 301
439 8 299 342 341
440 8 301 342 341
441 1 368 363 371
442 1 368 363 375
443 1 368 363 380
444 1 368 363 382
445 1 368 363 311
446 1 371 363 375
447 1 371 363 380
448 1 371 363 382
449 1 371 363 311
450 1 375 363 380
451 1 375 363 382
452 1 375 363 311
453 1 380 363 382
454 1 380 363 311
455 1 382 363 311
456 1 366 364 369
457 1 366 364 373
458 1 366 364 378
459 1 366 364 382
460 1 366 364 383
461 1 369 364 373
462 1 369 364 378
463 1 369 364 382
464 1 369 364 383
465 1 373 364 378
466 1 373 364 382
467 1 373 364 383
468 1 378 364 382
469 1 378 364 383
470 1 382 364 383
471 2 364 366 404
472 2 363 368 408
473 2 364 369 410
474 2 363 371 414
475 2 364 373 414
476 2 363 375 410
477 2 364 378 48
478 2 363 380 332
479 3 363 382 364
480 3 3 383 364
481 4 1688 386 43
482 5 1688 386 418
483 5 43 386 418
484 4 822 388 407
485 5 822 388 420
486 5 407 388 420
487 4 1251 389 409
488 5 1251 389 421
489 5 409 389 421
490 4 385 391 413
491 5 385 391 423
492 5 413 391 423
493 4 399 393 413
494 5 399 393 425
495 5 413 393 425
496 4 1261 395 409
497 5 1261 395 427
498 5 409 395 427
499 4 828 398 47
500 5 828 398 430
501 5 47 398 430
502 4 1690 400 403
503 5 1690 400 432
504 5 403 400 432
505 4 314 403 400
506 6 314 403 332
507 6 400 403 332
508 7 366 404 20
509 8 366 404 43
510 8 20 404 43
511 4 388 407 326
512 6 388 407 408
513 6 326 407 408
514 7 368 408 306
515 8 368 408 407
516 8 306 408 407
517 4 389 409 395
518 6 389 409 410
519 6 395 409 410
520 7 369 410 375
521 8 369 410 409
522 8 375 410 409
523 4 391 413 393
524 6 391 413 414
525 6 393 413 414
526 7 371 414 373
527 8 371 414 413
528 8 373 414 413
529 1 440 435 443
530 1 440 435 447
531 1 440 435 452
532 1 440 435 454
533 1 440 435 815
534 1 443 435 447
535 1 443 435 452
536 1 443 435 454
537 1 443 435 815
538 1 447 435 452
539 1 447 435 454
540 1 447 435 815
541 1 452 435 454
542 1 452 435 815
543 1 454 435 815
544 1 438 436 441
545 1 438 436 445
546 1 438 436 450
547 1 438 436 454
548 1 438 436 455
549 1 441 436 445
550 1 441 436 450
551 1 441 436 454
552 1 441 436 455
553 1 445 436 450
554 1 445 436 454
555 1 445 436 455
556 1 450 436 454
557 1 450 436 455
558 1 454 436 455
559 2 436 438 476
560 2 435 440 480
561 2 436 441 482
562 2 435 443 486
563 2 436 445 486
564 2 435 447 482
565 2 436 450 552
566 2 435 452 836
567 3 435 454 436
568 3 507 455 436
569 4 896 458 547
570 5 896 458 490
571 5 547 458 490
572 4 30 460 479
573 5 30 460 492
574 5 479 460 492
575 4 1323 461 481
576 5 1323 461 493
577 5 481 461 493
578 4 457 463 485
579 5 457 463 495
580 5 485 463 495
581 4 471 465 485
582 5 471 465 497
583 5 485 465 497
584 4 1333 467 481
585 5 1333 467 499
586 5 481 467 499
587 4 36 470 551
588 5 36 470 502
589 5 551 470 502
590 4 898 472 475
591 5 898 472 504
592 5 475 472 504
593 7 438 476 524
594 8 438 476 547
595 8 524 476 547
596 4 460 479 830
597 6 460 479 480
598 6 830 479 480
599 7 440 480 810
600 8 440 480 479
601 8 810 480 479
602 4 461 481 467
603 6 461 481 482
604 6 467 481 482
605 7 441 482 447
606 8 441 482 481
607 8 447 482 481
608 4 463 485 465
609 6 463 485 486
610 6 465 485 486
611 7 443 486 445
612 8 443 486 485
613 8 445 486 485
614 1 512 507 515
615 1 512 507 519
616 1 512 507 524
617 1 512 507 526
618 1 512 507 455
619 1 515 507 519
620 1 515 507 524
621 1 515 507 526
622 1 515 507 455
623 1 519 507 524
624 1 519 507 526
625 1 519 507 455
626 1 524 507 526
627 1 524 507 455
628 1 526 507 455
629 2 507 512 552
630 2 507 515 558
631 2 507 519 554
632 2 507 524 476
633 3 507 526 508
634 4 102 532 551
635 5 102 532 564
636 5 551 532 564
637 4 529 535 557
638 5 529 535 567
639 5 557 535 567
640 4 1405 539 553
641 5 1405 539 571
642 5 553 539 571
643 4 970 544 547
644 5 970 544 576
645 5 547 544 576
646 4 458 547 544
647 6 458 547 476
648 6 544 547 476
649 4 532 551 470
650 6 532 551 552
651 6 470 551 552
652 7 512 552 450
653 8 512 552 551
654 8 450 552 551
655 4 533 553 539
656 6 533 553 554
657 6 539 553 554
658 7 513 554 519
659 8 513 554 553
660 8 519 554 553
661 1 510 508 513
662 1 510 508 517
663 1 510 508 522
664 1 510 508 526
665 1 510 508 527
666 1 513 508 517
667 1 513 508 522
668 1 513 508 526
669 1 513 508 527
670 1 517 508 522
671 1 517 508 526
672 1 517 508 527
673 1 522 508 526
674 1 522 508 527
675 1 526 508 527
676 2 508 510 548
677 2 508 513 554
678 2 508 517 558
679 2 508 522 624
680 3 579 527 508
681 4 968 530 619
682 5 968 530 562
683 5 619 530 562
684 4 1395 533 553
685 5 1395 533 565
686 5 553 533 565
687 4 543 537 557
688 5 543 537 569
689 5 557 537 569
690 4 108 542 623
691 5 108 542 574
692 5 623 542 574
693 7 510 548 596
694 8 510 548 619
695 8 596 548 619
696 4 535 557 537
697 6 535 557 558
698 6 537 557 558
699 7 515 558 517
700 8 515 558 557
701 8 517 558 557
702 1 584 579 587
703 1 584 579 591
704 1 584 579 596
705 1 584 579 598
706 1 584 579 527
707 1 587 579 591
708 1 587 579 596
709 1 587 579 598
710 1 587 579 527
711 1 591 579 596
712 1 591 579 598
713 1 591 579 527
714 1 596 579 598
715 1 596 579 527
716 1 598 579 527
717 1 582 580 585
718 1 582 580 589
719 1 582 580 594
720 1 582 580 598
721 1 582 580 599
722 1 585 580 589
723 1 585 580 594
724 1 585 580 598
725 1 585 580 599
726 1 589 580 594
727 1 589 580 598
728 1 589 580 599
729 1 594 580 598
730 1 594 580 599
731 1 598 580 599
732 2 580 582 620
733 2 579 584 624
734 2 580 585 626
735 2 579 587 630
736 2 580 589 630
737 2 579 591 626
738 2 580 594 696
739 2 579 596 548
740 3 579 598 580
741 3 651 599 580
742 4 1040 602 691
743 5 1040 602 634
744 5 691 602 634
745 4 174 604 623
746 5 174 604 636
747 5 623 604 636
748 4 1467 605 625
749 5 1467 605 637
750 5 625 605 637
751 4 601 607 629
752 5 601 607 639
753 5 629 607 639
754 4 615 609 629
755 5 615 609 641
756 5 629 609 641
757 4 1477 611 625
758 5 1477 611 643
759 5 625 611 643
760 4 180 614 695
761 5 180 614 646
762 5 695 614 646
763 4 1042 616 619
764 5 1042 616 648
765 5 619 616 648
766 4 530 619 616
767 6 530 619 548
768 6 616 619 548
769 7 582 620 668
770 8 582 620 691
771 8 668 620 691
772 4 604 623 542
773 6 604 623 624
774 6 542 623 624
775 7 584 624 522
776 8 584 624 623
777 8 522 624 623
778 4 605 625 611
779 6 605 625 626
780 6 611 625 626
781 7 585 626 591
782 8 585 626 625
783 8 591 626 625
784 4 607 629 609
785 6 607 629 630
786 6 609 629 630
787 7 587 630 589
788 8 587 630 629
789 8 589 630 629
790 4 602 691 688
791 6 602 691 620
792 6 688 691 620
793 1 656 651 659
794 1 656 651 663
795 1 656 651 668
796 1 656 651 670
797 1 656 651 599
798 1 659 651 663
799 1 659 651 668
800 1 659 651 670
801 1 659 651 599
802 1 663 651 668
803 1 663 651 670
804 1 663 651 599
805 1 668 651 670
806 1 668 651 599
807 1 670 651 599
808 1 654 652 657
809 1 654 652 661
810 1 654 652 666
811 1 654 652 670
812 1 654 652 671
813 1 657 652 661
814 1 657 652 666
815 1 657 652 670
816 1 657 652 671
817 1 661 652 666
818 1 661 652 670
819 1 661 652 671
820 1 666 652 670
821 1 666 652 671
822 1 670 652 671
823 2 652 654 692
824 2 651 656 696
825 2 652 657 698
826 2 651 659 702
827 2 652 661 702
828 2 651 663 698
829 2 652 666 768
830 2 651 668 620
831 3 651 670 652
832 3 723 671 652
833 4 1112 674 763
834 5 1112 674 706
835 5 763 674 706
836 4 246 676 695
837 5 246 676 708
838 5 695 676 708
839 4 1539 677 697
840 5 1539 677 709
841 5 697 677 709
842 4 673 679 701
843 5 673 679 711
844 5 701 679 711
845 4 687 681 701
846 5 687 681 713
847 5 701 681 713
848 4 1549 683 697
849 5 1549 683 715
850 5 697 683 715
851 4 252 686 767
852 5 252 686 718
853 5 767 686 718
854 4 1114 688 691
855 5 1114 688 720
856 5 691 688 720
857 7 654 692 740
858 8 654 692 763
859 8 740 692 763
860 4 676 695 614
861 6 676 695 696
862 6 614 695 696
863 7 656 696 594
864 8 656 696 695
865 8 594 696 695
866 4 677 697 683
867 6 677 697 698
868 6 683 697 698
869 7 657 698 663
870 8 657 698 697
871 8 663 698 697
872 4 679 701 681
873 6 679 701 702
874 6 681 701 702
875 7 659 702 661
876 8 659 702 701
877 8 661 702 701
878 1 728 723 731
879 1 728 723 735
880 1 728 723 740
881 1 728 723 742
882 1 728 723 671
883 1 731 723 735
884 1 731 723 740
885 1 731 723 742
886 1 731 723 671
887 1 735 723 740
888 1 735 723 742
889 1 735 723 671
890 1 740 723 742
891 1 740 723 671
892 1 742 723 671
893 2 723 728 768
894 2 723 731 774
895 2 723 735 770
896 2 723 740 692
897 3 723 742 724
898 4 318 748 767
899 5 318 748 780
900 5 767 748 780
901 4 745 751 773
902 5 745 751 783
903 5 773 751 783
904 4 1621 755 769
905 5 1621 755 787
906 5 769 755 787
907 4 1186 760 763
908 5 1186 760 792
909 5 763 760 792
910 4 674 763 760
911 6 674 763 692
912 6 760 763 692
913 4 748 767 686
914 6 748 767 768
915 6 686 767 768
916 7 728 768 666
917 8 728 768 767
918 8 666 768 767
919 4 749 769 755
920 6 749 769 770
921 6 755 769 770
922 7 729 770 735
923 8 729 770 769
924 8 735 770 769
925 4 818 475 472
926 6 818 475 836
927 6 472 475 836
928 1 726 724 729
929 1 726 724 733
930 1 726 724 738
931 1 726 724 742
932 1 726 724 743
933 1 729 724 733
934 1 729 724 738
935 1 729 724 742
936 1 729 724 743
937 1 733 724 738
938 1 733 724 742
939 1 733 724 743
940 1 738 724 742
941 1 738 724 743
942 1 742 724 743
943 2 724 726 764
944 2 724 729 770
945 2 724 733 774
946 2 724 738 840
947 3 795 743 724
948 4 1184 746 835
949 5 1184 746 778
950 5 835 746 778
951 4 1611 749 769
952 5 1611 749 781
953 5 769 749 781
954 4 759 753 773
955 5 759 753 785
956 5 773 753 785
957 4 324 758 839
958 5 324 758 790
959 5 839 758 790
960 7 726 764 812
961 8 726 764 835
962 8 812 764 835
963 4 751 773 753
964 6 751 773 774
965 6 753 773 774
966 7 731 774 733
967 8 731 774 773
968 8 733 774 773
969 1 800 795 803
970 1 800 795 807
971 1 800 795 812
972 1 800 795 814
973 1 800 795 743
974 1 803 795 807
975 1 803 795 812
976 1 803 795 814
977 1 803 795 743
978 1 807 795 812
979 1 807 795 814
980 1 807 795 743
981 1 812 795 814
982 1 812 795 743
983 1 814 795 743
984 1 798 796 801
985 1 798 796 805
986 1 798 796 810
987 1 798 796 814
988 1 798 796 815
989 1 801 796 805
990 1 801 796 810
991 1 801 796 814
992 1 801 796 815
993 1 805 796 810
994 1 805 796 814
995 1 805 796 815
996 1 810 796 814
997 1 810 796 815
998 1 814 796 815
999 2 796 798 836
1000 2 795 800 840
1001 2 796 801 842
1002 2 795 803 846
1003 2 796 805 846
1004 2 795 807 842
1005 2 796 810 480
1006 2 795 812 764
1007 3 795 814 796
1008 3 435 815 796
1009 4 1256 818 475
1010 5 1256 818 850
1011 5 475 818 850
1012 4 390 820 839
1013 5 390 820 852
1014 5 839 820 852
1015 4 1683 821 841
1016 5 1683 821 853
1017 5 841 821 853
1018 4 817 823 845
1019 5 817 823 855
1020 5 845 823 855
1021 4 831 825 845
1022 5 831 825 857
1023 5 845 825 857
1024 4 1693 827 841
1025 5 1693 827 859
1026 5 841 827 859
1027 4 396 830 479
1028 5 396 830 862
1029 5 479 830 862
1030 4 1258 832 835
1031 5 1258 832 864
1032 5 835 832 864
1033 4 746 835 832
1034 6 746 835 764
1035 6 832 835 764
1036 7 798 836 452
1037 8 798 836 475
1038 8 452 836 475
1039 4 820 839 758
1040 6 820 839 840
1041 6 758 839 840
1042 7 800 840 738
1043 8 800 840 839
1044 8 738 840 839
1045 4 821 841 827
1046 6 821 841 842
1047 6 827 841 842
1048 7 801 842 807
1049 8 801 842 841
1050 8 807 842 841
1051 4 823 845 825
1052 6 823 845 846
1053 6 825 845 846
1054 7 803 846 805
1055 8 803 846 845
1056 8 805 846 845
1057 1 5 1 10
1058 1 5 1 14
1059 1 5 1 17
1060 1 5 1 381
1061 1 5 1 24
1062 1 10 1 14
1063 1 10 1 17
1064 1 10 1 381
1065 1 10 1 24
1066 1 14 1 17
1067 1 14 1 381
1068 1 14 1 24
1069 1 17 1 381
1070 1 17 1 24
1071 1 381 1 24
1072 1 7 2 12
1073 1 7 2 16
1074 1 7 2 19
1075 1 7 2 21
1076 1 7 2 24
1077 1 12 2 16
1078 1 12 2 19
1079 1 12 2 21
1080 1 12 2 24
1081 1 16 2 19
1082 1 16 2 21
1083 1 16 2 24
1084 1 19 2 21
1085 1 19 2 24
1086 1 21 2 24
1087 2 1 5 42
1088 2 2 7 46
1089 2 1 10 412
1090 2 2 12 128
1091 2 1 14 56
1092 2 2 16 52
1093 2 1 17 46
1094 2 2 19 42
1095 3 73 21 2
1096 3 1 24 2
1097 4 31 25 41
1098 5 31 25 57
1099 5 41 25 57
1100 4 893 27 45
1101 5 893 27 59
1102 5 45 27 59
1103 4 460 30 51
1104 5 460 30 62
1105 5 51 30 62
1106 4 1322 32 127
1107 5 1322 32 64
1108 5 127 32 64
1109 4 1336 34 55
1110 5 1336 34 66
1111 5 55 34 66
1112 4 470 36 123
1113 5 470 36 68
1114 5 123 36 68
1115 4 899 37 45
1116 5 899 37 69
1117 5 45 37 69
1118 4 33 39 41
1119 5 33 39 71
1120 5 41 39 71
1121 4 25 41 39
1122 6 25 41 42
1123 6 39 41 42
1124 7 5 42 19
1125 8 5 42 41
1126 8 19 42 41
1127 4 27 45 37
1128 6 27 45 46
1129 6 37 45 46
1130 7 7 46 17
1131 8 7 46 45
1132 8 17 46 45
1133 7 82 52 16
1134 8 82 52 123
1135 8 16 52 123
1136 4 392 55 34
1137 6 392 55 56
1138 6 34 55 56
1139 7 372 56 14
1140 8 372 56 55
1141 8 14 56 55
1142 1 77 73 82
1143 1 77 73 86
1144 1 77 73 89
1145 1 77 73 21
1146 1 77 73 96
1147 1 82 73 86
1148 1 82 73 89
1149 1 82 73 21
1150 1 82 73 96
1151 1 86 73 89
1152 1 86 73 21
1153 1 86 73 96
1154 1 89 73 21
1155 1 89 73 96
1156 1 21 73 96
1157 2 73 77 114
1158 2 73 82 52
1159 2 73 86 128
1160 2 73 89 118
1161 3 73 96 74
1162 4 103 97 113
1163 5 103 97 129
1164 5 113 97 129
1165 4 532 102 123
1166 5 532 102 134
1167 5 123 102 134
1168 4 1408 106 127
1169 5 1408 106 138
1170 5 127 106 138
1171 4 971 109 117
1172 5 971 109 141
1173 5 117 109 141
1174 4 97 113 111
1175 6 97 113 114
1176 6 111 113 114
1177 7 77 114 91
1178 8 77 114 113
1179 8 91 114 113
1180 4 102 123 36
1181 6 102 123 52
1182 6 36 123 52
1183 4 32 127 106
1184 6 32 127 128
1185 6 106 127 128
1186 7 12 128 86
1187 8 12 128 127
1188 8 86 128 127
1189 1 79 74 84
1190 1 79 74 88
1191 1 79 74 91
1192 1 79 74 93
1193 1 79 74 96
1194 1 84 74 88
1195 1 84 74 91
1196 1 84 74 93
1197 1 84 74 96
1198 1 88 74 91
1199 1 88 74 93
1200 1 88 74 96
1201 1 91 74 93
1202 1 91 74 96
1203 1 93 74 96
1204 2 74 79 118
1205 2 74 84 200
1206 2 74 88 124
1207 2 74 91 114
1208 3 145 93 74
1209 4 965 99 117
1210 5 965 99 131
1211 5 117 99 131
1212 4 1394 104 199
1213 5 1394 104 136
1214 5 199 104 136
1215 4 542 108 195
1216 5 542 108 140
1217 5 195 108 140
1218 4 105 111 113
1219 5 105 111 143
1220 5 113 111 143
1221 4 99 117 109
1222 6 99 117 118
1223 6 109 117 118
1224 7 79 118 89
1225 8 79 118 117
1226 8 89 118 117
1227 7 154 124 88
1228 8 154 124 195
1229 8 88 124 195
1230 1 149 145 154
1231 1 149 145 158
1232 1 149 145 161
1233 1 149 145 93
1234 1 149 145 168
1235 1 154 145 158
1236 1 154 145 161
1237 1 154 145 93
1238 1 154 145 168
1239 1 158 145 161
1240 1 158 145 93
1241 1 158 145 168
1242 1 161 145 93
1243 1 161 145 168
1244 1 93 145 168
1245 1 151 146 156
1246 1 151 146 160
1247 1 151 146 163
1248 1 151 146 165
1249 1 151 146 168
1250 1 156 146 160
1251 1 156 146 163
1252 1 156 146 165
1253 1 156 146 168
1254 1 160 146 163
1255 1 160 146 165
1256 1 160 146 168
1257 1 163 146 165
1258 1 163 146 168
1259 1 165 146 168
1260 2 145 149 186
1261 2 146 151 190
1262 2 145 154 124
1263 2 146 156 272
1264 2 145 158 200
1265 2 146 160 196
1266 2 145 161 190
1267 2 146 163 186
1268 3 217 165 146
1269 3 145 168 146
1270 4 175 169 185
1271 5 175 169 201
1272 5 185 169 201
1273 4 1037 171 189
1274 5 1037 171 203
1275 5 189 171 203
1276 4 604 174 195
1277 5 604 174 206
1278 5 195 174 206
1279 4 1466 176 271
1280 5 1466 176 208
1281 5 271 176 208
1282 4 1480 178 199
1283 5 1480 178 210
1284 5 199 178 210
1285 4 614 180 267
1286 5 614 180 212
1287 5 267 180 212
1288 4 1043 181 189
1289 5 1043 181 213
1290 5 189 181 213
1291 4 177 183 185
1292 5 177 183 215
1293 5 185 183 215
1294 4 169 185 183
1295 6 169 185 186
1296 6 183 185 186
1297 7 149 186 163
1298 8 149 186 185
1299 8 163 186 185
1300 4 171 189 181
1301 6 171 189 190
1302 6 181 189 190
1303 7 151 190 161
1304 8 151 190 189
1305 8 161 190 189
1306 4 174 195 108
1307 6 174 195 124
1308 6 108 195 124
1309 7 226 196 160
1310 8 226 196 267
1311 8 160 196 267
1312 4 104 199 178
1313 6 104 199 200
1314 6 178 199 200
1315 7 84 200 158
1316 8 84 200 199
1317 8 158 200 199
1318 4 246 267 180
1319 6 246 267 196
1320 6 180 267 196
1321 1 221 217 226
1322 1 221 217 230
1323 1 221 217 233
1324 1 221 217 165
1325 1 221 217 240
1326 1 226 217 230
1327 1 226 217 233
1328 1 226 217 165
1329 1 226 217 240
1330 1 230 217 233
1331 1 230 217 165
1332 1 230 217 240
1333 1 233 217 165
1334 1 233 217 240
1335 1 165 217 240
1336 1 223 218 228
1337 1 223 218 232
1338 1 223 218 235
1339 1 223 218 237
1340 1 223 218 240
1341 1 228 218 232
1342 1 228 218 235
1343 1 228 218 237
1344 1 228 218 240
1345 1 232 218 235
1346 1 232 218 237
1347 1 232 218 240
1348 1 235 218 237
1349 1 235 218 240
1350 1 237 218 240
1351 2 217 221 258
1352 2 218 223 262
1353 2 217 226 196
1354 2 218 228 344
1355 2 217 230 272
1356 2 218 232 268
1357 2 217 233 262
1358 2 218 235 258
1359 3 289 237 218
1360 3 217 240 218
1361 4 247 241 257
1362 5 247 241 273
1363 5 257 241 273
1364 4 1109 243 261
1365 5 1109 243 275
1366 5 261 243 275
1367 4 676 246 267
1368 5 676 246 278
1369 5 267 246 278
1370 4 1538 248 343
1371 5 1538 248 280
1372 5 343 248 280
1373 4 1552 250 271
1374 5 1552 250 282
1375 5 271 250 282
1376 4 686 252 339
1377 5 686 252 284
1378 5 339 252 284
1379 4 1115 253 261
1380 5 1115 253 285
1381 5 261 253 285
1382 4 249 255 257
1383 5 249 255 287
1384 5 257 255 287
1385 4 241 257 255
1386 6 241 257 258
1387 6 255 257 258
1388 7 221 258 235
1389 8 221 258 257
1390 8 235 258 257
1391 4 243 261 253
1392 6 243 261 262
1393 6 253 261 262
1394 7 223 262 233
1395 8 223 262 261
1396 8 233 262 261
1397 7 298 268 232
1398 8 298 268 339
1399 8 232 268 339
1400 4 176 271 250
1401 6 176 271 272
1402 6 250 271 272
1403 7 156 272 230
1404 8 156 272 271
1405 8 230 272 271
1406 1 293 289 298
1407 1 293 289 302
1408 1 293 289 305
1409 1 293 289 237
1410 1 293 289 312
1411 1 298 289 302
1412 1 298 289 305
1413 1 298 289 237
1414 1 298 289 312
1415 1 302 289 305
1416 1 302 289 237
1417 1 302 289 312
1418 1 305 289 237
1419 1 305 289 312
1420 1 237 289 312
1421 2 289 293 330
1422 2 289 298 268
1423 2 289 302 344
1424 2 289 305 334
1425 3 289 312 290
1426 4 319 313 329
1427 5 319 313 345
1428 5 329 313 345
1429 4 748 318 339
1430 5 748 318 350
1431 5 339 318 350
1432 4 1624 322 343
1433 5 1624 322 354
1434 5 343 322 354
1435 4 1187 325 333
1436 5 1187 325 357
1437 5 333 325 357
1438 4 313 329 327
1439 6 313 329 330
1440 6 327 329 330
1441 7 293 330 307
1442 8 293 330 329
1443 8 307 330 329
1444 4 318 339 252
1445 6 318 339 268
1446 6 252 339 268
1447 4 248 343 322
1448 6 248 343 344
1449 6 322 343 344
1450 7 228 344 302
1451 8 228 344 343
1452 8 302 344 343
1453 4 30 51 396
1454 6 30 51 412
1455 6 396 51 412
1456 1 295 290 300
1457 1 295 290 304
1458 1 295 290 307
1459 1 295 290 309
1460 1 295 290 312
1461 1 300 290 304
1462 1 300 290 307
1463 1 300 290 309
1464 1 300 290 312
1465 1 304 290 307
1466 1 304 290 309
1467 1 304 290 312
1468 1 307 290 309
1469 1 307 290 312
1470 1 309 290 312
1471 2 290 295 334
1472 2 290 300 416
1473 2 290 304 340
1474 2 290 307 330
1475 3 361 309 290
1476 4 1181 315 333
1477 5 1181 315 347
1478 5 333 315 347
1479 4 1610 320 415
1480 5 1610 320 352
1481 5 415 320 352
1482 4 758 324 411
1483 5 758 324 356
1484 5 411 324 356
1485 4 321 327 329
1486 5 321 327 359
1487 5 329 327 359
1488 4 315 333 325
1489 6 315 333 334
1490 6 325 333 334
1491 7 295 334 305
1492 8 295 334 333
1493 8 305 334 333
1494 7 370 340 304
1495 8 370 340 411
1496 8 304 340 411
1497 1 365 361 370
1498 1 365 361 374
1499 1 365 361 377
1500 1 365 361 309
1501 1 365 361 384
1502 1 370 361 374
1503 1 370 361 377
1504 1 370 361 309
1505 1 370 361 384
1506 1 374 361 377
1507 1 374 361 309
1508 1 374 361 384
1509 1 377 361 309
1510 1 377 361 384
1511 1 309 361 384
1512 1 367 362 372
1513 1 367 362 376
1514 1 367 362 379
1515 1 367 362 381
1516 1 367 362 384
1517 1 372 362 376
1518 1 372 362 379
1519 1 372 362 381
1520 1 372 362 384
1521 1 376 362 379
1522 1 376 362 381
1523 1 376 362 384
1524 1 379 362 381
1525 1 379 362 384
1526 1 381 362 384
1527 2 361 365 402
1528 2 362 367 406
1529 2 361 370 340
1530 2 362 372 56
1531 2 361 374 416
1532 2 362 376 412
1533 2 361 377 406
1534 2 362 379 402
1535 3 1 381 362
1536 3 361 384 362
1537 4 391 385 401
1538 5 391 385 417
1539 5 401 385 417
1540 4 1253 387 405
1541 5 1253 387 419
1542 5 405 387 419
1543 4 820 390 411
1544 5 820 390 422
1545 5 411 390 422
1546 4 1682 392 55
1547 5 1682 392 424
1548 5 55 392 424
1549 4 1696 394 415
1550 5 1696 394 426
1551 5 415 394 426
1552 4 830 396 51
1553 5 830 396 428
1554 5 51 396 428
1555 4 1259 397 405
1556 5 1259 397 429
1557 5 405 397 429
1558 4 393 399 401
1559 5 393 399 431
1560 5 401 399 431
1561 4 385 401 399
1562 6 385 401 402
1563 6 399 401 402
1564 7 365 402 379
1565 8 365 402 401
1566 8 379 402 401
1567 4 387 405 397
1568 6 387 405 406
1569 6 397 405 406
1570 7 367 406 377
1571 8 367 406 405
1572 8 377 406 405
1573 4 390 411 324
1574 6 390 411 340
1575 6 324 411 340
1576 7 10 412 376
1577 8 10 412 51
1578 8 376 412 51
1579 4 320 415 394
1580 6 320 415 416
1581 6 394 415 416
1582 7 300 416 374
1583 8 300 416 415
1584 8 374 416 415
1585 1 437 433 442
1586 1 437 433 446
1587 1 437 433 449
1588 1 437 433 813
1589 1 437 433 456
1590 1 442 433 446
1591 1 442 433 449
1592 1 442 433 813
1593 1 442 433 456
1594 1 446 433 449
1595 1 446 433 813
1596 1 446 433 456
1597 1 449 433 813
1598 1 449 433 456
1599 1 813 433 456
1600 1 439 434 444
1601 1 439 434 448
1602 1 439 434 451
1603 1 439 434 453
1604 1 439 434 456
1605 1 444 434 448
1606 1 444 434 451
1607 1 444 434 453
1608 1 444 434 456
1609 1 448 434 451
1610 1 448 434 453
1611 1 448 434 456
1612 1 451 434 453
1613 1 451 434 456
1614 1 453 434 456
1615 2 433 437 474
1616 2 434 439 478
1617 2 433 442 844
1618 2 434 444 560
1619 2 433 446 488
1620 2 434 448 484
1621 2 433 449 478
1622 2 434 451 474
1623 3 505 453 434
1624 3 433 456 434
1625 4 463 457 473
1626 5 463 457 489
1627 5 473 457 489
1628 4 1325 459 477
1629 5 1325 459 491
1630 5 477 459 491
1631 4 28 462 483
1632 5 28 462 494
1633 5 483 462 494
1634 4 890 464 559
1635 5 890 464 496
1636 5 559 464 496
1637 4 904 466 487
1638 5 904 466 498
1639 5 487 466 498
1640 4 38 468 555
1641 5 38 468 500
1642 5 555 468 500
1643 4 1331 469 477
1644 5 1331 469 501
1645 5 477 469 501
1646 4 465 471 473
1647 5 465 471 503
1648 5 473 471 503
1649 4 457 473 471
1650 6 457 473 474
1651 6 471 473 474
1652 7 437 474 451
1653 8 437 474 473
1654 8 451 474 473
1655 4 459 477 469
1656 6 459 477 478
1657 6 469 477 478
1658 7 439 478 449
1659 8 439 478 477
1660 8 449 478 477
1661 7 514 484 448
1662 8 514 484 555
1663 8 448 484 555
1664 4 824 487 466
1665 6 824 487 488
1666 6 466 487 488
1667 7 804 488 446
1668 8 804 488 487
1669 8 446 488 487
1670 1 509 505 514
1671 1 509 505 518
1672 1 509 505 521
1673 1 509 505 453
1674 1 509 505 528
1675 1 514 505 518
1676 1 514 505 521
1677 1 514 505 453
1678 1 514 505 528
1679 1 518 505 521
1680 1 518 505 453
1681 1 518 505 528
1682 1 521 505 453
1683 1 521 505 528
1684 1 453 505 528
1685 2 505 509 546
1686 2 505 514 484
1687 2 505 518 560
1688 2 505 521 550
1689 3 505 528 506
1690 4 535 529 545
1691 5 535 529 561
1692 5 545 529 561
1693 4 100 534 555
1694 5 100 534 566
1695 5 555 534 566
1696 4 976 538 559
1697 5 976 538 570
1698 5 559 538 570
1699 4 1403 541 549
1700 5 1403 541 573
1701 5 549 541 573
1702 4 529 545 543
1703 6 529 545 546
1704 6 543 545 546
1705 7 509 546 523
1706 8 509 546 545
1707 8 523 546 545
1708 4 534 555 468
1709 6 534 555 484
1710 6 468 555 484
1711 4 464 559 538
1712 6 464 559 560
1713 6 538 559 560
1714 7 444 560 518
1715 8 444 560 559
1716 8 518 560 559
1717 1 511 506 516
1718 1 511 506 520
1719 1 511 506 523
1720 1 511 506 525
1721 1 511 506 528
1722 1 516 506 520
1723 1 516 506 523
1724 1 516 506 525
1725 1 516 506 528
1726 1 520 506 523
1727 1 520 506 525
1728 1 520 506 528
1729 1 523 506 525
1730 1 523 506 528
1731 1 525 506 528
1732 2 506 511 550
1733 2 506 516 632
1734 2 506 520 556
1735 2 506 523 546
1736 3 577 525 506
1737 4 1397 531 549
1738 5 1397 531 563
1739 5 549 531 563
1740 4 962 536 631
1741 5 962 536 568
1742 5 631 536 568
1743 4 110 540 627
1744 5 110 540 572
1745 5 627 540 572
1746 4 537 543 545
1747 5 537 543 575
1748 5 545 543 575
1749 4 531 549 541
1750 6 531 549 550
1751 6 541 549 550
1752 7 511 550 521
1753 8 511 550 549
1754 8 521 550 549
1755 7 586 556 520
1756 8 586 556 627
1757 8 520 556 627
1758 1 581 577 586
1759 1 581 577 590
1760 1 581 577 593
1761 1 581 577 525
1762 1 581 577 600
1763 1 586 577 590
1764 1 586 577 593
1765 1 586 577 525
1766 1 586 577 600
1767 1 590 577 593
1768 1 590 577 525
1769 1 590 577 600
1770 1 593 577 525
1771 1 593 577 600
1772 1 525 577 600
1773 1 583 578 588
1774 1 583 578 592
1775 1 583 578 595
1776 1 583 578 597
1777 1 583 578 600
1778 1 588 578 592
1779 1 588 578 595
1780 1 588 578 597
1781 1 588 578 600
1782 1 592 578 595
1783 1 592 578 597
1784 1 592 578 600
1785 1 595 578 597
1786 1 595 578 600
1787 1 597 578 600
1788 2 577 581 618
1789 2 578 583 622
1790 2 577 586 556
1791 2 578 588 704
1792 2 577 590 632
1793 2 578 592 628
1794 2 577 593 622
1795 2 578 595 618
1796 3 649 597 578
1797 3 577 600 578
1798 4 607 601 617
1799 5 607 601 633
1800 5 617 601 633
1801 4 1469 603 621
1802 5 1469 603 635
1803 5 621 603 635
1804 4 172 606 627
1805 5 172 606 638
1806 5 627 606 638
1807 4 1034 608 703
1808 5 1034 608 640
1809 5 703 608 640
1810 4 1048 610 631
1811 5 1048 610 642
1812 5 631 610 642
1813 4 182 612 699
1814 5 182 612 644
1815 5 699 612 644
1816 4 1475 613 621
1817 5 1475 613 645
1818 5 621 613 645
1819 4 609 615 617
1820 5 609 615 647
1821 5 617 615 647
1822 4 601 617 615
1823 6 601 617 618
1824 6 615 617 618
1825 7 581 618 595
1826 8 581 618 617
1827 8 595 618 617
1828 4 603 621 613
1829 6 603 621 622
1830 6 613 621 622
1831 7 583 622 593
1832 8 583 622 621
1833 8 593 622 621
1834 4 606 627 540
1835 6 606 627 556
1836 6 540 627 556
1837 7 658 628 592
1838 8 658 628 699
1839 8 592 628 699
1840 4 536 631 610
1841 6 536 631 632
1842 6 610 631 632
1843 7 516 632 590
1844 8 516 632 631
1845 8 590 632 631
1846 4 678 699 612
1847 6 678 699 628
1848 6 612 699 628
1849 1 653 649 658
1850 1 653 649 662
1851 1 653 649 665
1852 1 653 649 597
1853 1 653 649 672
1854 1 658 649 662
1855 1 658 649 665
1856 1 658 649 597
1857 1 658 649 672
1858 1 662 649 665
1859 1 662 649 597
1860 1 662 649 672
1861 1 665 649 597
1862 1 665 649 672
1863 1 597 649 672
1864 1 655 650 660
1865 1 655 650 664
1866 1 655 650 667
1867 1 655 650 669
1868 1 655 650 672
1869 1 660 650 664
1870 1 660 650 667
1871 1 660 650 669
1872 1 660 650 672
1873 1 664 650 667
1874 1 664 650 669
1875 1 664 650 672
1876 1 667 650 669
1877 1 667 650 672
1878 1 669 650 672
1879 2 649 653 690
1880 2 650 655 694
1881 2 649 658 628
1882 2 650 660 776
1883 2 649 662 704
1884 2 650 664 700
1885 2 649 665 694
1886 2 650 667 690
1887 3 721 669 650
1888 3 649 672 650
1889 4 679 673 689
1890 5 679 673 705
1891 5 689 673 705
1892 4 1541 675 693
1893 5 1541 675 707
1894 5 693 675 707
1895 4 244 678 699
1896 5 244 678 710
1897 5 699 678 710
1898 4 1106 680 775
1899 5 1106 680 712
1900 5 775 680 712
1901 4 1120 682 703
1902 5 1120 682 714
1903 5 703 682 714
1904 4 254 684 771
1905 5 254 684 716
1906 5 771 684 716
1907 4 1547 685 693
1908 5 1547 685 717
1909 5 693 685 717
1910 4 681 687 689
1911 5 681 687 719
1912 5 689 687 719
1913 4 673 689 687
1914 6 673 689 690
1915 6 687 689 690
1916 7 653 690 667
1917 8 653 690 689
1918 8 667 690 689
1919 4 675 693 685
1920 6 675 693 694
1921 6 685 693 694
1922 7 655 694 665
1923 8 655 694 693
1924 8 665 694 693
1925 7 730 700 664
1926 8 730 700 771
1927 8 664 700 771
1928 4 608 703 682
1929 6 608 703 704
1930 6 682 703 704
1931 7 588 704 662
1932 8 588 704 703
1933 8 662 704 703
1934 1 725 721 730
1935 1 725 721 734
1936 1 725 721 737
1937 1 725 721 669
1938 1 725 721 744
1939 1 730 721 734
1940 1 730 721 737
1941 1 730 721 669
1942 1 730 721 744
1943 1 734 721 737
1944 1 734 721 669
1945 1 734 721 744
1946 1 737 721 669
1947 1 737 721 744
1948 1 669 721 744
1949 2 721 725 762
1950 2 721 730 700
1951 2 721 734 776
1952 2 721 737 766
1953 3 721 744 722
1954 4 751 745 761
1955 5 751 745 777
1956 5 761 745 777
1957 4 316 750 771
1958 5 316 750 782
1959 5 771 750 782
1960 4 1192 754 775
1961 5 1192 754 786
1962 5 775 754 786
1963 4 1619 757 765
1964 5 1619 757 789
1965 5 765 757 789
1966 4 745 761 759
1967 6 745 761 762
1968 6 759 761 762
1969 7 725 762 739
1970 8 725 762 761
1971 8 739 762 761
1972 4 750 771 684
1973 6 750 771 700
1974 6 684 771 700
1975 4 680 775 754
1976 6 680 775 776
1977 6 754 775 776
1978 7 660 776 734
1979 8 660 776 775
1980 8 734 776 775
1981 4 462 483 828
1982 6 462 483 844
1983 6 828 483 844
1984 1 727 722 732
1985 1 727 722 736
1986 1 727 722 739
1987 1 727 722 741
1988 1 727 722 744
1989 1 732 722 736
1990 1 732 722 739
1991 1 732 722 741
1992 1 732 722 744
1993 1 736 722 739
1994 1 736 722 741
1995 1 736 722 744
1996 1 739 722 741
1997 1 739 722 744
1998 1 741 722 744
1999 2 722 727 766
2000 2 722 732 848
2001 2 722 736 772
2002 2 722 739 762
2003 3 793 741 722
2004 4 1613 747 765
2005 5 1613 747 779
2006 5 765 747 779
2007 4 1178 752 847
2008 5 1178 752 784
2009 5 847 752 784
2010 4 326 756 843
2011 5 326 756 788
2012 5 843 756 788
2013 4 753 759 761
2014 5 753 759 791
2015 5 761 759 791
2016 4 747 765 757
2017 6 747 765 766
2018 6 757 765 766
2019 7 727 766 737
2020 8 727 766 765
2021 8 737 766 765
2022 7 802 772 736
2023 8 802 772 843
2024 8 736 772 843
2025 1 797 793 802
2026 1 797 793 806
2027 1 797 793 809
2028 1 797 793 741
2029 1 797 793 816
2030 1 802 793 806
2031 1 802 793 809
2032 1 802 793 741
2033 1 802 793 816
2034 1 806 793 809
2035 1 806 793 741
2036 1 806 793 816
2037 1 809 793 741
2038 1 809 793 816
2039 1 741 793 816
2040 1 799 794 804
2041 1 799 794 808
2042 1 799 794 811
2043 1 799 794 813
2044 1 799 794 816
2045 1 804 794 808
2046 1 804 794 811
2047 1 804 794 813
2048 1 804 794 816
2049 1 808 794 811
2050 1 808 794 813
2051 1 808 794 816
2052 1 811 794 813
2053 1 811 794 816
2054 1 813 794 816
2055 2 793 797 834
2056 2 794 799 838
2057 2 793 802 772
2058 2 794 804 488
2059 2 793 806 848
2060 2 794 808 844
2061 2 793 809 838
2062 2 794 811 834
2063 3 433 813 794
2064 3 793 816 794
2065 4 823 817 833
2066 5 823 817 849
2067 5 833 817 849
2068 4 1685 819 837
2069 5 1685 819 851
2070 5 837 819 851
2071 4 388 822 843
2072 5 388 822 854
2073 5 843 822 854
2074 4 1250 824 487
2075 5 1250 824 856
2076 5 487 824 856
2077 4 1264 826 847
2078 5 1264 826 858
2079 5 847 826 858
2080 4 398 828 483
2081 5 398 828 860
2082 5 483 828 860
2083 4 1691 829 837
2084 5 1691 829 861
2085 5 837 829 861
2086 4 825 831 833
2087 5 825 831 863
2088 5 833 831 863
2089 4 817 833 831
2090 6 817 833 834
2091 6 831 833 834
2092 7 797 834 811
2093 8 797 834 833
2094 8 811 834 833
2095 4 819 837 829
2096 6 819 837 838
2097 6 829 837 838
2098 7 799 838 809
2099 8 799 838 837
2100 8 809 838 837
2101 4 822 843 756
2102 6 822 843 772
2103 6 756 843 772
2104 7 442 844 808
2105 8 442 844 483
2106 8 808 844 483
2107 4 752 847 826
2108 6 752 847 848
2109 6 826 847 848
2110 7 732 848 806
2111 8 732 848 847
2112 8 806 848 847
2113 1 872 867 875
2114 1 872 867 879
2115 1 872 867 884
2116 1 872 867 886
2117 1 872 867 1247
2118 1 875 867 879
2119 1 875 867 884
2120 1 875 867 886
2121 1 875 867 1247
2122 1 879 867 884
2123 1 879 867 886
2124 1 879 867 1247
2125 1 884 867 886
2126 1 884 867 1247
2127 1 886 867 1247
2128 1 870 868 873
2129 1 870 868 877
2130 1 870 868 882
2131 1 870 868 886
2132 1 870 868 887
2133 1 873 868 877
2134 1 873 868 882
2135 1 873 868 886
2136 1 873 868 887
2137 1 877 868 882
2138 1 877 868 886
2139 1 877 868 887
2140 1 882 868 886
2141 1 882 868 887
2142 1 886 868 887
2143 2 868 870 908
2144 2 867 872 912
2145 2 868 873 914
2146 2 867 875 918
2147 2 868 877 918
2148 2 867 879 914
2149 2 868 882 984
2150 2 867 884 1268
2151 3 867 886 868
2152 3 939 887 868
2153 4 464 890 979
2154 5 464 890 922
2155 5 979 890 922
2156 4 1326 892 911
2157 5 1326 892 924
2158 5 911 892 924
2159 4 27 893 913
2160 5 27 893 925
2161 5 913 893 925
2162 4 889 895 917
2163 5 889 895 927
2164 5 917 895 927
2165 4 903 897 917
2166 5 903 897 929
2167 5 917 897 929
2168 4 37 899 913
2169 5 37 899 931
2170 5 913 899 931
2171 4 1332 902 983
2172 5 1332 902 934
2173 5 983 902 934
2174 4 466 904 907
2175 5 466 904 936
2176 5 907 904 936
2177 7 870 908 956
2178 8 870 908 979
2179 8 956 908 979
2180 4 892 911 1262
2181 6 892 911 912
2182 6 1262 911 912
2183 7 872 912 1242
2184 8 872 912 911
2185 8 1242 912 911
2186 4 893 913 899
2187 6 893 913 914
2188 6 899 913 914
2189 7 873 914 879
2190 8 873 914 913
2191 8 879 914 913
2192 4 895 917 897
2193 6 895 917 918
2194 6 897 917 918
2195 7 875 918 877
2196 8 875 918 917
2197 8 877 918 917
2198 1 944 939 947
2199 1 944 939 951
2200 1 944 939 956
2201 1 944 939 958
2202 1 944 939 887
2203 1 947 939 951
2204 1 947 939 956
2205 1 947 939 958
2206 1 947 939 887
2207 1 951 939 956
2208 1 951 939 958
2209 1 951 939 887
2210 1 956 939 958
2211 1 956 939 887
2212 1 958 939 887
2213 2 939 944 984
2214 2 939 947 990
2215 2 939 951 986
2216 2 939 956 908
2217 3 939 958 940
2218 4 1398 964 983
2219 5 1398 964 996
2220 5 983 964 996
2221 4 961 967 989
2222 5 961 967 999
2223 5 989 967 999
2224 4 109 971 985
2225 5 109 971 1003
2226 5 985 971 1003
2227 4 538 976 979
2228 5 538 976 1008
2229 5 979 976 1008
2230 4 890 979 976
2231 6 890 979 908
2232 6 976 979 908
2233 4 964 983 902
2234 6 964 983 984
2235 6 902 983 984
2236 7 944 984 882
2237 8 944 984 983
2238 8 882 984 983
2239 4 965 985 971
2240 6 965 985 986
2241 6 971 985 986
2242 7 945 986 951
2243 8 945 986 985
2244 8 951 986 985
2245 1 942 940 945
2246 1 942 940 949
2247 1 942 940 954
2248 1 942 940 958
2249 1 942 940 959
2250 1 945 940 949
2251 1 945 940 954
2252 1 945 940 958
2253 1 945 940 959
2254 1 949 940 954
2255 1 949 940 958
2256 1 949 940 959
2257 1 954 940 958
2258 1 954 940 959
2259 1 958 940 959
2260 2 940 942 980
2261 2 940 945 986
2262 2 940 949 990
2263 2 940 954 1056
2264 3 1011 959 940
2265 4 536 962 1051
2266 5 536 962 994
2267 5 1051 962 994
2268 4 99 965 985
2269 5 99 965 997
2270 5 985 965 997
2271 4 975 969 989
2272 5 975 969 1001
2273 5 989 969 1001
2274 4 1404 974 1055
2275 5 1404 974 1006
2276 5 1055 974 1006
2277 7 942 980 1028
2278 8 942 980 1051
2279 8 1028 980 1051
2280 4 967 989 969
2281 6 967 989 990
2282 6 969 989 990
2283 7 947 990 949
2284 8 947 990 989
2285 8 949 990 989
2286 1 1016 1011 1019
2287 1 1016 1011 1023
2288 1 1016 1011 1028
2289 1 1016 1011 1030
2290 1 1016 1011 959
2291 1 1019 1011 1023
2292 1 1019 1011 1028
2293 1 1019 1011 1030
2294 1 1019 1011 959
2295 1 1023 1011 1028
2296 1 1023 1011 1030
2297 1 1023 1011 959
2298 1 1028 1011 1030
2299 1 1028 1011 959
2300 1 1030 1011 959
2301 1 1014 1012 1017
2302 1 1014 1012 1021
2303 1 1014 1012 1026
2304 1 1014 1012 1030
2305 1 1014 1012 1031
2306 1 1017 1012 1021
2307 1 1017 1012 1026
2308 1 1017 1012 1030
2309 1 1017 1012 1031
2310 1 1021 1012 1026
2311 1 1021 1012 1030
2312 1 1021 1012 1031
2313 1 1026 1012 1030
2314 1 1026 1012 1031
2315 1 1030 1012 1031
2316 2 1012 1014 1052
2317 2 1011 1016 1056
2318 2 1012 1017 1058
2319 2 1011 1019 1062
2320 2 1012 1021 1062
2321 2 1011 1023 1058
2322 2 1012 1026 1128
2323 2 1011 1028 980
2324 3 1011 1030 1012
2325 3 1083 1031 1012
2326 4 608 1034 1123
2327 5 608 1034 1066
2328 5 1123 1034 1066
2329 4 1470 1036 1055
2330 5 1470 1036 1068
2331 5 1055 1036 1068
2332 4 171 1037 1057
2333 5 171 1037 1069
2334 5 1057 1037 1069
2335 4 1033 1039 1061
2336 5 1033 1039 1071
2337 5 1061 1039 1071
2338 4 1047 1041 1061
2339 5 1047 1041 1073
2340 5 1061 1041 1073
2341 4 181 1043 1057
2342 5 181 1043 1075
2343 5 1057 1043 1075
2344 4 1476 1046 1127
2345 5 1476 1046 1078
2346 5 1127 1046 1078
2347 4 610 1048 1051
2348 5 610 1048 1080
2349 5 1051 1048 1080
2350 4 962 1051 1048
2351 6 962 1051 980
2352 6 1048 1051 980
2353 7 1014 1052 1100
2354 8 1014 1052 1123
2355 8 1100 1052 1123
2356 4 1036 1055 974
2357 6 1036 1055 1056
2358 6 974 1055 1056
2359 7 1016 1056 954
2360 8 1016 1056 1055
2361 8 954 1056 1055
2362 4 1037 1057 1043
2363 6 1037 1057 1058
2364 6 1043 1057 1058
2365 7 1017 1058 1023
2366 8 1017 1058 1057
2367 8 1023 1058 1057
2368 4 1039 1061 1041
2369 6 1039 1061 1062
2370 6 1041 1061 1062
2371 7 1019 1062 1021
2372 8 1019 1062 1061
2373 8 1021 1062 1061
2374 4 1034 1123 1120
2375 6 1034 1123 1052
2376 6 1120 1123 1052
2377 1 1088 1083 1091
2378 1 1088 1083 1095
2379 1 1088 1083 1100
2380 1 1088 1083 1102
2381 1 1088 1083 1031
2382 1 1091 1083 1095
2383 1 1091 1083 1100
2384 1 1091 1083 1102
2385 1 1091 1083 1031
2386 1 1095 1083 1100
2387 1 1095 1083 1102
2388 1 1095 1083 1031
2389 1 1100 1083 1102
2390 1 1100 1083 1031
2391 1 1102 1083 1031
2392 1 1086 1084 1089
2393 1 1086 1084 1093
2394 1 1086 1084 1098
2395 1 1086 1084 1102
2396 1 1086 1084 1103
2397 1 1089 1084 1093
2398 1 1089 1084 1098
2399 1 1089 1084 1102
2400 1 1089 1084 1103
2401 1 1093 1084 1098
2402 1 1093 1084 1102
2403 1 1093 1084 1103
2404 1 1098 1084 1102
2405 1 1098 1084 1103
2406 1 1102 1084 1103
2407 2 1084 1086 1124
2408 2 1083 1088 1128
2409 2 1084 1089 1130
2410 2 1083 1091 1134
2411 2 1084 1093 1134
2412 2 1083 1095 1130
2413 2 1084 1098 1200
2414 2 1083 1100 1052
2415 3 1083 1102 1084
2416 3 1155 1103 1084
2417 4 680 1106 1195
2418 5 680 1106 1138
2419 5 1195 1106 1138
2420 4 1542 1108 1127
2421 5 1542 1108 1140
2422 5 1127 1108 1140
2423 4 243 1109 1129
2424 5 243 1109 1141
2425 5 1129 1109 1141
2426 4 1105 1111 1133
2427 5 1105 1111 1143
2428 5 1133 1111 1143
2429 4 1119 1113 1133
2430 5 1119 1113 1145
2431 5 1133 1113 1145
2432 4 253 1115 1129
2433 5 253 1115 1147
2434 5 1129 1115 1147
2435 4 1548 1118 1199
2436 5 1548 1118 1150
2437 5 1199 1118 1150
2438 4 682 1120 1123
2439 5 682 1120 1152
2440 5 1123 1120 1152
2441 7 1086 1124 1172
2442 8 1086 1124 1195
2443 8 1172 1124 1195
2444 4 1108 1127 1046
2445 6 1108 1127 1128
2446 6 1046 1127 1128
2447 7 1088 1128 1026
2448 8 1088 1128 1127
2449 8 1026 1128 1127
2450 4 1109 1129 1115
2451 6 1109 1129 1130
2452 6 1115 1129 1130
2453 7 1089 1130 1095
2454 8 1089 1130 1129
2455 8 1095 1130 1129
2456 4 1111 1133 1113
2457 6 1111 1133 1134
2458 6 1113 1133 1134
2459 7 1091 1134 1093
2460 8 1091 1134 1133
2461 8 1093 1134 1133
2462 1 1160 1155 1163
2463 1 1160 1155 1167
2464 1 1160 1155 1172
2465 1 1160 1155 1174
2466 1 1160 1155 1103
2467 1 1163 1155 1167
2468 1 1163 1155 1172
2469 1 1163 1155 1174
2470 1 1163 1155 1103
2471 1 1167 1155 1172
2472 1 1167 1155 1174
2473 1 1167 1155 1103
2474 1 1172 1155 1174
2475 1 1172 1155 1103
2476 1 1174 1155 1103
2477 2 1155 1160 1200
2478 2 1155 1163 1206
2479 2 1155 1167 1202
2480 2 1155 1172 1124
2481 3 1155 1174 1156
2482 4 1614 1180 1199
2483 5 1614 1180 1212
2484 5 1199 1180 1212
2485 4 1177 1183 1205
2486 5 1177 1183 1215
2487 5 1205 1183 1215
2488 4 325 1187 1201
2489 5 325 1187 1219
2490 5 1201 1187 1219
2491 4 754 1192 1195
2492 5 754 1192 1224
2493 5 1195 1192 1224
2494 4 1106 1195 1192
2495 6 1106 1195 1124
2496 6 1192 1195 1124
2497 4 1180 1199 1118
2498 6 1180 1199 1200
2499 6 1118 1199 1200
2500 7 1160 1200 1098
2501 8 1160 1200 1199
2502 8 1098 1200 1199
2503 4 1181 1201 1187
2504 6 1181 1201 1202
2505 6 1187 1201 1202
2506 7 1161 1202 1167
2507 8 1161 1202 1201
2508 8 1167 1202 1201
2509 4 1250 907 904
2510 6 1250 907 1268
2511 6 904 907 1268
2512 1 1158 1156 1161
2513 1 1158 1156 1165
2514 1 1158 1156 1170
2515 1 1158 1156 1174
2516 1 1158 1156 1175
2517 1 1161 1156 1165
2518 1 1161 1156 1170
2519 1 1161 1156 1174
2520 1 1161 1156 1175
2521 1 1165 1156 1170
2522 1 1165 1156 1174
2523 1 1165 1156 1175
2524 1 1170 1156 1174
2525 1 1170 1156 1175
2526 1 1174 1156 1175
2527 2 1156 1158 1196
2528 2 1156 1161 1202
2529 2 1156 1165 1206
2530 2 1156 1170 1272
2531 3 1227 1175 1156
2532 4 752 1178 1267
2533 5 752 1178 1210
2534 5 1267 1178 1210
2535 4 315 1181 1201
2536 5 315 1181 1213
2537 5 1201 1181 1213
2538 4 1191 1185 1205
2539 5 1191 1185 1217
2540 5 1205 1185 1217
2541 4 1620 1190 1271
2542 5 1620 1190 1222
2543 5 1271 1190 1222
2544 7 1158 1196 1244
2545 8 1158 1196 1267
2546 8 1244 1196 1267
2547 4 1183 1205 1185
2548 6 1183 1205 1206
2549 6 1185 1205 1206
2550 7 1163 1206 1165
2551 8 1163 1206 1205
2552 8 1165 1206 1205
2553 1 1232 1227 1235
2554 1 1232 1227 1239
2555 1 1232 1227 1244
2556 1 1232 1227 1246
2557 1 1232 1227 1175
2558 1 1235 1227 1239
2559 1 1235 1227 1244
2560 1 1235 1227 1246
2561 1 1235 1227 1175
2562 1 1239 1227 1244
2563 1 1239 1227 1246
2564 1 1239 1227 1175
2565 1 1244 1227 1246
2566 1 1244 1227 1175
2567 1 1246 1227 1175
2568 1 1230 1228 1233
2569 1 1230 1228 1237
2570 1 1230 1228 1242
2571 1 1230 1228 1246
2572 1 1230 1228 1247
2573 1 1233 1228 1237
2574 1 1233 1228 1242
2575 1 1233 1228 1246
2576 1 1233 1228 1247
2577 1 1237 1228 1242
2578 1 1237 1228 1246
2579 1 1237 1228 1247
2580 1 1242 1228 1246
2581 1 1242 1228 1247
2582 1 1246 1228 1247
2583 2 1228 1230 1268
2584 2 1227 1232 1272
2585 2 1228 1233 1274
2586 2 1227 1235 1278
2587 2 1228 1237 1278
2588 2 1227 1239 1274
2589 2 1228 1242 912
2590 2 1227 1244 1196
2591 3 1227 1246 1228
2592 3 867 1247 1228
2593 4 824 1250 907
2594 5 824 1250 1282
2595 5 907 1250 1282
2596 4 1686 1252 1271
2597 5 1686 1252 1284
2598 5 1271 1252 1284
2599 4 387 1253 1273
2600 5 387 1253 1285
2601 5 1273 1253 1285
2602 4 1249 1255 1277
2603 5 1249 1255 1287
2604 5 1277 1255 1287
2605 4 1263 1257 1277
2606 5 1263 1257 1289
2607 5 1277 1257 1289
2608 4 397 1259 1273
2609 5 397 1259 1291
2610 5 1273 1259 1291
2611 4 1692 1262 911
2612 5 1692 1262 1294
2613 5 911 1262 1294
2614 4 826 1264 1267
2615 5 826 1264 1296
2616 5 1267 1264 1296
2617 4 1178 1267 1264
2618 6 1178 1267 1196
2619 6 1264 1267 1196
2620 7 1230 1268 884
2621 8 1230 1268 907
2622 8 884 1268 907
2623 4 1252 1271 1190
2624 6 1252 1271 1272
2625 6 1190 1271 1272
2626 7 1232 1272 1170
2627 8 1232 1272 1271
2628 8 1170 1272 1271
2629 4 1253 1273 1259
2630 6 1253 1273 1274
2631 6 1259 1273 1274
2632 7 1233 1274 1239
2633 8 1233 1274 1273
2634 8 1239 1274 1273
2635 4 1255 1277 1257
2636 6 1255 1277 1278
2637 6 1257 1277 1278
2638 7 1235 1278 1237
2639 8 1235 1278 1277
2640 8 1237 1278 1277
2641 1 1304 1299 1307
2642 1 1304 1299 1311
2643 1 1304 1299 1316
2644 1 1304 1299 1318
2645 1 1304 1299 1679
2646 1 1307 1299 1311
2647 1 1307 1299 1316
2648 1 1307 1299 1318
2649 1 1307 1299 1679
2650 1 1311 1299 1316
2651 1 1311 1299 1318
2652 1 1311 1299 1679
2653 1 1316 1299 1318
2654 1 1316 1299 1679
2655 1 1318 1299 1679
2656 1 1302 1300 1305
2657 1 1302 1300 1309
2658 1 1302 1300 1314
2659 1 1302 1300 1318
2660 1 1302 1300 1319
2661 1 1305 1300 1309
2662 1 1305 1300 1314
2663 1 1305 1300 1318
2664 1 1305 1300 1319
2665 1 1309 1300 1314
2666 1 1309 1300 1318
2667 1 1309 1300 1319
2668 1 1314 1300 1318
2669 1 1314 1300 1319
2670 1 1318 1300 1319
2671 2 1300 1302 1340
2672 2 1299 1304 1344
2673 2 1300 1305 1346
2674 2 1299 1307 1350
2675 2 1300 1309 1350
2676 2 1299 1311 1346
2677 2 1300 1314 1416
2678 2 1299 1316 1700
2679 3 1299 1318 1300
2680 3 1371 1319 1300
2681 4 32 1322 1411
2682 5 32 1322 1354
2683 5 1411 1322 1354
2684 4 894 1324 1343
2685 5 894 1324 1356
2686 5 1343 1324 1356
2687 4 459 1325 1345
2688 5 459 1325 1357
2689 5 1345 1325 1357
2690 4 1321 1327 1349
2691 5 1321 1327 1359
2692 5 1349 1327 1359
2693 4 1335 1329 1349
2694 5 1335 1329 1361
2695 5 1349 1329 1361
2696 4 469 1331 1345
2697 5 469 1331 1363
2698 5 1345 1331 1363
2699 4 900 1334 1415
2700 5 900 1334 1366
2701 5 1415 1334 1366
2702 4 34 1336 1339
2703 5 34 1336 1368
2704 5 1339 1336 1368
2705 7 1302 1340 1388
2706 8 1302 1340 1411
2707 8 1388 1340 1411
2708 4 1324 1343 1694
2709 6 1324 1343 1344
2710 6 1694 1343 1344
2711 7 1304 1344 1674
2712 8 1304 1344 1343
2713 8 1674 1344 1343
2714 4 1325 1345 1331
2715 6 1325 1345 1346
2716 6 1331 1345 1346
2717 7 1305 1346 1311
2718 8 1305 1346 1345
2719 8 1311 1346 1345
2720 4 1327 1349 1329
2721 6 1327 1349 1350
2722 6 1329 1349 1350
2723 7 1307 1350 1309
2724 8 1307 1350 1349
2725 8 1309 1350 1349
2726 1 1376 1371 1379
2727 1 1376 1371 1383
2728 1 1376 1371 1388
2729 1 1376 1371 1390
2730 1 1376 1371 1319
2731 1 1379 1371 1383
2732 1 1379 1371 1388
2733 1 1379 1371 1390
2734 1 1379 1371 1319
2735 1 1383 1371 1388
2736 1 1383 1371 1390
2737 1 1383 1371 1319
2738 1 1388 1371 1390
2739 1 1388 1371 1319
2740 1 1390 1371 1319
2741 2 1371 1376 1416
2742 2 1371 1379 1422
2743 2 1371 1383 1418
2744 2 1371 1388 1340
2745 3 1371 1390 1372
2746 4 966 1396 1415
2747 5 966 1396 1428
2748 5 1415 1396 1428
2749 4 1393 1399 1421
2750 5 1393 1399 1431
2751 5 1421 1399 1431
2752 4 541 1403 1417
2753 5 541 1403 1435
2754 5 1417 1403 1435
2755 4 106 1408 1411
2756 5 106 1408 1440
2757 5 1411 1408 1440
2758 4 1322 1411 1408
2759 6 1322 1411 1340
2760 6 1408 1411 1340
2761 4 1396 1415 1334
2762 6 1396 1415 1416
2763 6 1334 1415 1416
2764 7 1376 1416 1314
2765 8 1376 1416 1415
2766 8 1314 1416 1415
2767 4 1397 1417 1403
2768 6 1397 1417 1418
2769 6 1403 1417 1418
2770 7 1377 1418 1383
2771 8 1377 1418 1417
2772 8 1383 1418 1417
2773 1 1374 1372 1377
2774 1 1374 1372 1381
2775 1 1374 1372 1386
2776 1 1374 1372 1390
2777 1 1374 1372 1391
2778 1 1377 1372 1381
2779 1 1377 1372 1386
2780 1 1377 1372 1390
2781 1 1377 1372 1391
2782 1 1381 1372 1386
2783 1 1381 1372 1390
2784 1 1381 1372 1391
2785 1 1386 1372 1390
2786 1 1386 1372 1391
2787 1 1390 1372 1391
2788 2 1372 1374 1412
2789 2 1372 1377 1418
2790 2 1372 1381 1422
2791 2 1372 1386 1488
2792 3 1443 1391 1372
2793 4 104 1394 1483
2794 5 104 1394 1426
2795 5 1483 1394 1426
2796 4 531 1397 1417
2797 5 531 1397 1429
2798 5 1417 1397 1429
2799 4 1407 1401 1421
2800 5 1407 1401 1433
2801 5 1421 1401 1433
2802 4 972 1406 1487
2803 5 972 1406 1438
2804 5 1487 1406 1438
2805 7 1374 1412 1460
2806 8 1374 1412 1483
2807 8 1460 1412 1483
2808 4 1399 1421 1401
2809 6 1399 1421 1422
2810 6 1401 1421 1422
2811 7 1379 1422 1381
2812 8 1379 1422 1421
2813 8 1381 1422 1421
2814 1 1448 1443 1451
2815 1 1448 1443 1455
2816 1 1448 1443 1460
2817 1 1448 1443 1462
2818 1 1448 1443 1391
2819 1 1451 1443 1455
2820 1 1451 1443 1460
2821 1 1451 1443 1462
2822 1 1451 1443 1391
2823 1 1455 1443 1460
2824 1 1455 1443 1462
2825 1 1455 1443 1391
2826 1 1460 1443 1462
2827 1 1460 1443 1391
2828 1 1462 1443 1391
2829 1 1446 1444 1449
2830 1 1446 1444 1453
2831 1 1446 1444 1458
2832 1 1446 1444 1462
2833 1 1446 1444 1463
2834 1 1449 1444 1453
2835 1 1449 1444 1458
2836 1 1449 1444 1462
2837 1 1449 1444 1463
2838 1 1453 1444 1458
2839 1 1453 1444 1462
2840 1 1453 1444 1463
2841 1 1458 1444 1462
2842 1 1458 1444 1463
2843 1 1462 1444 1463
2844 2 1444 1446 1484
2845 2 1443 1448 1488
2846 2 1444 1449 1490
2847 2 1443 1451 1494
2848 2 1444 1453 1494
2849 2 1443 1455 1490
2850 2 1444 1458 1560
2851 2 1443 1460 1412
2852 3 1443 1462 1444
2853 3 1515 1463 1444
2854 4 176 1466 1555
2855 5 176 1466 1498
2856 5 1555 1466 1498
2857 4 1038 1468 1487
2858 5 1038 1468 1500
2859 5 1487 1468 1500
2860 4 603 1469 1489
2861 5 603 1469 1501
2862 5 1489 1469 1501
2863 4 1465 1471 1493
2864 5 1465 1471 1503
2865 5 1493 1471 1503
2866 4 1479 1473 1493
2867 5 1479 1473 1505
2868 5 1493 1473 1505
2869 4 613 1475 1489
2870 5 613 1475 1507
2871 5 1489 1475 1507
2872 4 1044 1478 1559
2873 5 1044 1478 1510
2874 5 1559 1478 1510
2875 4 178 1480 1483
2876 5 178 1480 1512
2877 5 1483 1480 1512
2878 4 1394 1483 1480
2879 6 1394 1483 1412
2880 6 1480 1483 1412
2881 7 1446 1484 1532
2882 8 1446 1484 1555
2883 8 1532 1484 1555
2884 4 1468 1487 1406
2885 6 1468 1487 1488
2886 6 1406 1487 1488
2887 7 1448 1488 1386
2888 8 1448 1488 1487
2889 8 1386 1488 1487
2890 4 1469 1489 1475
2891 6 1469 1489 1490
2892 6 1475 1489 1490
2893 7 1449 1490 1455
2894 8 1449 1490 1489
2895 8 1455 1490 1489
2896 4 1471 1493 1473
2897 6 1471 1493 1494
2898 6 1473 1493 1494
2899 7 1451 1494 1453
2900 8 1451 1494 1493
2901 8 1453 1494 1493
2902 4 1466 1555 1552
2903 6 1466 1555 1484
2904 6 1552 1555 1484
2905 1 1520 1515 1523
2906 1 1520 1515 1527
2907 1 1520 1515 1532
2908 1 1520 1515 1534
2909 1 1520 1515 1463
2910 1 1523 1515 1527
2911 1 1523 1515 1532
2912 1 1523 1515 1534
2913 1 1523 1515 1463
2914 1 1527 1515 1532
2915 1 1527 1515 1534
2916 1 1527 1515 1463
2917 1 1532 1515 1534
2918 1 1532 1515 1463
2919 1 1534 1515 1463
2920 1 1518 1516 1521
2921 1 1518 1516 1525
2922 1 1518 1516 1530
2923 1 1518 1516 1534
2924 1 1518 1516 1535
2925 1 1521 1516 1525
2926 1 1521 1516 1530
2927 1 1521 1516 1534
2928 1 1521 1516 1535
2929 1 1525 1516 1530
2930 1 1525 1516 1534
2931 1 1525 1516 1535
2932 1 1530 1516 1534
2933 1 1530 1516 1535
2934 1 1534 1516 1535
2935 2 1516 1518 1556
2936 2 1515 1520 1560
2937 2 1516 1521 1562
2938 2 1515 1523 1566
2939 2 1516 1525 1566
2940 2 1515 1527 1562
2941 2 1516 1530 1632
2942 2 1515 1532 1484
2943 3 1515 1534 1516
2944 3 1587 1535 1516
2945 4 248 1538 1627
2946 5 248 1538 1570
2947 5 1627 1538 1570
2948 4 1110 1540 1559
2949 5 1110 1540 1572
2950 5 1559 1540 1572
2951 4 675 1541 1561
2952 5 675 1541 1573
2953 5 1561 1541 1573
2954 4 1537 1543 1565
2955 5 1537 1543 1575
2956 5 1565 1543 1575
2957 4 1551 1545 1565
2958 5 1551 1545 1577
2959 5 1565 1545 1577
2960 4 685 1547 1561
2961 5 685 1547 1579
2962 5 1561 1547 1579
2963 4 1116 1550 1631
2964 5 1116 1550 1582
2965 5 1631 1550 1582
2966 4 250 1552 1555
2967 5 250 1552 1584
2968 5 1555 1552 1584
2969 7 1518 1556 1604
2970 8 1518 1556 1627
2971 8 1604 1556 1627
2972 4 1540 1559 1478
2973 6 1540 1559 1560
2974 6 1478 1559 1560
2975 7 1520 1560 1458
2976 8 1520 1560 1559
2977 8 1458 1560 1559
2978 4 1541 1561 1547
2979 6 1541 1561 1562
2980 6 1547 1561 1562
2981 7 1521 1562 1527
2982 8 1521 1562 1561
2983 8 1527 1562 1561
2984 4 1543 1565 1545
2985 6 1543 1565 1566
2986 6 1545 1565 1566
2987 7 1523 1566 1525
2988 8 1523 1566 1565
2989 8 1525 1566 1565
2990 1 1592 1587 1595
2991 1 1592 1587 1599
2992 1 1592 1587 1604
2993 1 1592 1587 1606
2994 1 1592 1587 1535
2995 1 1595 1587 1599
2996 1 1595 1587 1604
2997 1 1595 1587 1606
2998 1 1595 1587 1535
2999 1 1599 1587 1604
3000 1 1599 1587 1606
3001 1 1599 1587 1535
3002 1 1604 1587 1606
3003 1 1604 1587 1535
3004 1 1606 1587 1535
3005 2 1587 1592 1632
3006 2 1587 1595 1638
3007 2 1587 1599 1634
3008 2 1587 1604 1556
3009 3 1587 1606 1588
3010 4 1182 1612 1631
3011 5 1182 1612 1644
3012 5 1631 1612 1644
3013 4 1609 1615 1637
3014 5 1609 1615 1647
3015 5 1637 1615 1647
3016 4 757 1619 1633
3017 5 757 1619 1651
3018 5 1633 1619 1651
3019 4 322 1624 1627
3020 5 322 1624 1656
3021 5 1627 1624 1656
3022 4 1538 1627 1624
3023 6 1538 1627 1556
3024 6 1624 1627 1556
3025 4 1612 1631 1550
3026 6 1612 1631 1632
3027 6 1550 1631 1632
3028 7 1592 1632 1530
3029 8 1592 1632 1631
3030 8 1530 1632 1631
3031 4 1613 1633 1619
3032 6 1613 1633 1634
3033 6 1619 1633 1634
3034 7 1593 1634 1599
3035 8 1593 1634 1633
3036 8 1599 1634 1633
3037 4 1682 1339 1336
3038 6 1682 1339 1700
3039 6 1336 1339 1700
3040 1 1590 1588 1593
3041 1 1590 1588 1597
3042 1 1590 1588 1602
3043 1 1590 1588 1606
3044 1 1590 1588 1607
3045 1 1593 1588 1597
3046 1 1593 1588 1602
3047 1 1593 1588 1606
3048 1 1593 1588 1607
3049 1 1597 1588 1602
3050 1 1597 1588 1606
3051 1 1597 1588 1607
3052 1 1602 1588 1606
3053 1 1602 1588 1607
3054 1 1606 1588 1607
3055 2 1588 1590 1628
3056 2 1588 1593 1634
3057 2 1588 1597 1638
3058 2 1588 1602 1704
3059 3 1659 1607 1588
3060 4 320 1610 1699
3061 5 320 1610 1642
3062 5 1699 1610 1642
3063 4 747 1613 1633
3064 5 747 1613 1645
3065 5 1633 1613 1645
3066 4 1623 1617 1637
3067 5 1623 1617 1649
3068 5 1637 1617 1649
3069 4 1188 1622 1703
3070 5 1188 1622 1654
3071 5 1703 1622 1654
3072 7 1590 1628 1676
3073 8 1590 1628 1699
3074 8 1676 1628 1699
3075 4 1615 1637 1617
3076 6 1615 1637 1638
3077 6 1617 1637 1638
3078 7 1595 1638 1597
3079 8 1595 1638 1637
3080 8 1597 1638 1637
3081 1 1664 1659 1667
3082 1 1664 1659 1671
3083 1 1664 1659 1676
3084 1 1664 1659 1678
3085 1 1664 1659 1607
3086 1 1667 1659 1671
3087 1 1667 1659 1676
3088 1 1667 1659 1678
3089 1 1667 1659 1607
3090 1 1671 1659 1676
3091 1 1671 1659 1678
3092 1 1671 1659 1607
3093 1 1676 1659 1678
3094 1 1676 1659 1607
3095 1 1678 1659 1607
3096 1 1662 1660 1665
3097 1 1662 1660 1669
3098 1 1662 1660 1674
3099 1 1662 1660 1678
3100 1 1662 1660 1679
3101 1 1665 1660 1669
3102 1 1665 1660 1674
3103 1 1665 1660 1678
3104 1 1665 1660 1679
3105 1 1669 1660 1674
3106 1 1669 1660 1678
3107 1 1669 1660 1679
3108 1 1674 1660 1678
3109 1 1674 1660 1679
3110 1 1678 1660 1679
3111 2 1660 1662 1700
3112 2 1659 1664 1704
3113 2 1660 1665 1706
3114 2 1659 1667 1710
3115 2 1660 1669 1710
3116 2 1659 1671 1706
3117 2 1660 1674 1344
3118 2 1659 1676 1628
3119 3 1659 1678 1660
3120 3 1299 1679 1660
3121 4 392 1682 1339
3122 5 392 1682 1714
3123 5 1339 1682 1714
3124 4 1254 1684 1703
3125 5 1254 1684 1716
3126 5 1703 1684 1716
3127 4 819 1685 1705
3128 5 819 1685 1717
3129 5 1705 1685 1717
3130 4 1681 1687 1709
3131 5 1681 1687 1719
3132 5 1709 1687 1719
3133 4 1695 1689 1709
3134 5 1695 1689 1721
3135 5 1709 1689 1721
3136 4 829 1691 1705
3137 5 829 1691 1723
3138 5 1705 1691 1723
3139 4 1260 1694 1343
3140 5 1260 1694 1726
3141 5 1343 1694 1726
3142 4 394 1696 1699
3143 5 394 1696 1728
3144 5 1699 1696 1728
3145 4 1610 1699 1696
3146 6 1610 1699 1628
3147 6 1696 1699 1628
3148 7 1662 1700 1316
3149 8 1662 1700 1339
3150 8 1316 1700 1339
3151 4 1684 1703 1622
3152 6 1684 1703 1704
3153 6 1622 1703 1704
3154 7 1664 1704 1602
3155 8 1664 1704 1703
3156 8 1602 1704 1703
3157 4 1685 1705 1691
3158 6 1685 1705 1706
3159 6 1691 1705 1706
3160 7 1665 1706 1671
3161 8 1665 1706 1705
3162 8 1671 1706 1705
3163 4 1687 1709 1689
3164 6 1687 1709 1710
3165 6 1689 1709 1710
3166 7 1667 1710 1669
3167 8 1667 1710 1709
3168 8 1669 1710 1709
3169 1 869 865 874
3170 1 869 865 878
3171 1 869 865 881
3172 1 869 865 1245
3173 1 869 865 888
3174 1 874 865 878
3175 1 874 865 881
3176 1 874 865 1245
3177 1 874 865 888
3178 1 878 865 881
3179 1 878 865 1245
3180 1 878 865 888
3181 1 881 865 1245
3182 1 881 865 888
3183 1 1245 865 888
3184 1 871 866 876
3185 1 871 866 880
3186 1 871 866 883
3187 1 871 866 885
3188 1 871 866 888
3189 1 876 866 880
3190 1 876 866 883
3191 1 876 866 885
3192 1 876 866 888
3193 1 880 866 883
3194 1 880 866 885
3195 1 880 866 888
3196 1 883 866 885
3197 1 883 866 888
3198 1 885 866 888
3199 2 865 869 906
3200 2 866 871 910
3201 2 865 874 1276
3202 2 866 876 992
3203 2 865 878 920
3204 2 866 880 916
3205 2 865 881 910
3206 2 866 883 906
3207 3 937 885 866
3208 3 865 888 866
3209 4 895 889 905
3210 5 895 889 921
3211 5 905 889 921
3212 4 29 891 909
3213 5 29 891 923
3214 5 909 891 923
3215 4 1324 894 915
3216 5 1324 894 926
3217 5 915 894 926
3218 4 458 896 991
3219 5 458 896 928
3220 5 991 896 928
3221 4 472 898 919
3222 5 472 898 930
3223 5 919 898 930
3224 4 1334 900 987
3225 5 1334 900 932
3226 5 987 900 932
3227 4 35 901 909
3228 5 35 901 933
3229 5 909 901 933
3230 4 897 903 905
3231 5 897 903 935
3232 5 905 903 935
3233 4 889 905 903
3234 6 889 905 906
3235 6 903 905 906
3236 7 869 906 883
3237 8 869 906 905
3238 8 883 906 905
3239 4 891 909 901
3240 6 891 909 910
3241 6 901 909 910
3242 7 871 910 881
3243 8 871 910 909
3244 8 881 910 909
3245 7 946 916 880
3246 8 946 916 987
3247 8 880 916 987
3248 4 1256 919 898
3249 6 1256 919 920
3250 6 898 919 920
3251 7 1236 920 878
3252 8 1236 920 919
3253 8 878 920 919
3254 1 941 937 946
3255 1 941 937 950
3256 1 941 937 953
3257 1 941 937 885
3258 1 941 937 960
3259 1 946 937 950
3260 1 946 937 953
3261 1 946 937 885
3262 1 946 937 960
3263 1 950 937 953
3264 1 950 937 885
3265 1 950 937 960
3266 1 953 937 885
3267 1 953 937 960
3268 1 885 937 960
3269 2 937 941 978
3270 2 937 946 916
3271 2 937 950 992
3272 2 937 953 982
3273 3 937 960 938
3274 4 967 961 977
3275 5 967 961 993
3276 5 977 961 993
3277 4 1396 966 987
3278 5 1396 966 998
3279 5 987 966 998
3280 4 544 970 991
3281 5 544 970 1002
3282 5 991 970 1002
3283 4 107 973 981
3284 5 107 973 1005
3285 5 981 973 1005
3286 4 961 977 975
3287 6 961 977 978
3288 6 975 977 978
3289 7 941 978 955
3290 8 941 978 977
3291 8 955 978 977
3292 4 966 987 900
3293 6 966 987 916
3294 6 900 987 916
3295 4 896 991 970
3296 6 896 991 992
3297 6 970 991 992
3298 7 876 992 950
3299 8 876 992 991
3300 8 950 992 991
3301 1 943 938 948
3302 1 943 938 952
3303 1 943 938 955
3304 1 943 938 957
3305 1 943 938 960
3306 1 948 938 952
3307 1 948 938 955
3308 1 948 938 957
3309 1 948 938 960
3310 1 952 938 955
3311 1 952 938 957
3312 1 952 938 960
3313 1 955 938 957
3314 1 955 938 960
3315 1 957 938 960
3316 2 938 943 982
3317 2 938 948 1064
3318 2 938 952 988
3319 2 938 955 978
3320 3 1009 957 938
3321 4 101 963 981
3322 5 101 963 995
3323 5 981 963 995
3324 4 530 968 1063
3325 5 530 968 1000
3326 5 1063 968 1000
3327 4 1406 972 1059
3328 5 1406 972 1004
3329 5 1059 972 1004
3330 4 969 975 977
3331 5 969 975 1007
3332 5 977 975 1007
3333 4 963 981 973
3334 6 963 981 982
3335 6 973 981 982
3336 7 943 982 953
3337 8 943 982 981
3338 8 953 982 981
3339 7 1018 988 952
3340 8 1018 988 1059
3341 8 952 988 1059
3342 1 1013 1009 1018
3343 1 1013 1009 1022
3344 1 1013 1009 1025
3345 1 1013 1009 957
3346 1 1013 1009 1032
3347 1 1018 1009 1022
3348 1 1018 1009 1025
3349 1 1018 1009 957
3350 1 1018 1009 1032
3351 1 1022 1009 1025
3352 1 1022 1009 957
3353 1 1022 1009 1032
3354 1 1025 1009 957
3355 1 1025 1009 1032
3356 1 957 1009 1032
3357 1 1015 1010 1020
3358 1 1015 1010 1024
3359 1 1015 1010 1027
3360 1 1015 1010 1029
3361 1 1015 1010 1032
3362 1 1020 1010 1024
3363 1 1020 1010 1027
3364 1 1020 1010 1029
3365 1 1020 1010 1032
3366 1 1024 1010 1027
3367 1 1024 1010 1029
3368 1 1024 1010 1032
3369 1 1027 1010 1029
3370 1 1027 1010 1032
3371 1 1029 1010 1032
3372 2 1009 1013 1050
3373 2 1010 1015 1054
3374 2 1009 1018 988
3375 2 1010 1020 1136
3376 2 1009 1022 1064
3377 2 1010 1024 1060
3378 2 1009 1025 1054
3379 2 1010 1027 1050
3380 3 1081 1029 1010
3381 3 1009 1032 1010
3382 4 1039 1033 1049
3383 5 1039 1033 1065
3384 5 1049 1033 1065
3385 4 173 1035 1053
3386 5 173 1035 1067
3387 5 1053 1035 1067
3388 4 1468 1038 1059
3389 5 1468 1038 1070
3390 5 1059 1038 1070
3391 4 602 1040 1135
3392 5 602 1040 1072
3393 5 1135 1040 1072
3394 4 616 1042 1063
3395 5 616 1042 1074
3396 5 1063 1042 1074
3397 4 1478 1044 1131
3398 5 1478 1044 1076
3399 5 1131 1044 1076
3400 4 179 1045 1053
3401 5 179 1045 1077
3402 5 1053 1045 1077
3403 4 1041 1047 1049
3404 5 1041 1047 1079
3405 5 1049 1047 1079
3406 4 1033 1049 1047
3407 6 1033 1049 1050
3408 6 1047 1049 1050
3409 7 1013 1050 1027
3410 8 1013 1050 1049
3411 8 1027 1050 1049
3412 4 1035 1053 1045
3413 6 1035 1053 1054
3414 6 1045 1053 1054
3415 7 1015 1054 1025
3416 8 1015 1054 1053
3417 8 1025 1054 1053
3418 4 1038 1059 972
3419 6 1038 1059 988
3420 6 972 1059 988
3421 7 1090 1060 1024
3422 8 1090 1060 1131
3423 8 1024 1060 1131
3424 4 968 1063 1042
3425 6 968 1063 1064
3426 6 1042 1063 1064
3427 7 948 1064 1022
3428 8 948 1064 1063
3429 8 1022 1064 1063
3430 4 1110 1131 1044
3431 6 1110 1131 1060
3432 6 1044 1131 1060
3433 1 1085 1081 1090
3434 1 1085 1081 1094
3435 1 1085 1081 1097
3436 1 1085 1081 1029
3437 1 1085 1081 1104
3438 1 1090 1081 1094
3439 1 1090 1081 1097
3440 1 1090 1081 1029
3441 1 1090 1081 1104
3442 1 1094 1081 1097
3443 1 1094 1081 1029
3444 1 1094 1081 1104
3445 1 1097 1081 1029
3446 1 1097 1081 1104
3447 1 1029 1081 1104
3448 1 1087 1082 1092
3449 1 1087 1082 1096
3450 1 1087 1082 1099
3451 1 1087 1082 1101
3452 1 1087 1082 1104
3453 1 1092 1082 1096
3454 1 1092 1082 1099
3455 1 1092 1082 1101
3456 1 1092 1082 1104
3457 1 1096 1082 1099
3458 1 1096 1082 1101
3459 1 1096 1082 1104
3460 1 1099 1082 1101
3461 1 1099 1082 1104
3462 1 1101 1082 1104
3463 2 1081 1085 1122
3464 2 1082 1087 1126
3465 2 1081 1090 1060
3466 2 1082 1092 1208
3467 2 1081 1094 1136
3468 2 1082 1096 1132
3469 2 1081 1097 1126
3470 2 1082 1099 1122
3471 3 1153 1101 1082
3472 3 1081 1104 1082
3473 4 1111 1105 1121
3474 5 1111 1105 1137
3475 5 1121 1105 1137
3476 4 245 1107 1125
3477 5 245 1107 1139
3478 5 1125 1107 1139
3479 4 1540 1110 1131
3480 5 1540 1110 1142
3481 5 1131 1110 1142
3482 4 674 1112 1207
3483 5 674 1112 1144
3484 5 1207 1112 1144
3485 4 688 1114 1135
3486 5 688 1114 1146
3487 5 1135 1114 1146
3488 4 1550 1116 1203
3489 5 1550 1116 1148
3490 5 1203 1116 1148
3491 4 251 1117 1125
3492 5 251 1117 1149
3493 5 1125 1117 1149
3494 4 1113 1119 1121
3495 5 1113 1119 1151
3496 5 1121 1119 1151
3497 4 1105 1121 1119
3498 6 1105 1121 1122
3499 6 1119 1121 1122
3500 7 1085 1122 1099
3501 8 1085 1122 1121
3502 8 1099 1122 1121
3503 4 1107 1125 1117
3504 6 1107 1125 1126
3505 6 1117 1125 1126
3506 7 1087 1126 1097
3507 8 1087 1126 1125
3508 8 1097 1126 1125
3509 7 1162 1132 1096
3510 8 1162 1132 1203
3511 8 1096 1132 1203
3512 4 1040 1135 1114
3513 6 1040 1135 1136
3514 6 1114 1135 1136
3515 7 1020 1136 1094
3516 8 1020 1136 1135
3517 8 1094 1136 1135
3518 1 1157 1153 1162
3519 1 1157 1153 1166
3520 1 1157 1153 1169
3521 1 1157 1153 1101
3522 1 1157 1153 1176
3523 1 1162 1153 1166
3524 1 1162 1153 1169
3525 1 1162 1153 1101
3526 1 1162 1153 1176
3527 1 1166 1153 1169
3528 1 1166 1153 1101
3529 1 1166 1153 1176
3530 1 1169 1153 1101
3531 1 1169 1153 1176
3532 1 1101 1153 1176
3533 2 1153 1157 1194
3534 2 1153 1162 1132
3535 2 1153 1166 1208
3536 2 1153 1169 1198
3537 3 1153 1176 1154
3538 4 1183 1177 1193
3539 5 1183 1177 1209
3540 5 1193 1177 1209
3541 4 1612 1182 1203
3542 5 1612 1182 1214
3543 5 1203 1182 1214
3544 4 760 1186 1207
3545 5 760 1186 1218
3546 5 1207 1186 1218
3547 4 323 1189 1197
3548 5 323 1189 1221
3549 5 1197 1189 1221
3550 4 1177 1193 1191
3551 6 1177 1193 1194
3552 6 1191 1193 1194
3553 7 1157 1194 1171
3554 8 1157 1194 1193
3555 8 1171 1194 1193
3556 4 1182 1203 1116
3557 6 1182 1203 1132
3558 6 1116 1203 1132
3559 4 1112 1207 1186
3560 6 1112 1207 1208
3561 6 1186 1207 1208
3562 7 1092 1208 1166
3563 8 1092 1208 1207
3564 8 1166 1208 1207
3565 4 894 915 1260
3566 6 894 915 1276
3567 6 1260 915 1276
3568 1 1159 1154 1164
3569 1 1159 1154 1168
3570 1 1159 1154 1171
3571 1 1159 1154 1173
3572 1 1159 1154 1176
3573 1 1164 1154 1168
3574 1 1164 1154 1171
3575 1 1164 1154 1173
3576 1 1164 1154 1176
3577 1 1168 1154 1171
3578 1 1168 1154 1173
3579 1 1168 1154 1176
3580 1 1171 1154 1173
3581 1 1171 1154 1176
3582 1 1173 1154 1176
3583 2 1154 1159 1198
3584 2 1154 1164 1280
3585 2 1154 1168 1204
3586 2 1154 1171 1194
3587 3 1225 1173 1154
3588 4 317 1179 1197
3589 5 317 1179 1211
3590 5 1197 1179 1211
3591 4 746 1184 1279
3592 5 746 1184 1216
3593 5 1279 1184 1216
3594 4 1622 1188 1275
3595 5 1622 1188 1220
3596 5 1275 1188 1220
3597 4 1185 1191 1193
3598 5 1185 1191 1223
3599 5 1193 1191 1223
3600 4 1179 1197 1189
3601 6 1179 1197 1198
3602 6 1189 1197 1198
3603 7 1159 1198 1169
3604 8 1159 1198 1197
3605 8 1169 1198 1197
3606 7 1234 1204 1168
3607 8 1234 1204 1275
3608 8 1168 1204 1275
3609 1 1229 1225 1234
3610 1 1229 1225 1238
3611 1 1229 1225 1241
3612 1 1229 1225 1173
3613 1 1229 1225 1248
3614 1 1234 1225 1238
3615 1 1234 1225 1241
3616 1 1234 1225 1173
3617 1 1234 1225 1248
3618 1 1238 1225 1241
3619 1 1238 1225 1173
3620 1 1238 1225 1248
3621 1 1241 1225 1173
3622 1 1241 1225 1248
3623 1 1173 1225 1248
3624 1 1231 1226 1236
3625 1 1231 1226 1240
3626 1 1231 1226 1243
3627 1 1231 1226 1245
3628 1 1231 1226 1248
3629 1 1236 1226 1240
3630 1 1236 1226 1243
3631 1 1236 1226 1245
3632 1 1236 1226 1248
3633 1 1240 1226 1243
3634 1 1240 1226 1245
3635 1 1240 1226 1248
3636 1 1243 1226 1245
3637 1 1243 1226 1248
3638 1 1245 1226 1248
3639 2 1225 1229 1266
3640 2 1226 1231 1270
3641 2 1225 1234 1204
3642 2 1226 1236 920
3643 2 1225 1238 1280
3644 2 1226 1240 1276
3645 2 1225 1241 1270
3646 2 1226 1243 1266
3647 3 865 1245 1226
3648 3 1225 1248 1226
3649 4 1255 1249 1265
3650 5 1255 1249 1281
3651 5 1265 1249 1281
3652 4 389 1251 1269
3653 5 389 1251 1283
3654 5 1269 1251 1283
3655 4 1684 1254 1275
3656 5 1684 1254 1286
3657 5 1275 1254 1286
3658 4 818 1256 919
3659 5 818 1256 1288
3660 5 919 1256 1288
3661 4 832 1258 1279
3662 5 832 1258 1290
3663 5 1279 1258 1290
3664 4 1694 1260 915
3665 5 1694 1260 1292
3666 5 915 1260 1292
3667 4 395 1261 1269
3668 5 395 1261 1293
3669 5 1269 1261 1293
3670 4 1257 1263 1265
3671 5 1257 1263 1295
3672 5 1265 1263 1295
3673 4 1249 1265 1263
3674 6 1249 1265 1266
3675 6 1263 1265 1266
3676 7 1229 1266 1243
3677 8 1229 1266 1265
3678 8 1243 1266 1265
3679 4 1251 1269 1261
3680 6 1251 1269 1270
3681 6 1261 1269 1270
3682 7 1231 1270 1241
3683 8 1231 1270 1269
3684 8 1241 1270 1269
3685 4 1254 1275 1188
3686 6 1254 1275 1204
3687 6 1188 1275 1204
3688 7 874 1276 1240
3689 8 874 1276 915
3690 8 1240 1276 915
3691 4 1184 1279 1258
3692 6 1184 1279 1280
3693 6 1258 1279 1280
3694 7 1164 1280 1238
3695 8 1164 1280 1279
3696 8 1238 1280 1279
3697 1 1301 1297 1306
3698 1 1301 1297 1310
3699 1 1301 1297 1313
3700 1 1301 1297 1677
3701 1 1301 1297 1320
3702 1 1306 1297 1310
3703 1 1306 1297 1313
3704 1 1306 1297 1677
3705 1 1306 1297 1320
3706 1 1310 1297 1313
3707 1 1310 1297 1677
3708 1 1310 1297 1320
3709 1 1313 1297 1677
3710 1 1313 1297 1320
3711 1 1677 1297 1320
3712 1 1303 1298 1308
3713 1 1303 1298 1312
3714 1 1303 1298 1315
3715 1 1303 1298 1317
3716 1 1303 1298 1320
3717 1 1308 1298 1312
3718 1 1308 1298 1315
3719 1 1308 1298 1317
3720 1 1308 1298 1320
3721 1 1312 1298 1315
3722 1 1312 1298 1317
3723 1 1312 1298 1320
3724 1 1315 1298 1317
3725 1 1315 1298 1320
3726 1 1317 1298 1320
3727 2 1297 1301 1338
3728 2 1298 1303 1342
3729 2 1297 1306 1708
3730 2 1298 1308 1424
3731 2 1297 1310 1352
3732 2 1298 1312 1348
3733 2 1297 1313 1342
3734 2 1298 1315 1338
3735 3 1369 1317 1298
3736 3 1297 1320 1298
3737 4 1327 1321 1337
3738 5 1327 1321 1353
3739 5 1337 1321 1353
3740 4 461 1323 1341
3741 5 461 1323 1355
3742 5 1341 1323 1355
3743 4 892 1326 1347
3744 5 892 1326 1358
3745 5 1347 1326 1358
3746 4 26 1328 1423
3747 5 26 1328 1360
3748 5 1423 1328 1360
3749 4 40 1330 1351
3750 5 40 1330 1362
3751 5 1351 1330 1362
3752 4 902 1332 1419
3753 5 902 1332 1364
3754 5 1419 1332 1364
3755 4 467 1333 1341
3756 5 467 1333 1365
3757 5 1341 1333 1365
3758 4 1329 1335 1337
3759 5 1329 1335 1367
3760 5 1337 1335 1367
3761 4 1321 1337 1335
3762 6 1321 1337 1338
3763 6 1335 1337 1338
3764 7 1301 1338 1315
3765 8 1301 1338 1337
3766 8 1315 1338 1337
3767 4 1323 1341 1333
3768 6 1323 1341 1342
3769 6 1333 1341 1342
3770 7 1303 1342 1313
3771 8 1303 1342 1341
3772 8 1313 1342 1341
3773 7 1378 1348 1312
3774 8 1378 1348 1419
3775 8 1312 1348 1419
3776 4 1688 1351 1330
3777 6 1688 1351 1352
3778 6 1330 1351 1352
3779 7 1668 1352 1310
3780 8 1668 1352 1351
3781 8 1310 1352 1351
3782 1 1373 1369 1378
3783 1 1373 1369 1382
3784 1 1373 1369 1385
3785 1 1373 1369 1317
3786 1 1373 1369 1392
3787 1 1378 1369 1382
3788 1 1378 1369 1385
3789 1 1378 1369 1317
3790 1 1378 1369 1392
3791 1 1382 1369 1385
3792 1 1382 1369 1317
3793 1 1382 1369 1392
3794 1 1385 1369 1317
3795 1 1385 1369 1392
3796 1 1317 1369 1392
3797 2 1369 1373 1410
3798 2 1369 1378 1348
3799 2 1369 1382 1424
3800 2 1369 1385 1414
3801 3 1369 1392 1370
3802 4 1399 1393 1409
3803 5 1399 1393 1425
3804 5 1409 1393 1425
3805 4 964 1398 1419
3806 5 964 1398 1430
3807 5 1419 1398 1430
3808 4 112 1402 1423
3809 5 112 1402 1434
3810 5 1423 1402 1434
3811 4 539 1405 1413
3812 5 539 1405 1437
3813 5 1413 1405 1437
3814 4 1393 1409 1407
3815 6 1393 1409 1410
3816 6 1407 1409 1410
3817 7 1373 1410 1387
3818 8 1373 1410 1409
3819 8 1387 1410 1409
3820 4 1398 1419 1332
3821 6 1398 1419 1348
3822 6 1332 1419 1348
3823 4 1328 1423 1402
3824 6 1328 1423 1424
3825 6 1402 1423 1424
3826 7 1308 1424 1382
3827 8 1308 1424 1423
3828 8 1382 1424 1423
3829 1 1375 1370 1380
3830 1 1375 1370 1384
3831 1 1375 1370 1387
3832 1 1375 1370 1389
3833 1 1375 1370 1392
3834 1 1380 1370 1384
3835 1 1380 1370 1387
3836 1 1380 1370 1389
3837 1 1380 1370 1392
3838 1 1384 1370 1387
3839 1 1384 1370 1389
3840 1 1384 1370 1392
3841 1 1387 1370 1389
3842 1 1387 1370 1392
3843 1 1389 1370 1392
3844 2 1370 1375 1414
3845 2 1370 1380 1496
3846 2 1370 1384 1420
3847 2 1370 1387 1410
3848 3 1441 1389 1370
3849 4 533 1395 1413
3850 5 533 1395 1427
3851 5 1413 1395 1427
3852 4 98 1400 1495
3853 5 98 1400 1432
3854 5 1495 1400 1432
3855 4 974 1404 1491
3856 5 974 1404 1436
3857 5 1491 1404 1436
3858 4 1401 1407 1409
3859 5 1401 1407 1439
3860 5 1409 1407 1439
3861 4 1395 1413 1405
3862 6 1395 1413 1414
3863 6 1405 1413 1414
3864 7 1375 1414 1385
3865 8 1375 1414 1413
3866 8 1385 1414 1413
3867 7 1450 1420 1384
3868 8 1450 1420 1491
3869 8 1384 1420 1491
3870 1 1445 1441 1450
3871 1 1445 1441 1454
3872 1 1445 1441 1457
3873 1 1445 1441 1389
3874 1 1445 1441 1464
3875 1 1450 1441 1454
3876 1 1450 1441 1457
3877 1 1450 1441 1389
3878 1 1450 1441 1464
3879 1 1454 1441 1457
3880 1 1454 1441 1389
3881 1 1454 1441 1464
3882 1 1457 1441 1389
3883 1 1457 1441 1464
3884 1 1389 1441 1464
3885 1 1447 1442 1452
3886 1 1447 1442 1456
3887 1 1447 1442 1459
3888 1 1447 1442 1461
3889 1 1447 1442 1464
3890 1 1452 1442 1456
3891 1 1452 1442 1459
3892 1 1452 1442 1461
3893 1 1452 1442 1464
3894 1 1456 1442 1459
3895 1 1456 1442 1461
3896 1 1456 1442 1464
3897 1 1459 1442 1461
3898 1 1459 1442 1464
3899 1 1461 1442 1464
3900 2 1441 1445 1482
3901 2 1442 1447 1486
3902 2 1441 1450 1420
3903 2 1442 1452 1568
3904 2 1441 1454 1496
3905 2 1442 1456 1492
3906 2 1441 1457 1486
3907 2 1442 1459 1482
3908 3 1513 1461 1442
3909 3 1441 1464 1442
3910 4 1471 1465 1481
3911 5 1471 1465 1497
3912 5 1481 1465 1497
3913 4 605 1467 1485
3914 5 605 1467 1499
3915 5 1485 1467 1499
3916 4 1036 1470 1491
3917 5 1036 1470 1502
3918 5 1491 1470 1502
3919 4 170 1472 1567
3920 5 170 1472 1504
3921 5 1567 1472 1504
3922 4 184 1474 1495
3923 5 184 1474 1506
3924 5 1495 1474 1506
3925 4 1046 1476 1563
3926 5 1046 1476 1508
3927 5 1563 1476 1508
3928 4 611 1477 1485
3929 5 611 1477 1509
3930 5 1485 1477 1509
3931 4 1473 1479 1481
3932 5 1473 1479 1511
3933 5 1481 1479 1511
3934 4 1465 1481 1479
3935 6 1465 1481 1482
3936 6 1479 1481 1482
3937 7 1445 1482 1459
3938 8 1445 1482 1481
3939 8 1459 1482 1481
3940 4 1467 1485 1477
3941 6 1467 1485 1486
3942 6 1477 1485 1486
3943 7 1447 1486 1457
3944 8 1447 1486 1485
3945 8 1457 1486 1485
3946 4 1470 1491 1404
3947 6 1470 1491 1420
3948 6 1404 1491 1420
3949 7 1522 1492 1456
3950 8 1522 1492 1563
3951 8 1456 1492 1563
3952 4 1400 1495 1474
3953 6 1400 1495 1496
3954 6 1474 1495 1496
3955 7 1380 1496 1454
3956 8 1380 1496 1495
3957 8 1454 1496 1495
3958 4 1542 1563 1476
3959 6 1542 1563 1492
3960 6 1476 1563 1492
3961 1 1517 1513 1522
3962 1 1517 1513 1526
3963 1 1517 1513 1529
3964 1 1517 1513 1461
3965 1 1517 1513 1536
3966 1 1522 1513 1526
3967 1 1522 1513 1529
3968 1 1522 1513 1461
3969 1 1522 1513 1536
3970 1 1526 1513 1529
3971 1 1526 1513 1461
3972 1 1526 1513 1536
3973 1 1529 1513 1461
3974 1 1529 1513 1536
3975 1 1461 1513 1536
3976 1 1519 1514 1524
3977 1 1519 1514 1528
3978 1 1519 1514 1531
3979 1 1519 1514 1533
3980 1 1519 1514 1536
3981 1 1524 1514 1528
3982 1 1524 1514 1531
3983 1 1524 1514 1533
3984 1 1524 1514 1536
3985 1 1528 1514 1531
3986 1 1528 1514 1533
3987 1 1528 1514 1536
3988 1 1531 1514 1533
3989 1 1531 1514 1536
3990 1 1533 1514 1536
3991 2 1513 1517 1554
3992 2 1514 1519 1558
3993 2 1513 1522 1492
3994 2 1514 1524 1640
3995 2 1513 1526 1568
3996 2 1514 1528 1564
3997 2 1513 1529 1558
3998 2 1514 1531 1554
3999 3 1585 1533 1514
4000 3 1513 1536 1514
4001 4 1543 1537 1553
4002 5 1543 1537 1569
4003 5 1553 1537 1569
4004 4 677 1539 1557
4005 5 677 1539 1571
4006 5 1557 1539 1571
4007 4 1108 1542 1563
4008 5 1108 1542 1574
4009 5 1563 1542 1574
4010 4 242 1544 1639
4011 5 242 1544 1576
4012 5 1639 1544 1576
4013 4 256 1546 1567
4014 5 256 1546 1578
4015 5 1567 1546 1578
4016 4 1118 1548 1635
4017 5 1118 1548 1580
4018 5 1635 1548 1580
4019 4 683 1549 1557
4020 5 683 1549 1581
4021 5 1557 1549 1581
4022 4 1545 1551 1553
4023 5 1545 1551 1583
4024 5 1553 1551 1583
4025 4 1537 1553 1551
4026 6 1537 1553 1554
4027 6 1551 1553 1554
4028 7 1517 1554 1531
4029 8 1517 1554 1553
4030 8 1531 1554 1553
4031 4 1539 1557 1549
4032 6 1539 1557 1558
4033 6 1549 1557 1558
4034 7 1519 1558 1529
4035 8 1519 1558 1557
4036 8 1529 1558 1557
4037 7 1594 1564 1528
4038 8 1594 1564 1635
4039 8 1528 1564 1635
4040 4 1472 1567 1546
4041 6 1472 1567 1568
4042 6 1546 1567 1568
4043 7 1452 1568 1526
4044 8 1452 1568 1567
4045 8 1526 1568 1567
4046 1 1589 1585 1594
4047 1 1589 1585 1598
4048 1 1589 1585 1601
4049 1 1589 1585 1533
4050 1 1589 1585 1608
4051 1 1594 1585 1598
4052 1 1594 1585 1601
4053 1 1594 1585 1533
4054 1 1594 1585 1608
4055 1 1598 1585 1601
4056 1 1598 1585 1533
4057 1 1598 1585 1608
4058 1 1601 1585 1533
4059 1 1601 1585 1608
4060 1 1533 1585 1608
4061 2 1585 1589 1626
4062 2 1585 1594 1564
4063 2 1585 1598 1640
4064 2 1585 1601 1630
4065 3 1585 1608 1586
4066 4 1615 1609 1625
4067 5 1615 1609 1641
4068 5 1625 1609 1641
4069 4 1180 1614 1635
4070 5 1180 1614 1646
4071 5 1635 1614 1646
4072 4 328 1618 1639
4073 5 328 1618 1650
4074 5 1639 1618 1650
4075 4 755 1621 1629
4076 5 755 1621 1653
4077 5 1629 1621 1653
4078 4 1609 1625 1623
4079 6 1609 1625 1626
4080 6 1623 1625 1626
4081 7 1589 1626 1603
4082 8 1589 1626 1625
4083 8 1603 1626 1625
4084 4 1614 1635 1548
4085 6 1614 1635 1564
4086 6 1548 1635 1564
4087 4 1544 1639 1618
4088 6 1544 1639 1640
4089 6 1618 1639 1640
4090 7 1524 1640 1598
4091 8 1524 1640 1639
4092 8 1598 1640 1639
4093 4 1326 1347 1692
4094 6 1326 1347 1708
4095 6 1692 1347 1708
4096 1 1591 1586 1596
4097 1 1591 1586 1600
4098 1 1591 1586 1603
4099 1 1591 1586 1605
4100 1 1591 1586 1608
4101 1 1596 1586 1600
4102 1 1596 1586 1603
4103 1 1596 1586 1605
4104 1 1596 1586 1608
4105 1 1600 1586 1603
4106 1 1600 1586 1605
4107 1 1600 1586 1608
4108 1 1603 1586 1605
4109 1 1603 1586 1608
4110 1 1605 1586 1608
4111 2 1586 1591 1630
4112 2 1586 1596 1712
4113 2 1586 1600 1636
4114 2 1586 1603 1626
4115 3 1657 1605 1586
4116 4 749 1611 1629
4117 5 749 1611 1643
4118 5 1629 1611 1643
4119 4 314 1616 1711
4120 5 314 1616 1648
4121 5 1711 1616 1648
4122 4 1190 1620 1707
4123 5 1190 1620 1652
4124 5 1707 1620 1652
4125 4 1617 1623 1625
4126 5 1617 1623 1655
4127 5 1625 1623 1655
4128 4 1611 1629 1621
4129 6 1611 1629 1630
4130 6 1621 1629 1630
4131 7 1591 1630 1601
4132 8 1591 1630 1629
4133 8 1601 1630 1629
4134 7 1666 1636 1600
4135 8 1666 1636 1707
4136 8 1600 1636 1707
4137 1 1661 1657 1666
4138 1 1661 1657 1670
4139 1 1661 1657 1673
4140 1 1661 1657 1605
4141 1 1661 1657 1680
4142 1 1666 1657 1670
4143 1 1666 1657 1673
4144 1 1666 1657 1605
4145 1 1666 1657 1680
4146 1 1670 1657 1673
4147 1 1670 1657 1605
4148 1 1670 1657 1680
4149 1 1673 1657 1605
4150 1 1673 1657 1680
4151 1 1605 1657 1680
4152 1 1663 1658 1668
4153 1 1663 1658 1672
4154 1 1663 1658 1675
4155 1 1663 1658 1677
4156 1 1663 1658 1680
4157 1 1668 1658 1672
4158 1 1668 1658 1675
4159 1 1668 1658 1677
4160 1 1668 1658 1680
4161 1 1672 1658 1675
4162 1 1672 1658 1677
4163 1 1672 1658 1680
4164 1 1675 1658 1677
4165 1 1675 1658 1680
4166 1 1677 1658 1680
4167 2 1657 1661 1698
4168 2 1658 1663 1702
4169 2 1657 1666 1636
4170 2 1658 1668 1352
4171 2 1657 1670 1712
4172 2 1658 1672 1708
4173 2 1657 1673 1702
4174 2 1658 1675 1698
4175 3 1297 1677 1658
4176 3 1657 1680 1658
4177 4 1687 1681 1697
4178 5 1687 1681 1713
4179 5 1697 1681 1713
4180 4 821 1683 1701
4181 5 821 1683 1715
4182 5 1701 1683 1715
4183 4 1252 1686 1707
4184 5 1252 1686 1718
4185 5 1707 1686 1718
4186 4 386 1688 1351
4187 5 386 1688 1720
4188 5 1351 1688 1720
4189 4 400 1690 1711
4190 5 400 1690 1722
4191 5 1711 1690 1722
4192 4 1262 1692 1347
4193 5 1262 1692 1724
4194 5 1347 1692 1724
4195 4 827 1693 1701
4196 5 827 1693 1725
4197 5 1701 1693 1725
4198 4 1689 1695 1697
4199 5 1689 1695 1727
4200 5 1697 1695 1727
4201 4 1681 1697 1695
4202 6 1681 1697 1698
4203 6 1695 1697 1698
4204 7 1661 1698 1675
4205 8 1661 1698 1697
4206 8 1675 1698 1697
4207 4 1683 1701 1693
4208 6 1683 1701 1702
4209 6 1693 1701 1702
4210 7 1663 1702 1673
4211 8 1663 1702 1701
4212 8 1673 1702 1701
4213 4 1686 1707 1620
4214 6 1686 1707 1636
4215 6 1620 1707 1636
4216 7 1306 1708 1672
4217 8 1306 1708 1347
4218 8 1672 1708 1347
4219 4 1616 1711 1690
4220 6 1616 1711 1712
4221 6 1690 1711 1712
4222 7 1596 1712 1670
4223 8 1596 1712 1711
4224 8 1670 1712 1711

Dihedrals

1 1 4 6 44 92
2 1 4 6 44 115
3 1 3 8 48 378
4 1 3 8 48 47
5 1 4 9 50 15
6 1 4 9 50 49
7 1 3 11 54 13
8 1 3 11 54 53
9 1 4 13 54 11
10 1 4 13 54 53
11 1 3 15 50 9
12 1 3 15 50 49
13 1 4 18 120 80
14 1 4 18 120 119
15 1 3 20 404 366
16 1 3 20 404 43
17 2 1328 26 115 112
18 2 1328 26 115 44
19 2 58 26 115 112
20 2 58 26 115 44
21 2 115 26 1328 1423
22 2 115 26 1328 1360
23 2 58 26 1328 1423
24 2 58 26 1328 1360
25 2 462 28 47 398
26 2 462 28 47 48
27 2 60 28 47 398
28 2 60 28 47 48
29 2 47 28 462 483
30 2 47 28 462 494
31 2 60 28 462 483
32 2 60 28 462 494
33 2 891 29 49 35
34 2 891 29 49 50
35 2 61 29 49 35
36 2 61 29 49 50
37 2 25 31 53 33
38 2 25 31 53 54
39 2 63 31 53 33
40 2 63 31 53 54
41 2 53 33 39 41
42 2 53 33 39 71
43 2 65 33 39 41
44 2 65 33 39 71
45 2 39 33 53 31
46 2 39 33 53 54
47 2 65 33 53 31
48 2 65 33 53 54
49 2 901 35 49 29
50 2 901 35 49 50
51 2 67 35 49 29
52 2 67 35 49 50
53 2 49 35 901 909
54 2 49 35 901 933
55 2 67 35 901 909
56 2 67 35 901 933
57 2 468 38 119 100
58 2 468 38 119 120
59 2 70 38 119 100
60 2 70 38 119 120
61 2 1330 40 43 386
62 2 1330 40 43 404
63 2 72 40 43 386
64 2 72 40 43 404
65 3 28 47 48 8
66 3 28 47 48 378
67 3 398 47 48 8
68 3 398 47 48 378
69 3 29 49 50 9
70 3 29 49 50 15
71 3 35 49 50 9
72 3 35 49 50 15
73 3 31 53 54 11
74 3 31 53 54 13
75 3 33 53 54 11
76 3 33 53 54 13
77 1 75 80 120 18
78 1 75 80 120 119
79 1 75 83 126 85
80 1 75 83 126 125
81 1 75 87 122 81
82 1 75 87 122 121
83 1 75 92 44 6
84 1 75 92 44 115
85 2 534 100 119 38
86 2 534 100 119 120
87 2 132 100 119 38
88 2 132 100 119 120
89 2 119 100 534 555
90 2 119 100 534 566
91 2 132 100 534 555
92 2 132 100 534 566
93 2 97 103 125 105
94 2 97 103 125 126
95 2 135 103 125 105
96 2 135 103 125 126
97 2 973 107 121 101
98 2 973 107 121 122
99 2 139 107 121 101
100 2 139 107 121 122
101 2 121 107 973 981
102 2 121 107 973 1005
103 2 139 107 973 981
104 2 139 107 973 1005
105 2 1402 112 115 26
106 2 1402 112 115 44
107 2 144 112 115 26
108 2 144 112 115 44
109 3 26 115 44 6
110 3 26 115 44 92
111 3 112 115 44 6
112 3 112 115 44 92
113 3 100 119 120 80
114 3 100 119 120 18
115 3 38 119 120 80
116 3 38 119 120 18
117 3 101 121 122 81
118 3 101 121 122 87
119 3 107 121 122 81
120 3 107 121 122 87
121 1 76 78 116 164
122 1 76 78 116 187
123 1 76 81 122 87
124 1 76 81 122 121
125 1 76 85 126 83
126 1 76 85 126 125
127 1 76 90 192 152
128 1 76 90 192 191
129 2 1400 98 187 184
130 2 1400 98 187 116
131 2 130 98 187 184
132 2 130 98 187 116
133 2 187 98 1400 1495
134 2 187 98 1400 1432
135 2 130 98 1400 1495
136 2 130 98 1400 1432
137 2 963 101 121 107
138 2 963 101 121 122
139 2 133 101 121 107
140 2 133 101 121 122
141 2 125 105 111 113
142 2 125 105 111 143
143 2 137 105 111 113
144 2 137 105 111 143
145 2 111 105 125 103
146 2 111 105 125 126
147 2 137 105 125 103
148 2 137 105 125 126
149 2 540 110 191 172
150 2 540 110 191 192
151 2 142 110 191 172
152 2 142 110 191 192
153 3 103 125 126 83
154 3 103 125 126 85
155 3 105 125 126 83
156 3 105 125 126 85
157 1 148 150 188 236
158 1 148 150 188 259
159 1 147 152 192 90
160 1 147 152 192 191
161 1 148 153 194 159
162 1 148 153 194 193
163 1 147 155 198 157
164 1 147 155 198 197
165 1 148 157 198 155
166 1 148 157 198 197
167 1 147 159 194 153
168 1 147 159 194 193
169 1 148 162 264 224
170 1 148 162 264 263
171 1 147 164 116 78
172 1 147 164 116 187
173 2 1472 170 259 256
174 2 1472 170 259 188
175 2 202 170 259 256
176 2 202 170 259 188
177 2 259 170 1472 1567
178 2 259 170 1472 1504
179 2 202 170 1472 1567
180 2 202 170 1472 1504
181 2 606 172 191 110
182 2 606 172 191 192
183 2 204 172 191 110
184 2 204 172 191 192
185 2 191 172 606 627
186 2 191 172 606 638
187 2 204 172 606 627
188 2 204 172 606 638
189 2 1035 173 193 179
190 2 1035 173 193 194
191 2 205 173 193 179
192 2 205 173 193 194
193 2 169 175 197 177
194 2 169 175 197 198
195 2 207 175 197 177
196 2 207 175 197 198
197 2 197 177 183 185
198 2 197 177 183 215
199 2 209 177 183 185
200 2 209 177 183 215
201 2 183 177 197 175
202 2 183 177 197 198
203 2 209 177 197 175
204 2 209 177 197 198
205 2 1045 179 193 173
206 2 1045 179 193 194
207 2 211 179 193 173
208 2 211 179 193 194
209 2 193 179 1045 1053
210 2 193 179 1045 1077
211 2 211 179 1045 1053
212 2 211 179 1045 1077
213 2 612 182 263 244
214 2 612 182 263 264
215 2 214 182 263 244
216 2 214 182 263 264
217 2 1474 184 187 98
218 2 1474 184 187 116
219 2 216 184 187 98
220 2 216 184 187 116
221 3 98 187 116 78
222 3 98 187 116 164
223 3 184 187 116 78
224 3 184 187 116 164
225 3 172 191 192 152
226 3 172 191 192 90
227 3 110 191 192 152
228 3 110 191 192 90
229 3 173 193 194 153
230 3 173 193 194 159
231 3 179 193 194 153
232 3 179 193 194 159
233 3 175 197 198 155
234 3 175 197 198 157
235 3 177 197 198 155
236 3 177 197 198 157
237 3 170 259 188 150
238 3 170 259 188 236
239 3 256 259 188 150
240 3 256 259 188 236
241 1 220 222 260 308
242 1 220 222 260 331
243 1 219 224 264 162
244 1 219 224 264 263
245 1 220 225 266 231
246 1 220 225 266 265
247 1 219 227 270 229
248 1 219 227 270 269
249 1 220 229 270 227
250 1 220 229 270 269
251 1 219 231 266 225
252 1 219 231 266 265
253 1 220 234 336 296
254 1 220 234 336 335
255 1 219 236 188 150
256 1 219 236 188 259
257 2 1544 242 331 328
258 2 1544 242 331 260
259 2 274 242 331 328
260 2 274 242 331 260
261 2 331 242 1544 1639
262 2 331 242 1544 1576
263 2 274 242 1544 1639
264 2 274 242 1544 1576
265 2 678 244 263 182
266 2 678 244 263 264
267 2 276 244 263 182
268 2 276 244 263 264
269 2 263 244 678 699
270 2 263 244 678 710
271 2 276 244 678 699
272 2 276 244 678 710
273 2 1107 245 265 251
274 2 1107 245 265 266
275 2 277 245 265 251
276 2 277 245 265 266
277 2 241 247 269 249
278 2 241 247 269 270
279 2 279 247 269 249
280 2 279 247 269 270
281 2 269 249 255 257
282 2 269 249 255 287
283 2 281 249 255 257
284 2 281 249 255 287
285 2 255 249 269 247
286 2 255 249 269 270
287 2 281 249 269 247
288 2 281 249 269 270
289 2 1117 251 265 245
290 2 1117 251 265 266
291 2 283 251 265 245
292 2 283 251 265 266
293 2 265 251 1117 1125
294 2 265 251 1117 1149
295 2 283 251 1117 1125
296 2 283 251 1117 1149
297 2 684 254 335 316
298 2 684 254 335 336
299 2 286 254 335 316
300 2 286 254 335 336
301 2 1546 256 259 170
302 2 1546 256 259 188
303 2 288 256 259 170
304 2 288 256 259 188
305 3 244 263 264 224
306 3 244 263 264 162
307 3 182 263 264 224
308 3 182 263 264 162
309 3 245 265 266 225
310 3 245 265 266 231
311 3 251 265 266 225
312 3 251 265 266 231
313 3 247 269 270 227
314 3 247 269 270 229
315 3 249 269 270 227
316 3 249 269 270 229
317 1 291 296 336 234
318 1 291 296 336 335
319 1 291 299 342 301
320 1 291 299 342 341
321 1 291 303 338 297
322 1 291 303 338 337
323 1 291 308 260 222
324 1 291 308 260 331
325 2 750 316 335 254
326 2 750 316 335 336
327 2 348 316 335 254
328 2 348 316 335 336
329 2 335 316 750 771
330 2 335 316 750 782
331 2 348 316 750 771
332 2 348 316 750 782
333 2 313 319 341 321
334 2 313 319 341 342
335 2 351 319 341 321
336 2 351 319 341 342
337 2 1189 323 337 317
338 2 1189 323 337 338
339 2 355 323 337 317
340 2 355 323 337 338
341 2 337 323 1189 1197
342 2 337 323 1189 1221
343 2 355 323 1189 1197
344 2 355 323 1189 1221
345 2 1618 328 331 242
346 2 1618 328 331 260
347 2 360 328 331 242
348 2 360 328 331 260
349 3 242 331 260 222
350 3 242 331 260 308
351 3 328 331 260 222
352 3 328 331 260 308
353 3 316 335 336 296
354 3 316 335 336 234
355 3 254 335 336 296
356 3 254 335 336 234
357 3 317 337 338 297
358 3 317 337 338 303
359 3 323 337 338 297
360 3 323 337 338 303
361 3 386 43 404 366
362 3 386 43 404 20
363 3 40 43 404 366
364 3 40 43 404 20
365 1 292 294 332 380
366 1 292 294 332 403
367 1 292 297 338 303
368 1 292 297 338 337
369 1 292 301 342 299
370 1 292 301 342 341
371 1 292 306 408 368
372 1 292 306 408 407
373 2 1616 314 403 400
374 2 1616 314 403 332
375 2 346 314 403 400
376 2 346 314 403 332
377 2 403 314 1616 1711
378 2 403 314 1616 1648
379 2 346 314 1616 1711
380 2 346 314 1616 1648
381 2 1179 317 337 323
382 2 1179 317 337 338
383 2 349 317 337 323
384 2 349 317 337 338
385 2 341 321 327 329
386 2 341 321 327 359
387 2 353 321 327 329
388 2 353 321 327 359
389 2 327 321 341 319
390 2 327 321 341 342
391 2 353 321 341 319
392 2 353 321 341 342
393 2 756 326 407 388
394 2 756 326 407 408
395 2 358 326 407 388
396 2 358 326 407 408
397 3 319 341 342 299
398 3 319 341 342 301
399 3 321 341 342 299
400 3 321 341 342 301
401 1 364 366 404 20
402 1 364 366 404 43
403 1 363 368 408 306
404 1 363 368 408 407
405 1 364 369 410 375
406 1 364 369 410 409
407 1 363 371 414 373
408 1 363 371 414 413
409 1 364 373 414 371
410 1 364 373 414 413
411 1 363 375 410 369
412 1 363 375 410 409
413 1 364 378 48 8
414 1 364 378 48 47
415 1 363 380 332 294
416 1 363 380 332 403
417 2 1688 386 43 40
418 2 1688 386 43 404
419 2 418 386 43 40
420 2 418 386 43 404
421 2 43 386 1688 1351
422 2 43 386 1688 1720
423 2 418 386 1688 1351
424 2 418 386 1688 1720
425 2 822 388 407 326
426 2 822 388 407 408
427 2 420 388 407 326
428 2 420 388 407 408
429 2 407 388 822 843
430 2 407 388 822 854
431 2 420 388 822 843
432 2 420 388 822 854
433 2 1251 389 409 395
434 2 1251 389 409 410
435 2 421 389 409 395
436 2 421 389 409 410
437 2 385 391 413 393
438 2 385 391 413 414
439 2 423 391 413 393
440 2 423 391 413 414
441 2 413 393 399 401
442 2 413 393 399 431
443 2 425 393 399 401
444 2 425 393 399 431
445 2 399 393 413 391
446 2 399 393 413 414
447 2 425 393 413 391
448 2 425 393 413 414
449 2 1261 395 409 389
450 2 1261 395 409 410
451 2 427 395 409 389
452 2 427 395 409 410
453 2 409 395 1261 1269
454 2 409 395 1261 1293
455 2 427 395 1261 1269
456 2 427 395 1261 1293
457 2 828 398 47 28
458 2 828 398 47 48
459 2 430 398 47 28
460 2 430 398 47 48
461 2 1690 400 403 314
462 2 1690 400 403 332
463 2 432 400 403 314
464 2 432 400 403 332
465 3 314 403 332 294
466 3 314 403 332 380
467 3 400 403 332 294
468 3 400 403 332 380
469 3 388 407 408 368
470 3 388 407 408 306
471 3 326 407 408 368
472 3 326 407 408 306
473 3 389 409 410 369
474 3 389 409 410 375
475 3 395 409 410 369
476 3 395 409 410 375
477 3 391 413 414 371
478 3 391 413 414 373
479 3 393 413 414 371
480 3 393 413 414 373
481 1 436 438 476 524
482 1 436 438 476 547
483 1 435 440 480 810
484 1 435 440 480 479
485 1 436 441 482 447
486 1 436 441 482 481
487 1 435 443 486 445
488 1 435 443 486 485
489 1 436 445 486 443
490 1 436 445 486 485
491 1 435 447 482 441
492 1 435 447 482 481
493 1 436 450 552 512
494 1 436 450 552 551
495 1 435 452 836 798
496 1 435 452 836 475
497 2 896 458 547 544
498 2 896 458 547 476
499 2 490 458 547 544
500 2 490 458 547 476
501 2 547 458 896 991
502 2 547 458 896 928
503 2 490 458 896 991
504 2 490 458 896 928
505 2 479 460 30 51
506 2 479 460 30 62
507 2 492 460 30 51
508 2 492 460 30 62
509 2 30 460 479 830
510 2 30 460 479 480
511 2 492 460 479 830
512 2 492 460 479 480
513 2 1323 461 481 467
514 2 1323 461 481 482
515 2 493 461 481 467
516 2 493 461 481 482
517 2 457 463 485 465
518 2 457 463 485 486
519 2 495 463 485 465
520 2 495 463 485 486
521 2 485 465 471 473
522 2 485 465 471 503
523 2 497 465 471 473
524 2 497 465 471 503
525 2 471 465 485 463
526 2 471 465 485 486
527 2 497 465 485 463
528 2 497 465 485 486
529 2 1333 467 481 461
530 2 1333 467 481 482
531 2 499 467 481 461
532 2 499 467 481 482
533 2 481 467 1333 1341
534 2 481 467 1333 1365
535 2 499 467 1333 1341
536 2 499 467 1333 1365
537 2 36 470 551 532
538 2 36 470 551 552
539 2 502 470 551 532
540 2 502 470 551 552
541 2 898 472 475 818
542 2 898 472 475 836
543 2 504 472 475 818
544 2 504 472 475 836
545 3 460 479 480 440
546 3 460 479 480 810
547 3 830 479 480 440
548 3 830 479 480 810
549 3 461 481 482 441
550 3 461 481 482 447
551 3 467 481 482 441
552 3 467 481 482 447
553 3 463 485 486 443
554 3 463 485 486 445
555 3 465 485 486 443
556 3 465 485 486 445
557 1 507 512 552 450
558 1 507 512 552 551
559 1 507 515 558 517
560 1 507 515 558 557
561 1 507 519 554 513
562 1 507 519 554 553
563 1 507 524 476 438
564 1 507 524 476 547
565 2 551 532 102 123
566 2 551 532 102 134
567 2 564 532 102 123
568 2 564 532 102 134
569 2 102 532 551 470
570 2 102 532 551 552
571 2 564 532 551 470
572 2 564 532 551 552
573 2 529 535 557 537
574 2 529 535 557 558
575 2 567 535 557 537
576 2 567 535 557 558
577 2 1405 539 553 533
578 2 1405 539 553 554
579 2 571 539 553 533
580 2 571 539 553 554
581 2 553 539 1405 1413
582 2 553 539 1405 1437
583 2 571 539 1405 1413
584 2 571 539 1405 1437
585 2 970 544 547 458
586 2 970 544 547 476
587 2 576 544 547 458
588 2 576 544 547 476
589 3 458 547 476 438
590 3 458 547 476 524
591 3 544 547 476 438
592 3 544 547 476 524
593 3 532 551 552 512
594 3 532 551 552 450
595 3 470 551 552 512
596 3 470 551 552 450
597 3 533 553 554 513
598 3 533 553 554 519
599 3 539 553 554 513
600 3 539 553 554 519
601 1 508 510 548 596
602 1 508 510 548 619
603 1 508 513 554 519
604 1 508 513 554 553
605 1 508 517 558 515
606 1 508 517 558 557
607 1 508 522 624 584
608 1 508 522 624 623
609 2 968 530 619 616
610 2 968 530 619 548
611 2 562 530 619 616
612 2 562 530 619 548
613 2 619 530 968 1063
614 2 619 530 968 1000
615 2 562 530 968 1063
616 2 562 530 968 1000
617 2 1395 533 553 539
618 2 1395 533 553 554
619 2 565 533 553 539
620 2 565 533 553 554
621 2 557 537 543 545
622 2 557 537 543 575
623 2 569 537 543 545
624 2 569 537 543 575
625 2 543 537 557 535
626 2 543 537 557 558
627 2 569 537 557 535
628 2 569 537 557 558
629 2 108 542 623 604
630 2 108 542 623 624
631 2 574 542 623 604
632 2 574 542 623 624
633 3 535 557 558 515
634 3 535 557 558 517
635 3 537 557 558 515
636 3 537 557 558 517
637 1 580 582 620 668
638 1 580 582 620 691
639 1 579 584 624 522
640 1 579 584 624 623
641 1 580 585 626 591
642 1 580 585 626 625
643 1 579 587 630 589
644 1 579 587 630 629
645 1 580 589 630 587
646 1 580 589 630 629
647 1 579 591 626 585
648 1 579 591 626 625
649 1 580 594 696 656
650 1 580 594 696 695
651 1 579 596 548 510
652 1 579 596 548 619
653 2 1040 602 691 688
654 2 1040 602 691 620
655 2 634 602 691 688
656 2 634 602 691 620
657 2 691 602 1040 1135
658 2 691 602 1040 1072
659 2 634 602 1040 1135
660 2 634 602 1040 1072
661 2 623 604 174 195
662 2 623 604 174 206
663 2 636 604 174 195
664 2 636 604 174 206
665 2 174 604 623 542
666 2 174 604 623 624
667 2 636 604 623 542
668 2 636 604 623 624
669 2 1467 605 625 611
670 2 1467 605 625 626
671 2 637 605 625 611
672 2 637 605 625 626
673 2 601 607 629 609
674 2 601 607 629 630
675 2 639 607 629 609
676 2 639 607 629 630
677 2 629 609 615 617
678 2 629 609 615 647
679 2 641 609 615 617
680 2 641 609 615 647
681 2 615 609 629 607
682 2 615 609 629 630
683 2 641 609 629 607
684 2 641 609 629 630
685 2 1477 611 625 605
686 2 1477 611 625 626
687 2 643 611 625 605
688 2 643 611 625 626
689 2 625 611 1477 1485
690 2 625 611 1477 1509
691 2 643 611 1477 1485
692 2 643 611 1477 1509
693 2 180 614 695 676
694 2 180 614 695 696
695 2 646 614 695 676
696 2 646 614 695 696
697 2 1042 616 619 530
698 2 1042 616 619 548
699 2 648 616 619 530
700 2 648 616 619 548
701 3 530 619 548 510
702 3 530 619 548 596
703 3 616 619 548 510
704 3 616 619 548 596
705 3 604 623 624 584
706 3 604 623 624 522
707 3 542 623 624 584
708 3 542 623 624 522
709 3 605 625 626 585
710 3 605 625 626 591
711 3 611 625 626 585
712 3 611 625 626 591
713 3 607 629 630 587
714 3 607 629 630 589
715 3 609 629 630 587
716 3 609 629 630 589
717 3 602 691 620 582
718 3 602 691 620 668
719 3 688 691 620 582
720 3 688 691 620 668
721 1 652 654 692 740
722 1 652 654 692 763
723 1 651 656 696 594
724 1 651 656 696 695
725 1 652 657 698 663
726 1 652 657 698 697
727 1 651 659 702 661
728 1 651 659 702 701
729 1 652 661 702 659
730 1 652 661 702 701
731 1 651 663 698 657
732 1 651 663 698 697
733 1 652 666 768 728
734 1 652 666 768 767
735 1 651 668 620 582
736 1 651 668 620 691
737 2 1112 674 763 760
738 2 1112 674 763 692
739 2 706 674 763 760
740 2 706 674 763 692
741 2 763 674 1112 1207
742 2 763 674 1112 1144
743 2 706 674 1112 1207
744 2 706 674 1112 1144
745 2 695 676 246 267
746 2 695 676 246 278
747 2 708 676 246 267
748 2 708 676 246 278
749 2 246 676 695 614
750 2 246 676 695 696
751 2 708 676 695 614
752 2 708 676 695 696
753 2 1539 677 697 683
754 2 1539 677 697 698
755 2 709 677 697 683
756 2 709 677 697 698
757 2 673 679 701 681
758 2 673 679 701 702
759 2 711 679 701 681
760 2 711 679 701 702
761 2 701 681 687 689
762 2 701 681 687 719
763 2 713 681 687 689
764 2 713 681 687 719
765 2 687 681 701 679
766 2 687 681 701 702
767 2 713 681 701 679
768 2 713 681 701 702
769 2 1549 683 697 677
770 2 1549 683 697 698
771 2 715 683 697 677
772 2 715 683 697 698
773 2 697 683 1549 1557
774 2 697 683 1549 1581
775 2 715 683 1549 1557
776 2 715 683 1549 1581
777 2 252 686 767 748
778 2 252 686 767 768
779 2 718 686 767 748
780 2 718 686 767 768
781 2 1114 688 691 602
782 2 1114 688 691 620
783 2 720 688 691 602
784 2 720 688 691 620
785 3 676 695 696 656
786 3 676 695 696 594
787 3 614 695 696 656
788 3 614 695 696 594
789 3 677 697 698 657
790 3 677 697 698 663
791 3 683 697 698 657
792 3 683 697 698 663
793 3 679 701 702 659
794 3 679 701 702 661
795 3 681 701 702 659
796 3 681 701 702 661
797 1 723 728 768 666
798 1 723 728 768 767
799 1 723 731 774 733
800 1 723 731 774 773
801 1 723 735 770 729
802 1 723 735 770 769
803 1 723 740 692 654
804 1 723 740 692 763
805 2 767 748 318 339
806 2 767 748 318 350
807 2 780 748 318 339
808 2 780 748 318 350
809 2 318 748 767 686
810 2 318 748 767 768
811 2 780 748 767 686
812 2 780 748 767 768
813 2 745 751 773 753
814 2 745 751 773 774
815 2 783 751 773 753
816 2 783 751 773 774
817 2 1621 755 769 749
818 2 1621 755 769 770
819 2 787 755 769 749
820 2 787 755 769 770
821 2 769 755 1621 1629
822 2 769 755 1621 1653
823 2 787 755 1621 1629
824 2 787 755 1621 1653
825 2 1186 760 763 674
826 2 1186 760 763 692
827 2 792 760 763 674
828 2 792 760 763 692
829 3 674 763 692 654
830 3 674 763 692 740
831 3 760 763 692 654
832 3 760 763 692 740
833 3 748 767 768 728
834 3 748 767 768 666
835 3 686 767 768 728
836 3 686 767 768 666
837 3 749 769 770 729
838 3 749 769 770 735
839 3 755 769 770 729
840 3 755 769 770 735
841 3 818 475 836 798
842 3 818 475 836 452
843 3 472 475 836 798
844 3 472 475 836 452
845 1 724 726 764 812
846 1 724 726 764 835
847 1 724 729 770 735
848 1 724 729 770 769
849 1 724 733 774 731
850 1 724 733 774 773
851 1 724 738 840 800
852 1 724 738 840 839
853 2 1184 746 835 832
854 2 1184 746 835 764
855 2 778 746 835 832
856 2 778 746 835 764
857 2 835 746 1184 1279
858 2 835 746 1184 1216
859 2 778 746 1184 1279
860 2 778 746 1184 1216
861 2 1611 749 769 755
862 2 1611 749 769 770
863 2 781 749 769 755
864 2 781 749 769 770
865 2 773 753 759 761
866 2 773 753 759 791
867 2 785 753 759 761
868 2 785 753 759 791
869 2 759 753 773 751
870 2 759 753 773 774
871 2 785 753 773 751
872 2 785 753 773 774
873 2 324 758 839 820
874 2 324 758 839 840
875 2 790 758 839 820
876 2 790 758 839 840
877 3 751 773 774 731
878 3 751 773 774 733
879 3 753 773 774 731
880 3 753 773 774 733
881 1 796 798 836 452
882 1 796 798 836 475
883 1 795 800 840 738
884 1 795 800 840 839
885 1 796 801 842 807
886 1 796 801 842 841
887 1 795 803 846 805
888 1 795 803 846 845
889 1 796 805 846 803
890 1 796 805 846 845
891 1 795 807 842 801
892 1 795 807 842 841
893 1 796 810 480 440
894 1 796 810 480 479
895 1 795 812 764 726
896 1 795 812 764 835
897 2 1256 818 475 472
898 2 1256 818 475 836
899 2 850 818 475 472
900 2 850 818 475 836
901 2 475 818 1256 919
902 2 475 818 1256 1288
903 2 850 818 1256 919
904 2 850 818 1256 1288
905 2 839 820 390 411
906 2 839 820 390 422
907 2 852 820 390 411
908 2 852 820 390 422
909 2 390 820 839 758
910 2 390 820 839 840
911 2 852 820 839 758
912 2 852 820 839 840
913 2 1683 821 841 827
914 2 1683 821 841 842
915 2 853 821 841 827
916 2 853 821 841 842
917 2 817 823 845 825
918 2 817 823 845 846
919 2 855 823 845 825
920 2 855 823 845 846
921 2 845 825 831 833
922 2 845 825 831 863
923 2 857 825 831 833
924 2 857 825 831 863
925 2 831 825 845 823
926 2 831 825 845 846
927 2 857 825 845 823
928 2 857 825 845 846
929 2 1693 827 841 821
930 2 1693 827 841 842
931 2 859 827 841 821
932 2 859 827 841 842
933 2 841 827 1693 1701
934 2 841 827 1693 1725
935 2 859 827 1693 1701
936 2 859 827 1693 1725
937 2 396 830 479 460
938 2 396 830 479 480
939 2 862 830 479 460
940 2 862 830 479 480
941 2 1258 832 835 746
942 2 1258 832 835 764
943 2 864 832 835 746
944 2 864 832 835 764
945 3 746 835 764 726
946 3 746 835 764 812
947 3 832 835 764 726
948 3 832 835 764 812
949 3 820 839 840 800
950 3 820 839 840 738
951 3 758 839 840 800
952 3 758 839 840 738
953 3 821 841 842 801
954 3 821 841 842 807
955 3 827 841 842 801
956 3 827 841 842 807
957 3 823 845 846 803
958 3 823 845 846 805
959 3 825 845 846 803
960 3 825 845 846 805
961 1 1 5 42 19
962 1 1 5 42 41
963 1 2 7 46 17
964 1 2 7 46 45
965 1 1 10 412 376
966 1 1 10 412 51
967 1 2 12 128 86
968 1 2 12 128 127
969 1 1 14 56 372
970 1 1 14 56 55
971 1 2 16 52 82
972 1 2 16 52 123
973 1 1 17 46 7
974 1 1 17 46 45
975 1 2 19 42 5
976 1 2 19 42 41
977 2 41 25 31 53
978 2 41 25 31 63
979 2 57 25 31 53
980 2 57 25 31 63
981 2 31 25 41 39
982 2 31 25 41 42
983 2 57 25 41 39
984 2 57 25 41 42
985 2 893 27 45 37
986 2 893 27 45 46
987 2 59 27 45 37
988 2 59 27 45 46
989 2 45 27 893 913
990 2 45 27 893 925
991 2 59 27 893 913
992 2 59 27 893 925
993 2 460 30 51 396
994 2 460 30 51 412
995 2 62 30 51 396
996 2 62 30 51 412
997 2 1322 32 127 106
998 2 1322 32 127 128
999 2 64 32 127 106
1000 2 64 32 127 128
1001 2 1336 34 55 392
1002 2 1336 34 55 56
1003 2 66 34 55 392
1004 2 66 34 55 56
1005 2 55 34 1336 1339
1006 2 55 34 1336 1368
1007 2 66 34 1336 1339
1008 2 66 34 1336 1368
1009 2 470 36 123 102
1010 2 470 36 123 52
1011 2 68 36 123 102
1012 2 68 36 123 52
1013 2 123 36 470 551
1014 2 123 36 470 502
1015 2 68 36 470 551
1016 2 68 36 470 502
1017 2 899 37 45 27
1018 2 899 37 45 46
1019 2 69 37 45 27
1020 2 69 37 45 46
1021 2 33 39 41 25
1022 2 33 39 41 42
1023 2 71 39 41 25
1024 2 71 39 41 42
1025 3 25 41 42 5
1026 3 25 41 42 19
1027 3 39 41 42 5
1028 3 39 41 42 19
1029 3 27 45 46 7
1030 3 27 45 46 17
1031 3 37 45 46 7
1032 3 37 45 46 17
1033 3 392 55 56 372
1034 3 392 55 56 14
1035 3 34 55 56 372
1036 3 34 55 56 14
1037 1 73 77 114 91
1038 1 73 77 114 113
1039 1 73 82 52 16
1040 1 73 82 52 123
1041 1 73 86 128 12
1042 1 73 86 128 127
1043 1 73 89 118 79
1044 1 73 89 118 117
1045 2 113 97 103 125
1046 2 113 97 103 135
1047 2 129 97 103 125
1048 2 129 97 103 135
1049 2 103 97 113 111
1050 2 103 97 113 114
1051 2 129 97 113 111
1052 2 129 97 113 114
1053 2 532 102 123 36
1054 2 532 102 123 52
1055 2 134 102 123 36
1056 2 134 102 123 52
1057 2 1408 106 127 32
1058 2 1408 106 127 128
1059 2 138 106 127 32
1060 2 138 106 127 128
1061 2 127 106 1408 1411
1062 2 127 106 1408 1440
1063 2 138 106 1408 1411
1064 2 138 106 1408 1440
1065 2 971 109 117 99
1066 2 971 109 117 118
1067 2 141 109 117 99
1068 2 141 109 117 118
1069 3 97 113 114 77
1070 3 97 113 114 91
1071 3 111 113 114 77
1072 3 111 113 114 91
1073 3 102 123 52 82
1074 3 102 123 52 16
1075 3 36 123 52 82
1076 3 36 123 52 16
1077 3 32 127 128 12
1078 3 32 127 128 86
1079 3 106 127 128 12
1080 3 106 127 128 86
1081 1 74 79 118 89
1082 1 74 79 118 117
1083 1 74 84 200 158
1084 1 74 84 200 199
1085 1 74 88 124 154
1086 1 74 88 124 195
1087 1 74 91 114 77
1088 1 74 91 114 113
1089 2 965 99 117 109
1090 2 965 99 117 118
1091 2 131 99 117 109
1092 2 131 99 117 118
1093 2 117 99 965 985
1094 2 117 99 965 997
1095 2 131 99 965 985
1096 2 131 99 965 997
1097 2 1394 104 199 178
1098 2 1394 104 199 200
1099 2 136 104 199 178
1100 2 136 104 199 200
1101 2 542 108 195 174
1102 2 542 108 195 124
1103 2 140 108 195 174
1104 2 140 108 195 124
1105 2 195 108 542 623
1106 2 195 108 542 574
1107 2 140 108 542 623
1108 2 140 108 542 574
1109 2 105 111 113 97
1110 2 105 111 113 114
1111 2 143 111 113 97
1112 2 143 111 113 114
1113 3 99 117 118 79
1114 3 99 117 118 89
1115 3 109 117 118 79
1116 3 109 117 118 89
1117 1 145 149 186 163
1118 1 145 149 186 185
1119 1 146 151 190 161
1120 1 146 151 190 189
1121 1 145 154 124 88
1122 1 145 154 124 195
1123 1 146 156 272 230
1124 1 146 156 272 271
1125 1 145 158 200 84
1126 1 145 158 200 199
1127 1 146 160 196 226
1128 1 146 160 196 267
1129 1 145 161 190 151
1130 1 145 161 190 189
1131 1 146 163 186 149
1132 1 146 163 186 185
1133 2 185 169 175 197
1134 2 185 169 175 207
1135 2 201 169 175 197
1136 2 201 169 175 207
1137 2 175 169 185 183
1138 2 175 169 185 186
1139 2 201 169 185 183
1140 2 201 169 185 186
1141 2 1037 171 189 181
1142 2 1037 171 189 190
1143 2 203 171 189 181
1144 2 203 171 189 190
1145 2 189 171 1037 1057
1146 2 189 171 1037 1069
1147 2 203 171 1037 1057
1148 2 203 171 1037 1069
1149 2 604 174 195 108
1150 2 604 174 195 124
1151 2 206 174 195 108
1152 2 206 174 195 124
1153 2 1466 176 271 250
1154 2 1466 176 271 272
1155 2 208 176 271 250
1156 2 208 176 271 272
1157 2 1480 178 199 104
1158 2 1480 178 199 200
1159 2 210 178 199 104
1160 2 210 178 199 200
1161 2 199 178 1480 1483
1162 2 199 178 1480 1512
1163 2 210 178 1480 1483
1164 2 210 178 1480 1512
1165 2 614 180 267 246
1166 2 614 180 267 196
1167 2 212 180 267 246
1168 2 212 180 267 196
1169 2 267 180 614 695
1170 2 267 180 614 646
1171 2 212 180 614 695
1172 2 212 180 614 646
1173 2 1043 181 189 171
1174 2 1043 181 189 190
1175 2 213 181 189 171
1176 2 213 181 189 190
1177 2 177 183 185 169
1178 2 177 183 185 186
1179 2 215 183 185 169
1180 2 215 183 185 186
1181 3 169 185 186 149
1182 3 169 185 186 163
1183 3 183 185 186 149
1184 3 183 185 186 163
1185 3 171 189 190 151
1186 3 171 189 190 161
1187 3 181 189 190 151
1188 3 181 189 190 161
1189 3 174 195 124 154
1190 3 174 195 124 88
1191 3 108 195 124 154
1192 3 108 195 124 88
1193 3 104 199 200 84
1194 3 104 199 200 158
1195 3 178 199 200 84
1196 3 178 199 200 158
1197 3 246 267 196 226
1198 3 246 267 196 160
1199 3 180 267 196 226
1200 3 180 267 196 160
1201 1 217 221 258 235
1202 1 217 221 258 257
1203 1 218 223 262 233
1204 1 218 223 262 261
1205 1 217 226 196 160
1206 1 217 226 196 267
1207 1 218 228 344 302
1208 1 218 228 344 343
1209 1 217 230 272 156
1210 1 217 230 272 271
1211 1 218 232 268 298
1212 1 218 232 268 339
1213 1 217 233 262 223
1214 1 217 233 262 261
1215 1 218 235 258 221
1216 1 218 235 258 257
1217 2 257 241 247 269
1218 2 257 241 247 279
1219 2 273 241 247 269
1220 2 273 241 247 279
1221 2 247 241 257 255
1222 2 247 241 257 258
1223 2 273 241 257 255
1224 2 273 241 257 258
1225 2 1109 243 261 253
1226 2 1109 243 261 262
1227 2 275 243 261 253
1228 2 275 243 261 262
1229 2 261 243 1109 1129
1230 2 261 243 1109 1141
1231 2 275 243 1109 1129
1232 2 275 243 1109 1141
1233 2 676 246 267 180
1234 2 676 246 267 196
1235 2 278 246 267 180
1236 2 278 246 267 196
1237 2 1538 248 343 322
1238 2 1538 248 343 344
1239 2 280 248 343 322
1240 2 280 248 343 344
1241 2 1552 250 271 176
1242 2 1552 250 271 272
1243 2 282 250 271 176
1244 2 282 250 271 272
1245 2 271 250 1552 1555
1246 2 271 250 1552 1584
1247 2 282 250 1552 1555
1248 2 282 250 1552 1584
1249 2 686 252 339 318
1250 2 686 252 339 268
1251 2 284 252 339 318
1252 2 284 252 339 268
1253 2 339 252 686 767
1254 2 339 252 686 718
1255 2 284 252 686 767
1256 2 284 252 686 718
1257 2 1115 253 261 243
1258 2 1115 253 261 262
1259 2 285 253 261 243
1260 2 285 253 261 262
1261 2 249 255 257 241
1262 2 249 255 257 258
1263 2 287 255 257 241
1264 2 287 255 257 258
1265 3 241 257 258 221
1266 3 241 257 258 235
1267 3 255 257 258 221
1268 3 255 257 258 235
1269 3 243 261 262 223
1270 3 243 261 262 233
1271 3 253 261 262 223
1272 3 253 261 262 233
1273 3 176 271 272 156
1274 3 176 271 272 230
1275 3 250 271 272 156
1276 3 250 271 272 230
1277 1 289 293 330 307
1278 1 289 293 330 329
1279 1 289 298 268 232
1280 1 289 298 268 339
1281 1 289 302 344 228
1282 1 289 302 344 343
1283 1 289 305 334 295
1284 1 289 305 334 333
1285 2 329 313 319 341
1286 2 329 313 319 351
1287 2 345 313 319 341
1288 2 345 313 319 351
1289 2 319 313 329 327
1290 2 319 313 329 330
1291 2 345 313 329 327
1292 2 345 313 329 330
1293 2 748 318 339 252
1294 2 748 318 339 268
1295 2 350 318 339 252
1296 2 350 318 339 268
1297 2 1624 322 343 248
1298 2 1624 322 343 344
1299 2 354 322 343 248
1300 2 354 322 343 344
1301 2 343 322 1624 1627
1302 2 343 322 1624 1656
1303 2 354 322 1624 1627
1304 2 354 322 1624 1656
1305 2 1187 325 333 315
1306 2 1187 325 333 334
1307 2 357 325 333 315
1308 2 357 325 333 334
1309 3 313 329 330 293
1310 3 313 329 330 307
1311 3 327 329 330 293
1312 3 327 329 330 307
1313 3 318 339 268 298
1314 3 318 339 268 232
1315 3 252 339 268 298
1316 3 252 339 268 232
1317 3 248 343 344 228
1318 3 248 343 344 302
1319 3 322 343 344 228
1320 3 322 343 344 302
1321 3 30 51 412 10
1322 3 30 51 412 376
1323 3 396 51 412 10
1324 3 396 51 412 376
1325 1 290 295 334 305
1326 1 290 295 334 333
1327 1 290 300 416 374
1328 1 290 300 416 415
1329 1 290 304 340 370
1330 1 290 304 340 411
1331 1 290 307 330 293
1332 1 290 307 330 329
1333 2 1181 315 333 325
1334 2 1181 315 333 334
1335 2 347 315 333 325
1336 2 347 315 333 334
1337 2 333 315 1181 1201
1338 2 333 315 1181 1213
1339 2 347 315 1181 1201
1340 2 347 315 1181 1213
1341 2 1610 320 415 394
1342 2 1610 320 415 416
1343 2 352 320 415 394
1344 2 352 320 415 416
1345 2 758 324 411 390
1346 2 758 324 411 340
1347 2 356 324 411 390
1348 2 356 324 411 340
1349 2 411 324 758 839
1350 2 411 324 758 790
1351 2 356 324 758 839
1352 2 356 324 758 790
1353 2 321 327 329 313
1354 2 321 327 329 330
1355 2 359 327 329 313
1356 2 359 327 329 330
1357 3 315 333 334 295
1358 3 315 333 334 305
1359 3 325 333 334 295
1360 3 325 333 334 305
1361 1 361 365 402 379
1362 1 361 365 402 401
1363 1 362 367 406 377
1364 1 362 367 406 405
1365 1 361 370 340 304
1366 1 361 370 340 411
1367 1 362 372 56 14
1368 1 362 372 56 55
1369 1 361 374 416 300
1370 1 361 374 416 415
1371 1 362 376 412 10
1372 1 362 376 412 51
1373 1 361 377 406 367
1374 1 361 377 406 405
1375 1 362 379 402 365
1376 1 362 379 402 401
1377 2 401 385 391 413
1378 2 401 385 391 423
1379 2 417 385 391 413
1380 2 417 385 391 423
1381 2 391 385 401 399
1382 2 391 385 401 402
1383 2 417 385 401 399
1384 2 417 385 401 402
1385 2 1253 387 405 397
1386 2 1253 387 405 406
1387 2 419 387 405 397
1388 2 419 387 405 406
1389 2 405 387 1253 1273
1390 2 405 387 1253 1285
1391 2 419 387 1253 1273
1392 2 419 387 1253 1285
1393 2 820 390 411 324
1394 2 820 390 411 340
1395 2 422 390 411 324
1396 2 422 390 411 340
1397 2 1682 392 55 34
1398 2 1682 392 55 56
1399 2 424 392 55 34
1400 2 424 392 55 56
1401 2 1696 394 415 320
1402 2 1696 394 415 416
1403 2 426 394 415 320
1404 2 426 394 415 416
1405 2 415 394 1696 1699
1406 2 415 394 1696 1728
1407 2 426 394 1696 1699
1408 2 426 394 1696 1728
1409 2 830 396 51 30
1410 2 830 396 51 412
1411 2 428 396 51 30
1412 2 428 396 51 412
1413 2 51 396 830 479
1414 2 51 396 830 862
1415 2 428 396 830 479
1416 2 428 396 830 862
1417 2 1259 397 405 387
1418 2 1259 397 405 406
1419 2 429 397 405 387
1420 2 429 397 405 406
1421 2 393 399 401 385
1422 2 393 399 401 402
1423 2 431 399 401 385
1424 2 431 399 401 402
1425 3 385 401 402 365
1426 3 385 401 402 379
1427 3 399 401 402 365
1428 3 399 401 402 379
1429 3 387 405 406 367
1430 3 387 405 406 377
1431 3 397 405 406 367
1432 3 397 405 406 377
1433 3 390 411 340 370
1434 3 390 411 340 304
1435 3 324 411 340 370
1436 3 324 411 340 304
1437 3 320 415 416 300
1438 3 320 415 416 374
1439 3 394 415 416 300
1440 3 394 415 416 374
1441 1 433 437 474 451
1442 1 433 437 474 473
1443 1 434 439 478 449
1444 1 434 439 478 477
1445 1 433 442 844 808
1446 1 433 442 844 483
1447 1 434 444 560 518
1448 1 434 444 560 559
1449 1 433 446 488 804
1450 1 433 446 488 487
1451 1 434 448 484 514
1452 1 434 448 484 555
1453 1 433 449 478 439
1454 1 433 449 478 477
1455 1 434 451 474 437
1456 1 434 451 474 473
1457 2 473 457 463 485
1458 2 473 457 463 495
1459 2 489 457 463 485
1460 2 489 457 463 495
1461 2 463 457 473 471
1462 2 463 457 473 474
1463 2 489 457 473 471
1464 2 489 457 473 474
1465 2 1325 459 477 469
1466 2 1325 459 477 478
1467 2 491 459 477 469
1468 2 491 459 477 478
1469 2 477 459 1325 1345
1470 2 477 459 1325 1357
1471 2 491 459 1325 1345
1472 2 491 459 1325 1357
1473 2 28 462 483 828
1474 2 28 462 483 844
1475 2 494 462 483 828
1476 2 494 462 483 844
1477 2 890 464 559 538
1478 2 890 464 559 560
1479 2 496 464 559 538
1480 2 496 464 559 560
1481 2 904 466 487 824
1482 2 904 466 487 488
1483 2 498 466 487 824
1484 2 498 466 487 488
1485 2 487 466 904 907
1486 2 487 466 904 936
1487 2 498 466 904 907
1488 2 498 466 904 936
1489 2 555 468 38 119
1490 2 555 468 38 70
1491 2 500 468 38 119
1492 2 500 468 38 70
1493 2 38 468 555 534
1494 2 38 468 555 484
1495 2 500 468 555 534
1496 2 500 468 555 484
1497 2 1331 469 477 459
1498 2 1331 469 477 478
1499 2 501 469 477 459
1500 2 501 469 477 478
1501 2 465 471 473 457
1502 2 465 471 473 474
1503 2 503 471 473 457
1504 2 503 471 473 474
1505 3 457 473 474 437
1506 3 457 473 474 451
1507 3 471 473 474 437
1508 3 471 473 474 451
1509 3 459 477 478 439
1510 3 459 477 478 449
1511 3 469 477 478 439
1512 3 469 477 478 449
1513 3 824 487 488 804
1514 3 824 487 488 446
1515 3 466 487 488 804
1516 3 466 487 488 446
1517 1 505 509 546 523
1518 1 505 509 546 545
1519 1 505 514 484 448
1520 1 505 514 484 555
1521 1 505 518 560 444
1522 1 505 518 560 559
1523 1 505 521 550 511
1524 1 505 521 550 549
1525 2 545 529 535 557
1526 2 545 529 535 567
1527 2 561 529 535 557
1528 2 561 529 535 567
1529 2 535 529 545 543
1530 2 535 529 545 546
1531 2 561 529 545 543
1532 2 561 529 545 546
1533 2 100 534 555 468
1534 2 100 534 555 484
1535 2 566 534 555 468
1536 2 566 534 555 484
1537 2 976 538 559 464
1538 2 976 538 559 560
1539 2 570 538 559 464
1540 2 570 538 559 560
1541 2 559 538 976 979
1542 2 559 538 976 1008
1543 2 570 538 976 979
1544 2 570 538 976 1008
1545 2 1403 541 549 531
1546 2 1403 541 549 550
1547 2 573 541 549 531
1548 2 573 541 549 550
1549 3 529 545 546 509
1550 3 529 545 546 523
1551 3 543 545 546 509
1552 3 543 545 546 523
1553 3 534 555 484 514
1554 3 534 555 484 448
1555 3 468 555 484 514
1556 3 468 555 484 448
1557 3 464 559 560 444
1558 3 464 559 560 518
1559 3 538 559 560 444
1560 3 538 559 560 518
1561 1 506 511 550 521
1562 1 506 511 550 549
1563 1 506 516 632 590
1564 1 506 516 632 631
1565 1 506 520 556 586
1566 1 506 520 556 627
1567 1 506 523 546 509
1568 1 506 523 546 545
1569 2 1397 531 549 541
1570 2 1397 531 549 550
1571 2 563 531 549 541
1572 2 563 531 549 550
1573 2 549 531 1397 1417
1574 2 549 531 1397 1429
1575 2 563 531 1397 1417
1576 2 563 531 1397 1429
1577 2 962 536 631 610
1578 2 962 536 631 632
1579 2 568 536 631 610
1580 2 568 536 631 632
1581 2 627 540 110 191
1582 2 627 540 110 142
1583 2 572 540 110 191
1584 2 572 540 110 142
1585 2 110 540 627 606
1586 2 110 540 627 556
1587 2 572 540 627 606
1588 2 572 540 627 556
1589 2 537 543 545 529
1590 2 537 543 545 546
1591 2 575 543 545 529
1592 2 575 543 545 546
1593 3 531 549 550 511
1594 3 531 549 550 521
1595 3 541 549 550 511
1596 3 541 549 550 521
1597 1 577 581 618 595
1598 1 577 581 618 617
1599 1 578 583 622 593
1600 1 578 583 622 621
1601 1 577 586 556 520
1602 1 577 586 556 627
1603 1 578 588 704 662
1604 1 578 588 704 703
1605 1 577 590 632 516
1606 1 577 590 632 631
1607 1 578 592 628 658
1608 1 578 592 628 699
1609 1 577 593 622 583
1610 1 577 593 622 621
1611 1 578 595 618 581
1612 1 578 595 618 617
1613 2 617 601 607 629
1614 2 617 601 607 639
1615 2 633 601 607 629
1616 2 633 601 607 639
1617 2 607 601 617 615
1618 2 607 601 617 618
1619 2 633 601 617 615
1620 2 633 601 617 618
1621 2 1469 603 621 613
1622 2 1469 603 621 622
1623 2 635 603 621 613
1624 2 635 603 621 622
1625 2 621 603 1469 1489
1626 2 621 603 1469 1501
1627 2 635 603 1469 1489
1628 2 635 603 1469 1501
1629 2 172 606 627 540
1630 2 172 606 627 556
1631 2 638 606 627 540
1632 2 638 606 627 556
1633 2 1034 608 703 682
1634 2 1034 608 703 704
1635 2 640 608 703 682
1636 2 640 608 703 704
1637 2 1048 610 631 536
1638 2 1048 610 631 632
1639 2 642 610 631 536
1640 2 642 610 631 632
1641 2 631 610 1048 1051
1642 2 631 610 1048 1080
1643 2 642 610 1048 1051
1644 2 642 610 1048 1080
1645 2 699 612 182 263
1646 2 699 612 182 214
1647 2 644 612 182 263
1648 2 644 612 182 214
1649 2 182 612 699 678
1650 2 182 612 699 628
1651 2 644 612 699 678
1652 2 644 612 699 628
1653 2 1475 613 621 603
1654 2 1475 613 621 622
1655 2 645 613 621 603
1656 2 645 613 621 622
1657 2 609 615 617 601
1658 2 609 615 617 618
1659 2 647 615 617 601
1660 2 647 615 617 618
1661 3 601 617 618 581
1662 3 601 617 618 595
1663 3 615 617 618 581
1664 3 615 617 618 595
1665 3 603 621 622 583
1666 3 603 621 622 593
1667 3 613 621 622 583
1668 3 613 621 622 593
1669 3 606 627 556 586
1670 3 606 627 556 520
1671 3 540 627 556 586
1672 3 540 627 556 520
1673 3 536 631 632 516
1674 3 536 631 632 590
1675 3 610 631 632 516
1676 3 610 631 632 590
1677 3 678 699 628 658
1678 3 678 699 628 592
1679 3 612 699 628 658
1680 3 612 699 628 592
1681 1 649 653 690 667
1682 1 649 653 690 689
1683 1 650 655 694 665
1684 1 650 655 694 693
1685 1 649 658 628 592
1686 1 649 658 628 699
1687 1 650 660 776 734
1688 1 650 660 776 775
1689 1 649 662 704 588
1690 1 649 662 704 703
1691 1 650 664 700 730
1692 1 650 664 700 771
1693 1 649 665 694 655
1694 1 649 665 694 693
1695 1 650 667 690 653
1696 1 650 667 690 689
1697 2 689 673 679 701
1698 2 689 673 679 711
1699 2 705 673 679 701
1700 2 705 673 679 711
1701 2 679 673 689 687
1702 2 679 673 689 690
1703 2 705 673 689 687
1704 2 705 673 689 690
1705 2 1541 675 693 685
1706 2 1541 675 693 694
1707 2 707 675 693 685
1708 2 707 675 693 694
1709 2 693 675 1541 1561
1710 2 693 675 1541 1573
1711 2 707 675 1541 1561
1712 2 707 675 1541 1573
1713 2 244 678 699 612
1714 2 244 678 699 628
1715 2 710 678 699 612
1716 2 710 678 699 628
1717 2 1106 680 775 754
1718 2 1106 680 775 776
1719 2 712 680 775 754
1720 2 712 680 775 776
1721 2 1120 682 703 608
1722 2 1120 682 703 704
1723 2 714 682 703 608
1724 2 714 682 703 704
1725 2 703 682 1120 1123
1726 2 703 682 1120 1152
1727 2 714 682 1120 1123
1728 2 714 682 1120 1152
1729 2 771 684 254 335
1730 2 771 684 254 286
1731 2 716 684 254 335
1732 2 716 684 254 286
1733 2 254 684 771 750
1734 2 254 684 771 700
1735 2 716 684 771 750
1736 2 716 684 771 700
1737 2 1547 685 693 675
1738 2 1547 685 693 694
1739 2 717 685 693 675
1740 2 717 685 693 694
1741 2 681 687 689 673
1742 2 681 687 689 690
1743 2 719 687 689 673
1744 2 719 687 689 690
1745 3 673 689 690 653
1746 3 673 689 690 667
1747 3 687 689 690 653
1748 3 687 689 690 667
1749 3 675 693 694 655
1750 3 675 693 694 665
1751 3 685 693 694 655
1752 3 685 693 694 665
1753 3 608 703 704 588
1754 3 608 703 704 662
1755 3 682 703 704 588
1756 3 682 703 704 662
1757 1 721 725 762 739
1758 1 721 725 762 761
1759 1 721 730 700 664
1760 1 721 730 700 771
1761 1 721 734 776 660
1762 1 721 734 776 775
1763 1 721 737 766 727
1764 1 721 737 766 765
1765 2 761 745 751 773
1766 2 761 745 751 783
1767 2 777 745 751 773
1768 2 777 745 751 783
1769 2 751 745 761 759
1770 2 751 745 761 762
1771 2 777 745 761 759
1772 2 777 745 761 762
1773 2 316 750 771 684
1774 2 316 750 771 700
1775 2 782 750 771 684
1776 2 782 750 771 700
1777 2 1192 754 775 680
1778 2 1192 754 775 776
1779 2 786 754 775 680
1780 2 786 754 775 776
1781 2 775 754 1192 1195
1782 2 775 754 1192 1224
1783 2 786 754 1192 1195
1784 2 786 754 1192 1224
1785 2 1619 757 765 747
1786 2 1619 757 765 766
1787 2 789 757 765 747
1788 2 789 757 765 766
1789 3 745 761 762 725
1790 3 745 761 762 739
1791 3 759 761 762 725
1792 3 759 761 762 739
1793 3 750 771 700 730
1794 3 750 771 700 664
1795 3 684 771 700 730
1796 3 684 771 700 664
1797 3 680 775 776 660
1798 3 680 775 776 734
1799 3 754 775 776 660
1800 3 754 775 776 734
1801 3 462 483 844 442
1802 3 462 483 844 808
1803 3 828 483 844 442
1804 3 828 483 844 808
1805 1 722 727 766 737
1806 1 722 727 766 765
1807 1 722 732 848 806
1808 1 722 732 848 847
1809 1 722 736 772 802
1810 1 722 736 772 843
1811 1 722 739 762 725
1812 1 722 739 762 761
1813 2 1613 747 765 757
1814 2 1613 747 765 766
1815 2 779 747 765 757
1816 2 779 747 765 766
1817 2 765 747 1613 1633
1818 2 765 747 1613 1645
1819 2 779 747 1613 1633
1820 2 779 747 1613 1645
1821 2 1178 752 847 826
1822 2 1178 752 847 848
1823 2 784 752 847 826
1824 2 784 752 847 848
1825 2 843 756 326 407
1826 2 843 756 326 358
1827 2 788 756 326 407
1828 2 788 756 326 358
1829 2 326 756 843 822
1830 2 326 756 843 772
1831 2 788 756 843 822
1832 2 788 756 843 772
1833 2 753 759 761 745
1834 2 753 759 761 762
1835 2 791 759 761 745
1836 2 791 759 761 762
1837 3 747 765 766 727
1838 3 747 765 766 737
1839 3 757 765 766 727
1840 3 757 765 766 737
1841 1 793 797 834 811
1842 1 793 797 834 833
1843 1 794 799 838 809
1844 1 794 799 838 837
1845 1 793 802 772 736
1846 1 793 802 772 843
1847 1 794 804 488 446
1848 1 794 804 488 487
1849 1 793 806 848 732
1850 1 793 806 848 847
1851 1 794 808 844 442
1852 1 794 808 844 483
1853 1 793 809 838 799
1854 1 793 809 838 837
1855 1 794 811 834 797
1856 1 794 811 834 833
1857 2 833 817 823 845
1858 2 833 817 823 855
1859 2 849 817 823 845
1860 2 849 817 823 855
1861 2 823 817 833 831
1862 2 823 817 833 834
1863 2 849 817 833 831
1864 2 849 817 833 834
1865 2 1685 819 837 829
1866 2 1685 819 837 838
1867 2 851 819 837 829
1868 2 851 819 837 838
1869 2 837 819 1685 1705
1870 2 837 819 1685 1717
1871 2 851 819 1685 1705
1872 2 851 819 1685 1717
1873 2 388 822 843 756
1874 2 388 822 843 772
1875 2 854 822 843 756
1876 2 854 822 843 772
1877 2 1250 824 487 466
1878 2 1250 824 487 488
1879 2 856 824 487 466
1880 2 856 824 487 488
1881 2 1264 826 847 752
1882 2 1264 826 847 848
1883 2 858 826 847 752
1884 2 858 826 847 848
1885 2 847 826 1264 1267
1886 2 847 826 1264 1296
1887 2 858 826 1264 1267
1888 2 858 826 1264 1296
1889 2 483 828 398 47
1890 2 483 828 398 430
1891 2 860 828 398 47
1892 2 860 828 398 430
1893 2 398 828 483 462
1894 2 398 828 483 844
1895 2 860 828 483 462
1896 2 860 828 483 844
1897 2 1691 829 837 819
1898 2 1691 829 837 838
1899 2 861 829 837 819
1900 2 861 829 837 838
1901 2 825 831 833 817
1902 2 825 831 833 834
1903 2 863 831 833 817
1904 2 863 831 833 834
1905 3 817 833 834 797
1906 3 817 833 834 811
1907 3 831 833 834 797
1908 3 831 833 834 811
1909 3 819 837 838 799
1910 3 819 837 838 809
1911 3 829 837 838 799
1912 3 829 837 838 809
1913 3 822 843 772 802
1914 3 822 843 772 736
1915 3 756 843 772 802
1916 3 756 843 772 736
1917 3 752 847 848 732
1918 3 752 847 848 806
1919 3 826 847 848 732
1920 3 826 847 848 806
1921 1 868 870 908 956
1922 1 868 870 908 979
1923 1 867 872 912 1242
1924 1 867 872 912 911
1925 1 868 873 914 879
1926 1 868 873 914 913
1927 1 867 875 918 877
1928 1 867 875 918 917
1929 1 868 877 918 875
1930 1 868 877 918 917
1931 1 867 879 914 873
1932 1 867 879 914 913
1933 1 868 882 984 944
1934 1 868 882 984 983
1935 1 867 884 1268 1230
1936 1 867 884 1268 907
1937 2 979 890 464 559
1938 2 979 890 464 496
1939 2 922 890 464 559
1940 2 922 890 464 496
1941 2 464 890 979 976
1942 2 464 890 979 908
1943 2 922 890 979 976
1944 2 922 890 979 908
1945 2 1326 892 911 1262
1946 2 1326 892 911 912
1947 2 924 892 911 1262
1948 2 924 892 911 912
1949 2 911 892 1326 1347
1950 2 911 892 1326 1358
1951 2 924 892 1326 1347
1952 2 924 892 1326 1358
1953 2 27 893 913 899
1954 2 27 893 913 914
1955 2 925 893 913 899
1956 2 925 893 913 914
1957 2 889 895 917 897
1958 2 889 895 917 918
1959 2 927 895 917 897
1960 2 927 895 917 918
1961 2 917 897 903 905
1962 2 917 897 903 935
1963 2 929 897 903 905
1964 2 929 897 903 935
1965 2 903 897 917 895
1966 2 903 897 917 918
1967 2 929 897 917 895
1968 2 929 897 917 918
1969 2 913 899 37 45
1970 2 913 899 37 69
1971 2 931 899 37 45
1972 2 931 899 37 69
1973 2 37 899 913 893
1974 2 37 899 913 914
1975 2 931 899 913 893
1976 2 931 899 913 914
1977 2 1332 902 983 964
1978 2 1332 902 983 984
1979 2 934 902 983 964
1980 2 934 902 983 984
1981 2 466 904 907 1250
1982 2 466 904 907 1268
1983 2 936 904 907 1250
1984 2 936 904 907 1268
1985 3 892 911 912 872
1986 3 892 911 912 1242
1987 3 1262 911 912 872
1988 3 1262 911 912 1242
1989 3 893 913 914 873
1990 3 893 913 914 879
1991 3 899 913 914 873
1992 3 899 913 914 879
1993 3 895 917 918 875
1994 3 895 917 918 877
1995 3 897 917 918 875
1996 3 897 917 918 877
1997 1 939 944 984 882
1998 1 939 944 984 983
1999 1 939 947 990 949
2000 1 939 947 990 989
2001 1 939 951 986 945
2002 1 939 951 986 985
2003 1 939 956 908 870
2004 1 939 956 908 979
2005 2 1398 964 983 902
2006 2 1398 964 983 984
2007 2 996 964 983 902
2008 2 996 964 983 984
2009 2 983 964 1398 1419
2010 2 983 964 1398 1430
2011 2 996 964 1398 1419
2012 2 996 964 1398 1430
2013 2 961 967 989 969
2014 2 961 967 989 990
2015 2 999 967 989 969
2016 2 999 967 989 990
2017 2 985 971 109 117
2018 2 985 971 109 141
2019 2 1003 971 109 117
2020 2 1003 971 109 141
2021 2 109 971 985 965
2022 2 109 971 985 986
2023 2 1003 971 985 965
2024 2 1003 971 985 986
2025 2 538 976 979 890
2026 2 538 976 979 908
2027 2 1008 976 979 890
2028 2 1008 976 979 908
2029 3 890 979 908 870
2030 3 890 979 908 956
2031 3 976 979 908 870
2032 3 976 979 908 956
2033 3 964 983 984 944
2034 3 964 983 984 882
2035 3 902 983 984 944
2036 3 902 983 984 882
2037 3 965 985 986 945
2038 3 965 985 986 951
2039 3 971 985 986 945
2040 3 971 985 986 951
2041 1 940 942 980 1028
2042 1 940 942 980 1051
2043 1 940 945 986 951
2044 1 940 945 986 985
2045 1 940 949 990 947
2046 1 940 949 990 989
2047 1 940 954 1056 1016
2048 1 940 954 1056 1055
2049 2 1051 962 536 631
2050 2 1051 962 536 568
2051 2 994 962 536 631
2052 2 994 962 536 568
2053 2 536 962 1051 1048
2054 2 536 962 1051 980
2055 2 994 962 1051 1048
2056 2 994 962 1051 980
2057 2 99 965 985 971
2058 2 99 965 985 986
2059 2 997 965 985 971
2060 2 997 965 985 986
2061 2 989 969 975 977
2062 2 989 969 975 1007
2063 2 1001 969 975 977
2064 2 1001 969 975 1007
2065 2 975 969 989 967
2066 2 975 969 989 990
2067 2 1001 969 989 967
2068 2 1001 969 989 990
2069 2 1404 974 1055 1036
2070 2 1404 974 1055 1056
2071 2 1006 974 1055 1036
2072 2 1006 974 1055 1056
2073 3 967 989 990 947
2074 3 967 989 990 949
2075 3 969 989 990 947
2076 3 969 989 990 949
2077 1 1012 1014 1052 1100
2078 1 1012 1014 1052 1123
2079 1 1011 1016 1056 954
2080 1 1011 1016 1056 1055
2081 1 1012 1017 1058 1023
2082 1 1012 1017 1058 1057
2083 1 1011 1019 1062 1021
2084 1 1011 1019 1062 1061
2085 1 1012 1021 1062 1019
2086 1 1012 1021 1062 1061
2087 1 1011 1023 1058 1017
2088 1 1011 1023 1058 1057
2089 1 1012 1026 1128 1088
2090 1 1012 1026 1128 1127
2091 1 1011 1028 980 942
2092 1 1011 1028 980 1051
2093 2 1123 1034 608 703
2094 2 1123 1034 608 640
2095 2 1066 1034 608 703
2096 2 1066 1034 608 640
2097 2 608 1034 1123 1120
2098 2 608 1034 1123 1052
2099 2 1066 1034 1123 1120
2100 2 1066 1034 1123 1052
2101 2 1470 1036 1055 974
2102 2 1470 1036 1055 1056
2103 2 1068 1036 1055 974
2104 2 1068 1036 1055 1056
2105 2 1055 1036 1470 1491
2106 2 1055 1036 1470 1502
2107 2 1068 1036 1470 1491
2108 2 1068 1036 1470 1502
2109 2 171 1037 1057 1043
2110 2 171 1037 1057 1058
2111 2 1069 1037 1057 1043
2112 2 1069 1037 1057 1058
2113 2 1033 1039 1061 1041
2114 2 1033 1039 1061 1062
2115 2 1071 1039 1061 1041
2116 2 1071 1039 1061 1062
2117 2 1061 1041 1047 1049
2118 2 1061 1041 1047 1079
2119 2 1073 1041 1047 1049
2120 2 1073 1041 1047 1079
2121 2 1047 1041 1061 1039
2122 2 1047 1041 1061 1062
2123 2 1073 1041 1061 1039
2124 2 1073 1041 1061 1062
2125 2 1057 1043 181 189
2126 2 1057 1043 181 213
2127 2 1075 1043 181 189
2128 2 1075 1043 181 213
2129 2 181 1043 1057 1037
2130 2 181 1043 1057 1058
2131 2 1075 1043 1057 1037
2132 2 1075 1043 1057 1058
2133 2 1476 1046 1127 1108
2134 2 1476 1046 1127 1128
2135 2 1078 1046 1127 1108
2136 2 1078 1046 1127 1128
2137 2 610 1048 1051 962
2138 2 610 1048 1051 980
2139 2 1080 1048 1051 962
2140 2 1080 1048 1051 980
2141 3 962 1051 980 942
2142 3 962 1051 980 1028
2143 3 1048 1051 980 942
2144 3 1048 1051 980 1028
2145 3 1036 1055 1056 1016
2146 3 1036 1055 1056 954
2147 3 974 1055 1056 1016
2148 3 974 1055 1056 954
2149 3 1037 1057 1058 1017
2150 3 1037 1057 1058 1023
2151 3 1043 1057 1058 1017
2152 3 1043 1057 1058 1023
2153 3 1039 1061 1062 1019
2154 3 1039 1061 1062 1021
2155 3 1041 1061 1062 1019
2156 3 1041 1061 1062 1021
2157 3 1034 1123 1052 1014
2158 3 1034 1123 1052 1100
2159 3 1120 1123 1052 1014
2160 3 1120 1123 1052 1100
2161 1 1084 1086 1124 1172
2162 1 1084 1086 1124 1195
2163 1 1083 1088 1128 1026
2164 1 1083 1088 1128 1127
2165 1 1084 1089 1130 1095
2166 1 1084 1089 1130 1129
2167 1 1083 1091 1134 1093
2168 1 1083 1091 1134 1133
2169 1 1084 1093 1134 1091
2170 1 1084 1093 1134 1133
2171 1 1083 1095 1130 1089
2172 1 1083 1095 1130 1129
2173 1 1084 1098 1200 1160
2174 1 1084 1098 1200 1199
2175 1 1083 1100 1052 1014
2176 1 1083 1100 1052 1123
2177 2 1195 1106 680 775
2178 2 1195 1106 680 712
2179 2 1138 1106 680 775
2180 2 1138 1106 680 712
2181 2 680 1106 1195 1192
2182 2 680 1106 1195 1124
2183 2 1138 1106 1195 1192
2184 2 1138 1106 1195 1124
2185 2 1542 1108 1127 1046
2186 2 1542 1108 1127 1128
2187 2 1140 1108 1127 1046
2188 2 1140 1108 1127 1128
2189 2 1127 1108 1542 1563
2190 2 1127 1108 1542 1574
2191 2 1140 1108 1542 1563
2192 2 1140 1108 1542 1574
2193 2 243 1109 1129 1115
2194 2 243 1109 1129 1130
2195 2 1141 1109 1129 1115
2196 2 1141 1109 1129 1130
2197 2 1105 1111 1133 1113
2198 2 1105 1111 1133 1134
2199 2 1143 1111 1133 1113
2200 2 1143 1111 1133 1134
2201 2 1133 1113 1119 1121
2202 2 1133 1113 1119 1151
2203 2 1145 1113 1119 1121
2204 2 1145 1113 1119 1151
2205 2 1119 1113 1133 1111
2206 2 1119 1113 1133 1134
2207 2 1145 1113 1133 1111
2208 2 1145 1113 1133 1134
2209 2 1129 1115 253 261
2210 2 1129 1115 253 285
2211 2 1147 1115 253 261
2212 2 1147 1115 253 285
2213 2 253 1115 1129 1109
2214 2 253 1115 1129 1130
2215 2 1147 1115 1129 1109
2216 2 1147 1115 1129 1130
2217 2 1548 1118 1199 1180
2218 2 1548 1118 1199 1200
2219 2 1150 1118 1199 1180
2220 2 1150 1118 1199 1200
2221 2 682 1120 1123 1034
2222 2 682 1120 1123 1052
2223 2 1152 1120 1123 1034
2224 2 1152 1120 1123 1052
2225 3 1108 1127 1128 1088
2226 3 1108 1127 1128 1026
2227 3 1046 1127 1128 1088
2228 3 1046 1127 1128 1026
2229 3 1109 1129 1130 1089
2230 3 1109 1129 1130 1095
2231 3 1115 1129 1130 1089
2232 3 1115 1129 1130 1095
2233 3 1111 1133 1134 1091
2234 3 1111 1133 1134 1093
2235 3 1113 1133 1134 1091
2236 3 1113 1133 1134 1093
2237 1 1155 1160 1200 1098
2238 1 1155 1160 1200 1199
2239 1 1155 1163 1206 1165
2240 1 1155 1163 1206 1205
2241 1 1155 1167 1202 1161
2242 1 1155 1167 1202 1201
2243 1 1155 1172 1124 1086
2244 1 1155 1172 1124 1195
2245 2 1614 1180 1199 1118
2246 2 1614 1180 1199 1200
2247 2 1212 1180 1199 1118
2248 2 1212 1180 1199 1200
2249 2 1199 1180 1614 1635
2250 2 1199 1180 1614 1646
2251 2 1212 1180 1614 1635
2252 2 1212 1180 1614 1646
2253 2 1177 1183 1205 1185
2254 2 1177 1183 1205 1206
2255 2 1215 1183 1205 1185
2256 2 1215 1183 1205 1206
2257 2 1201 1187 325 333
2258 2 1201 1187 325 357
2259 2 1219 1187 325 333
2260 2 1219 1187 325 357
2261 2 325 1187 1201 1181
2262 2 325 1187 1201 1202
2263 2 1219 1187 1201 1181
2264 2 1219 1187 1201 1202
2265 2 754 1192 1195 1106
2266 2 754 1192 1195 1124
2267 2 1224 1192 1195 1106
2268 2 1224 1192 1195 1124
2269 3 1106 1195 1124 1086
2270 3 1106 1195 1124 1172
2271 3 1192 1195 1124 1086
2272 3 1192 1195 1124 1172
2273 3 1180 1199 1200 1160
2274 3 1180 1199 1200 1098
2275 3 1118 1199 1200 1160
2276 3 1118 1199 1200 1098
2277 3 1181 1201 1202 1161
2278 3 1181 1201 1202 1167
2279 3 1187 1201 1202 1161
2280 3 1187 1201 1202 1167
2281 3 1250 907 1268 1230
2282 3 1250 907 1268 884
2283 3 904 907 1268 1230
2284 3 904 907 1268 884
2285 1 1156 1158 1196 1244
2286 1 1156 1158 1196 1267
2287 1 1156 1161 1202 1167
2288 1 1156 1161 1202 1201
2289 1 1156 1165 1206 1163
2290 1 1156 1165 1206 1205
2291 1 1156 1170 1272 1232
2292 1 1156 1170 1272 1271
2293 2 1267 1178 752 847
2294 2 1267 1178 752 784
2295 2 1210 1178 752 847
2296 2 1210 1178 752 784
2297 2 752 1178 1267 1264
2298 2 752 1178 1267 1196
2299 2 1210 1178 1267 1264
2300 2 1210 1178 1267 1196
2301 2 315 1181 1201 1187
2302 2 315 1181 1201 1202
2303 2 1213 1181 1201 1187
2304 2 1213 1181 1201 1202
2305 2 1205 1185 1191 1193
2306 2 1205 1185 1191 1223
2307 2 1217 1185 1191 1193
2308 2 1217 1185 1191 1223
2309 2 1191 1185 1205 1183
2310 2 1191 1185 1205 1206
2311 2 1217 1185 1205 1183
2312 2 1217 1185 1205 1206
2313 2 1620 1190 1271 1252
2314 2 1620 1190 1271 1272
2315 2 1222 1190 1271 1252
2316 2 1222 1190 1271 1272
2317 3 1183 1205 1206 1163
2318 3 1183 1205 1206 1165
2319 3 1185 1205 1206 1163
2320 3 1185 1205 1206 1165
2321 1 1228 1230 1268 884
2322 1 1228 1230 1268 907
2323 1 1227 1232 1272 1170
2324 1 1227 1232 1272 1271
2325 1 1228 1233 1274 1239
2326 1 1228 1233 1274 1273
2327 1 1227 1235 1278 1237
2328 1 1227 1235 1278 1277
2329 1 1228 1237 1278 1235
2330 1 1228 1237 1278 1277
2331 1 1227 1239 1274 1233
2332 1 1227 1239 1274 1273
2333 1 1228 1242 912 872
2334 1 1228 1242 912 911
2335 1 1227 1244 1196 1158
2336 1 1227 1244 1196 1267
2337 2 907 1250 824 487
2338 2 907 1250 824 856
2339 2 1282 1250 824 487
2340 2 1282 1250 824 856
2341 2 824 1250 907 904
2342 2 824 1250 907 1268
2343 2 1282 1250 907 904
2344 2 1282 1250 907 1268
2345 2 1686 1252 1271 1190
2346 2 1686 1252 1271 1272
2347 2 1284 1252 1271 1190
2348 2 1284 1252 1271 1272
2349 2 1271 1252 1686 1707
2350 2 1271 1252 1686 1718
2351 2 1284 1252 1686 1707
2352 2 1284 1252 1686 1718
2353 2 387 1253 1273 1259
2354 2 387 1253 1273 1274
2355 2 1285 1253 1273 1259
2356 2 1285 1253 1273 1274
2357 2 1249 1255 1277 1257
2358 2 1249 1255 1277 1278
2359 2 1287 1255 1277 1257
2360 2 1287 1255 1277 1278
2361 2 1277 1257 1263 1265
2362 2 1277 1257 1263 1295
2363 2 1289 1257 1263 1265
2364 2 1289 1257 1263 1295
2365 2 1263 1257 1277 1255
2366 2 1263 1257 1277 1278
2367 2 1289 1257 1277 1255
2368 2 1289 1257 1277 1278
2369 2 1273 1259 397 405
2370 2 1273 1259 397 429
2371 2 1291 1259 397 405
2372 2 1291 1259 397 429
2373 2 397 1259 1273 1253
2374 2 397 1259 1273 1274
2375 2 1291 1259 1273 1253
2376 2 1291 1259 1273 1274
2377 2 1692 1262 911 892
2378 2 1692 1262 911 912
2379 2 1294 1262 911 892
2380 2 1294 1262 911 912
2381 2 826 1264 1267 1178
2382 2 826 1264 1267 1196
2383 2 1296 1264 1267 1178
2384 2 1296 1264 1267 1196
2385 3 1178 1267 1196 1158
2386 3 1178 1267 1196 1244
2387 3 1264 1267 1196 1158
2388 3 1264 1267 1196 1244
2389 3 1252 1271 1272 1232
2390 3 1252 1271 1272 1170
2391 3 1190 1271 1272 1232
2392 3 1190 1271 1272 1170
2393 3 1253 1273 1274 1233
2394 3 1253 1273 1274 1239
2395 3 1259 1273 1274 1233
2396 3 1259 1273 1274 1239
2397 3 1255 1277 1278 1235
2398 3 1255 1277 1278 1237
2399 3 1257 1277 1278 1235
2400 3 1257 1277 1278 1237
2401 1 1300 1302 1340 1388
2402 1 1300 1302 1340 1411
2403 1 1299 1304 1344 1674
2404 1 1299 1304 1344 1343
2405 1 1300 1305 1346 1311
2406 1 1300 1305 1346 1345
2407 1 1299 1307 1350 1309
2408 1 1299 1307 1350 1349
2409 1 1300 1309 1350 1307
2410 1 1300 1309 1350 1349
2411 1 1299 1311 1346 1305
2412 1 1299 1311 1346 1345
2413 1 1300 1314 1416 1376
2414 1 1300 1314 1416 1415
2415 1 1299 1316 1700 1662
2416 1 1299 1316 1700 1339
2417 2 1411 1322 32 127
2418 2 1411 1322 32 64
2419 2 1354 1322 32 127
2420 2 1354 1322 32 64
2421 2 32 1322 1411 1408
2422 2 32 1322 1411 1340
2423 2 1354 1322 1411 1408
2424 2 1354 1322 1411 1340
2425 2 1343 1324 894 915
2426 2 1343 1324 894 926
2427 2 1356 1324 894 915
2428 2 1356 1324 894 926
2429 2 894 1324 1343 1694
2430 2 894 1324 1343 1344
2431 2 1356 1324 1343 1694
2432 2 1356 1324 1343 1344
2433 2 459 1325 1345 1331
2434 2 459 1325 1345 1346
2435 2 1357 1325 1345 1331
2436 2 1357 1325 1345 1346
2437 2 1321 1327 1349 1329
2438 2 1321 1327 1349 1350
2439 2 1359 1327 1349 1329
2440 2 1359 1327 1349 1350
2441 2 1349 1329 1335 1337
2442 2 1349 1329 1335 1367
2443 2 1361 1329 1335 1337
2444 2 1361 1329 1335 1367
2445 2 1335 1329 1349 1327
2446 2 1335 1329 1349 1350
2447 2 1361 1329 1349 1327
2448 2 1361 1329 1349 1350
2449 2 1345 1331 469 477
2450 2 1345 1331 469 501
2451 2 1363 1331 469 477
2452 2 1363 1331 469 501
2453 2 469 1331 1345 1325
2454 2 469 1331 1345 1346
2455 2 1363 1331 1345 1325
2456 2 1363 1331 1345 1346
2457 2 900 1334 1415 1396
2458 2 900 1334 1415 1416
2459 2 1366 1334 1415 1396
2460 2 1366 1334 1415 1416
2461 2 34 1336 1339 1682
2462 2 34 1336 1339 1700
2463 2 1368 1336 1339 1682
2464 2 1368 1336 1339 1700
2465 3 1324 1343 1344 1304
2466 3 1324 1343 1344 1674
2467 3 1694 1343 1344 1304
2468 3 1694 1343 1344 1674
2469 3 1325 1345 1346 1305
2470 3 1325 1345 1346 1311
2471 3 1331 1345 1346 1305
2472 3 1331 1345 1346 1311
2473 3 1327 1349 1350 1307
2474 3 1327 1349 1350 1309
2475 3 1329 1349 1350 1307
2476 3 1329 1349 1350 1309
2477 1 1371 1376 1416 1314
2478 1 1371 1376 1416 1415
2479 1 1371 1379 1422 1381
2480 1 1371 1379 1422 1421
2481 1 1371 1383 1418 1377
2482 1 1371 1383 1418 1417
2483 1 1371 1388 1340 1302
2484 1 1371 1388 1340 1411
2485 2 1415 1396 966 987
2486 2 1415 1396 966 998
2487 2 1428 1396 966 987
2488 2 1428 1396 966 998
2489 2 966 1396 1415 1334
2490 2 966 1396 1415 1416
2491 2 1428 1396 1415 1334
2492 2 1428 1396 1415 1416
2493 2 1393 1399 1421 1401
2494 2 1393 1399 1421 1422
2495 2 1431 1399 1421 1401
2496 2 1431 1399 1421 1422
2497 2 1417 1403 541 549
2498 2 1417 1403 541 573
2499 2 1435 1403 541 549
2500 2 1435 1403 541 573
2501 2 541 1403 1417 1397
2502 2 541 1403 1417 1418
2503 2 1435 1403 1417 1397
2504 2 1435 1403 1417 1418
2505 2 106 1408 1411 1322
2506 2 106 1408 1411 1340
2507 2 1440 1408 1411 1322
2508 2 1440 1408 1411 1340
2509 3 1322 1411 1340 1302
2510 3 1322 1411 1340 1388
2511 3 1408 1411 1340 1302
2512 3 1408 1411 1340 1388
2513 3 1396 1415 1416 1376
2514 3 1396 1415 1416 1314
2515 3 1334 1415 1416 1376
2516 3 1334 1415 1416 1314
2517 3 1397 1417 1418 1377
2518 3 1397 1417 1418 1383
2519 3 1403 1417 1418 1377
2520 3 1403 1417 1418 1383
2521 1 1372 1374 1412 1460
2522 1 1372 1374 1412 1483
2523 1 1372 1377 1418 1383
2524 1 1372 1377 1418 1417
2525 1 1372 1381 1422 1379
2526 1 1372 1381 1422 1421
2527 1 1372 1386 1488 1448
2528 1 1372 1386 1488 1487
2529 2 1483 1394 104 199
2530 2 1483 1394 104 136
2531 2 1426 1394 104 199
2532 2 1426 1394 104 136
2533 2 104 1394 1483 1480
2534 2 104 1394 1483 1412
2535 2 1426 1394 1483 1480
2536 2 1426 1394 1483 1412
2537 2 531 1397 1417 1403
2538 2 531 1397 1417 1418
2539 2 1429 1397 1417 1403
2540 2 1429 1397 1417 1418
2541 2 1421 1401 1407 1409
2542 2 1421 1401 1407 1439
2543 2 1433 1401 1407 1409
2544 2 1433 1401 1407 1439
2545 2 1407 1401 1421 1399
2546 2 1407 1401 1421 1422
2547 2 1433 1401 1421 1399
2548 2 1433 1401 1421 1422
2549 2 972 1406 1487 1468
2550 2 972 1406 1487 1488
2551 2 1438 1406 1487 1468
2552 2 1438 1406 1487 1488
2553 3 1399 1421 1422 1379
2554 3 1399 1421 1422 1381
2555 3 1401 1421 1422 1379
2556 3 1401 1421 1422 1381
2557 1 1444 1446 1484 1532
2558 1 1444 1446 1484 1555
2559 1 1443 1448 1488 1386
2560 1 1443 1448 1488 1487
2561 1 1444 1449 1490 1455
2562 1 1444 1449 1490 1489
2563 1 1443 1451 1494 1453
2564 1 1443 1451 1494 1493
2565 1 1444 1453 1494 1451
2566 1 1444 1453 1494 1493
2567 1 1443 1455 1490 1449
2568 1 1443 1455 1490 1489
2569 1 1444 1458 1560 1520
2570 1 1444 1458 1560 1559
2571 1 1443 1460 1412 1374
2572 1 1443 1460 1412 1483
2573 2 1555 1466 176 271
2574 2 1555 1466 176 208
2575 2 1498 1466 176 271
2576 2 1498 1466 176 208
2577 2 176 1466 1555 1552
2578 2 176 1466 1555 1484
2579 2 1498 1466 1555 1552
2580 2 1498 1466 1555 1484
2581 2 1487 1468 1038 1059
2582 2 1487 1468 1038 1070
2583 2 1500 1468 1038 1059
2584 2 1500 1468 1038 1070
2585 2 1038 1468 1487 1406
2586 2 1038 1468 1487 1488
2587 2 1500 1468 1487 1406
2588 2 1500 1468 1487 1488
2589 2 603 1469 1489 1475
2590 2 603 1469 1489 1490
2591 2 1501 1469 1489 1475
2592 2 1501 1469 1489 1490
2593 2 1465 1471 1493 1473
2594 2 1465 1471 1493 1494
2595 2 1503 1471 1493 1473
2596 2 1503 1471 1493 1494
2597 2 1493 1473 1479 1481
2598 2 1493 1473 1479 1511
2599 2 1505 1473 1479 1481
2600 2 1505 1473 1479 1511
2601 2 1479 1473 1493 1471
2602 2 1479 1473 1493 1494
2603 2 1505 1473 1493 1471
2604 2 1505 1473 1493 1494
2605 2 1489 1475 613 621
2606 2 1489 1475 613 645
2607 2 1507 1475 613 621
2608 2 1507 1475 613 645
2609 2 613 1475 1489 1469
2610 2 613 1475 1489 1490
2611 2 1507 1475 1489 1469
2612 2 1507 1475 1489 1490
2613 2 1044 1478 1559 1540
2614 2 1044 1478 1559 1560
2615 2 1510 1478 1559 1540
2616 2 1510 1478 1559 1560
2617 2 178 1480 1483 1394
2618 2 178 1480 1483 1412
2619 2 1512 1480 1483 1394
2620 2 1512 1480 1483 1412
2621 3 1394 1483 1412 1374
2622 3 1394 1483 1412 1460
2623 3 1480 1483 1412 1374
2624 3 1480 1483 1412 1460
2625 3 1468 1487 1488 1448
2626 3 1468 1487 1488 1386
2627 3 1406 1487 1488 1448
2628 3 1406 1487 1488 1386
2629 3 1469 1489 1490 1449
2630 3 1469 1489 1490 1455
2631 3 1475 1489 1490 1449
2632 3 1475 1489 1490 1455
2633 3 1471 1493 1494 1451
2634 3 1471 1493 1494 1453
2635 3 1473 1493 1494 1451
2636 3 1473 1493 1494 1453
2637 3 1466 1555 1484 1446
2638 3 1466 1555 1484 1532
2639 3 1552 1555 1484 1446
2640 3 1552 1555 1484 1532
2641 1 1516 1518 1556 1604
2642 1 1516 1518 1556 1627
2643 1 1515 1520 1560 1458
2644 1 1515 1520 1560 1559
2645 1 1516 1521 1562 1527
2646 1 1516 1521 1562 1561
2647 1 1515 1523 1566 1525
2648 1 1515 1523 1566 1565
2649 1 1516 1525 1566 1523
2650 1 1516 1525 1566 1565
2651 1 1515 1527 1562 1521
2652 1 1515 1527 1562 1561
2653 1 1516 1530 1632 1592
2654 1 1516 1530 1632 1631
2655 1 1515 1532 1484 1446
2656 1 1515 1532 1484 1555
2657 2 1627 1538 248 343
2658 2 1627 1538 248 280
2659 2 1570 1538 248 343
2660 2 1570 1538 248 280
2661 2 248 1538 1627 1624
2662 2 248 1538 1627 1556
2663 2 1570 1538 1627 1624
2664 2 1570 1538 1627 1556
2665 2 1559 1540 1110 1131
2666 2 1559 1540 1110 1142
2667 2 1572 1540 1110 1131
2668 2 1572 1540 1110 1142
2669 2 1110 1540 1559 1478
2670 2 1110 1540 1559 1560
2671 2 1572 1540 1559 1478
2672 2 1572 1540 1559 1560
2673 2 675 1541 1561 1547
2674 2 675 1541 1561 1562
2675 2 1573 1541 1561 1547
2676 2 1573 1541 1561 1562
2677 2 1537 1543 1565 1545
2678 2 1537 1543 1565 1566
2679 2 1575 1543 1565 1545
2680 2 1575 1543 1565 1566
2681 2 1565 1545 1551 1553
2682 2 1565 1545 1551 1583
2683 2 1577 1545 1551 1553
2684 2 1577 1545 1551 1583
2685 2 1551 1545 1565 1543
2686 2 1551 1545 1565 1566
2687 2 1577 1545 1565 1543
2688 2 1577 1545 1565 1566
2689 2 1561 1547 685 693
2690 2 1561 1547 685 717
2691 2 1579 1547 685 693
2692 2 1579 1547 685 717
2693 2 685 1547 1561 1541
2694 2 685 1547 1561 1562
2695 2 1579 1547 1561 1541
2696 2 1579 1547 1561 1562
2697 2 1116 1550 1631 1612
2698 2 1116 1550 1631 1632
2699 2 1582 1550 1631 1612
2700 2 1582 1550 1631 1632
2701 2 250 1552 1555 1466
2702 2 250 1552 1555 1484
2703 2 1584 1552 1555 1466
2704 2 1584 1552 1555 1484
2705 3 1540 1559 1560 1520
2706 3 1540 1559 1560 1458
2707 3 1478 1559 1560 1520
2708 3 1478 1559 1560 1458
2709 3 1541 1561 1562 1521
2710 3 1541 1561 1562 1527
2711 3 1547 1561 1562 1521
2712 3 1547 1561 1562 1527
2713 3 1543 1565 1566 1523
2714 3 1543 1565 1566 1525
2715 3 1545 1565 1566 1523
2716 3 1545 1565 1566 1525
2717 1 1587 1592 1632 1530
2718 1 1587 1592 1632 1631
2719 1 1587 1595 1638 1597
2720 1 1587 1595 1638 1637
2721 1 1587 1599 1634 1593
2722 1 1587 1599 1634 1633
2723 1 1587 1604 1556 1518
2724 1 1587 1604 1556 1627
2725 2 1631 1612 1182 1203
2726 2 1631 1612 1182 1214
2727 2 1644 1612 1182 1203
2728 2 1644 1612 1182 1214
2729 2 1182 1612 1631 1550
2730 2 1182 1612 1631 1632
2731 2 1644 1612 1631 1550
2732 2 1644 1612 1631 1632
2733 2 1609 1615 1637 1617
2734 2 1609 1615 1637 1638
2735 2 1647 1615 1637 1617
2736 2 1647 1615 1637 1638
2737 2 1633 1619 757 765
2738 2 1633 1619 757 789
2739 2 1651 1619 757 765
2740 2 1651 1619 757 789
2741 2 757 1619 1633 1613
2742 2 757 1619 1633 1634
2743 2 1651 1619 1633 1613
2744 2 1651 1619 1633 1634
2745 2 322 1624 1627 1538
2746 2 322 1624 1627 1556
2747 2 1656 1624 1627 1538
2748 2 1656 1624 1627 1556
2749 3 1538 1627 1556 1518
2750 3 1538 1627 1556 1604
2751 3 1624 1627 1556 1518
2752 3 1624 1627 1556 1604
2753 3 1612 1631 1632 1592
2754 3 1612 1631 1632 1530
2755 3 1550 1631 1632 1592
2756 3 1550 1631 1632 1530
2757 3 1613 1633 1634 1593
2758 3 1613 1633 1634 1599
2759 3 1619 1633 1634 1593
2760 3 1619 1633 1634 1599
2761 3 1682 1339 1700 1662
2762 3 1682 1339 1700 1316
2763 3 1336 1339 1700 1662
2764 3 1336 1339 1700 1316
2765 1 1588 1590 1628 1676
2766 1 1588 1590 1628 1699
2767 1 1588 1593 1634 1599
2768 1 1588 1593 1634 1633
2769 1 1588 1597 1638 1595
2770 1 1588 1597 1638 1637
2771 1 1588 1602 1704 1664
2772 1 1588 1602 1704 1703
2773 2 1699 1610 320 415
2774 2 1699 1610 320 352
2775 2 1642 1610 320 415
2776 2 1642 1610 320 352
2777 2 320 1610 1699 1696
2778 2 320 1610 1699 1628
2779 2 1642 1610 1699 1696
2780 2 1642 1610 1699 1628
2781 2 747 1613 1633 1619
2782 2 747 1613 1633 1634
2783 2 1645 1613 1633 1619
2784 2 1645 1613 1633 1634
2785 2 1637 1617 1623 1625
2786 2 1637 1617 1623 1655
2787 2 1649 1617 1623 1625
2788 2 1649 1617 1623 1655
2789 2 1623 1617 1637 1615
2790 2 1623 1617 1637 1638
2791 2 1649 1617 1637 1615
2792 2 1649 1617 1637 1638
2793 2 1188 1622 1703 1684
2794 2 1188 1622 1703 1704
2795 2 1654 1622 1703 1684
2796 2 1654 1622 1703 1704
2797 3 1615 1637 1638 1595
2798 3 1615 1637 1638 1597
2799 3 1617 1637 1638 1595
2800 3 1617 1637 1638 1597
2801 1 1660 1662 1700 1316
2802 1 1660 1662 1700 1339
2803 1 1659 1664 1704 1602
2804 1 1659 1664 1704 1703
2805 1 1660 1665 1706 1671
2806 1 1660 1665 1706 1705
2807 1 1659 1667 1710 1669
2808 1 1659 1667 1710 1709
2809 1 1660 1669 1710 1667
2810 1 1660 1669 1710 1709
2811 1 1659 1671 1706 1665
2812 1 1659 1671 1706 1705
2813 1 1660 1674 1344 1304
2814 1 1660 1674 1344 1343
2815 1 1659 1676 1628 1590
2816 1 1659 1676 1628 1699
2817 2 1339 1682 392 55
2818 2 1339 1682 392 424
2819 2 1714 1682 392 55
2820 2 1714 1682 392 424
2821 2 392 1682 1339 1336
2822 2 392 1682 1339 1700
2823 2 1714 1682 1339 1336
2824 2 1714 1682 1339 1700
2825 2 1703 1684 1254 1275
2826 2 1703 1684 1254 1286
2827 2 1716 1684 1254 1275
2828 2 1716 1684 1254 1286
2829 2 1254 1684 1703 1622
2830 2 1254 1684 1703 1704
2831 2 1716 1684 1703 1622
2832 2 1716 1684 1703 1704
2833 2 819 1685 1705 1691
2834 2 819 1685 1705 1706
2835 2 1717 1685 1705 1691
2836 2 1717 1685 1705 1706
2837 2 1681 1687 1709 1689
2838 2 1681 1687 1709 1710
2839 2 1719 1687 1709 1689
2840 2 1719 1687 1709 1710
2841 2 1709 1689 1695 1697
2842 2 1709 1689 1695 1727
2843 2 1721 1689 1695 1697
2844 2 1721 1689 1695 1727
2845 2 1695 1689 1709 1687
2846 2 1695 1689 1709 1710
2847 2 1721 1689 1709 1687
2848 2 1721 1689 1709 1710
2849 2 1705 1691 829 837
2850 2 1705 1691 829 861
2851 2 1723 1691 829 837
2852 2 1723 1691 829 861
2853 2 829 1691 1705 1685
2854 2 829 1691 1705 1706
2855 2 1723 1691 1705 1685
2856 2 1723 1691 1705 1706
2857 2 1260 1694 1343 1324
2858 2 1260 1694 1343 1344
2859 2 1726 1694 1343 1324
2860 2 1726 1694 1343 1344
2861 2 394 1696 1699 1610
2862 2 394 1696 1699 1628
2863 2 1728 1696 1699 1610
2864 2 1728 1696 1699 1628
2865 3 1610 1699 1628 1590
2866 3 1610 1699 1628 1676
2867 3 1696 1699 1628 1590
2868 3 1696 1699 1628 1676
2869 3 1684 1703 1704 1664
2870 3 1684 1703 1704 1602
2871 3 1622 1703 1704 1664
2872 3 1622 1703 1704 1602
2873 3 1685 1705 1706 1665
2874 3 1685 1705 1706 1671
2875 3 1691 1705 1706 1665
2876 3 1691 1705 1706 1671
2877 3 1687 1709 1710 1667
2878 3 1687 1709 1710 1669
2879 3 1689 1709 1710 1667
2880 3 1689 1709 1710 1669
2881 1 865 869 906 883
2882 1 865 869 906 905
2883 1 866 871 910 881
2884 1 866 871 910 909
2885 1 865 874 1276 1240
2886 1 865 874 1276 915
2887 1 866 876 992 950
2888 1 866 876 992 991
2889 1 865 878 920 1236
2890 1 865 878 920 919
2891 1 866 880 916 946
2892 1 866 880 916 987
2893 1 865 881 910 871
2894 1 865 881 910 909
2895 1 866 883 906 869
2896 1 866 883 906 905
2897 2 905 889 895 917
2898 2 905 889 895 927
2899 2 921 889 895 917
2900 2 921 889 895 927
2901 2 895 889 905 903
2902 2 895 889 905 906
2903 2 921 889 905 903
2904 2 921 889 905 906
2905 2 909 891 29 49
2906 2 909 891 29 61
2907 2 923 891 29 49
2908 2 923 891 29 61
2909 2 29 891 909 901
2910 2 29 891 909 910
2911 2 923 891 909 901
2912 2 923 891 909 910
2913 2 1324 894 915 1260
2914 2 1324 894 915 1276
2915 2 926 894 915 1260
2916 2 926 894 915 1276
2917 2 458 896 991 970
2918 2 458 896 991 992
2919 2 928 896 991 970
2920 2 928 896 991 992
2921 2 919 898 472 475
2922 2 919 898 472 504
2923 2 930 898 472 475
2924 2 930 898 472 504
2925 2 472 898 919 1256
2926 2 472 898 919 920
2927 2 930 898 919 1256
2928 2 930 898 919 920
2929 2 1334 900 987 966
2930 2 1334 900 987 916
2931 2 932 900 987 966
2932 2 932 900 987 916
2933 2 987 900 1334 1415
2934 2 987 900 1334 1366
2935 2 932 900 1334 1415
2936 2 932 900 1334 1366
2937 2 35 901 909 891
2938 2 35 901 909 910
2939 2 933 901 909 891
2940 2 933 901 909 910
2941 2 897 903 905 889
2942 2 897 903 905 906
2943 2 935 903 905 889
2944 2 935 903 905 906
2945 3 889 905 906 869
2946 3 889 905 906 883
2947 3 903 905 906 869
2948 3 903 905 906 883
2949 3 891 909 910 871
2950 3 891 909 910 881
2951 3 901 909 910 871
2952 3 901 909 910 881
2953 3 1256 919 920 1236
2954 3 1256 919 920 878
2955 3 898 919 920 1236
2956 3 898 919 920 878
2957 1 937 941 978 955
2958 1 937 941 978 977
2959 1 937 946 916 880
2960 1 937 946 916 987
2961 1 937 950 992 876
2962 1 937 950 992 991
2963 1 937 953 982 943
2964 1 937 953 982 981
2965 2 977 961 967 989
2966 2 977 961 967 999
2967 2 993 961 967 989
2968 2 993 961 967 999
2969 2 967 961 977 975
2970 2 967 961 977 978
2971 2 993 961 977 975
2972 2 993 961 977 978
2973 2 1396 966 987 900
2974 2 1396 966 987 916
2975 2 998 966 987 900
2976 2 998 966 987 916
2977 2 991 970 544 547
2978 2 991 970 544 576
2979 2 1002 970 544 547
2980 2 1002 970 544 576
2981 2 544 970 991 896
2982 2 544 970 991 992
2983 2 1002 970 991 896
2984 2 1002 970 991 992
2985 2 107 973 981 963
2986 2 107 973 981 982
2987 2 1005 973 981 963
2988 2 1005 973 981 982
2989 3 961 977 978 941
2990 3 961 977 978 955
2991 3 975 977 978 941
2992 3 975 977 978 955
2993 3 966 987 916 946
2994 3 966 987 916 880
2995 3 900 987 916 946
2996 3 900 987 916 880
2997 3 896 991 992 876
2998 3 896 991 992 950
2999 3 970 991 992 876
3000 3 970 991 992 950
3001 1 938 943 982 953
3002 1 938 943 982 981
3003 1 938 948 1064 1022
3004 1 938 948 1064 1063
3005 1 938 952 988 1018
3006 1 938 952 988 1059
3007 1 938 955 978 941
3008 1 938 955 978 977
3009 2 981 963 101 121
3010 2 981 963 101 133
3011 2 995 963 101 121
3012 2 995 963 101 133
3013 2 101 963 981 973
3014 2 101 963 981 982
3015 2 995 963 981 973
3016 2 995 963 981 982
3017 2 530 968 1063 1042
3018 2 530 968 1063 1064
3019 2 1000 968 1063 1042
3020 2 1000 968 1063 1064
3021 2 1406 972 1059 1038
3022 2 1406 972 1059 988
3023 2 1004 972 1059 1038
3024 2 1004 972 1059 988
3025 2 1059 972 1406 1487
3026 2 1059 972 1406 1438
3027 2 1004 972 1406 1487
3028 2 1004 972 1406 1438
3029 2 969 975 977 961
3030 2 969 975 977 978
3031 2 1007 975 977 961
3032 2 1007 975 977 978
3033 3 963 981 982 943
3034 3 963 981 982 953
3035 3 973 981 982 943
3036 3 973 981 982 953
3037 1 1009 1013 1050 1027
3038 1 1009 1013 1050 1049
3039 1 1010 1015 1054 1025
3040 1 1010 1015 1054 1053
3041 1 1009 1018 988 952
3042 1 1009 1018 988 1059
3043 1 1010 1020 1136 1094
3044 1 1010 1020 1136 1135
3045 1 1009 1022 1064 948
3046 1 1009 1022 1064 1063
3047 1 1010 1024 1060 1090
3048 1 1010 1024 1060 1131
3049 1 1009 1025 1054 1015
3050 1 1009 1025 1054 1053
3051 1 1010 1027 1050 1013
3052 1 1010 1027 1050 1049
3053 2 1049 1033 1039 1061
3054 2 1049 1033 1039 1071
3055 2 1065 1033 1039 1061
3056 2 1065 1033 1039 1071
3057 2 1039 1033 1049 1047
3058 2 1039 1033 1049 1050
3059 2 1065 1033 1049 1047
3060 2 1065 1033 1049 1050
3061 2 1053 1035 173 193
3062 2 1053 1035 173 205
3063 2 1067 1035 173 193
3064 2 1067 1035 173 205
3065 2 173 1035 1053 1045
3066 2 173 1035 1053 1054
3067 2 1067 1035 1053 1045
3068 2 1067 1035 1053 1054
3069 2 1468 1038 1059 972
3070 2 1468 1038 1059 988
3071 2 1070 1038 1059 972
3072 2 1070 1038 1059 988
3073 2 602 1040 1135 1114
3074 2 602 1040 1135 1136
3075 2 1072 1040 1135 1114
3076 2 1072 1040 1135 1136
3077 2 1063 1042 616 619
3078 2 1063 1042 616 648
3079 2 1074 1042 616 619
3080 2 1074 1042 616 648
3081 2 616 1042 1063 968
3082 2 616 1042 1063 1064
3083 2 1074 1042 1063 968
3084 2 1074 1042 1063 1064
3085 2 1478 1044 1131 1110
3086 2 1478 1044 1131 1060
3087 2 1076 1044 1131 1110
3088 2 1076 1044 1131 1060
3089 2 1131 1044 1478 1559
3090 2 1131 1044 1478 1510
3091 2 1076 1044 1478 1559
3092 2 1076 1044 1478 1510
3093 2 179 1045 1053 1035
3094 2 179 1045 1053 1054
3095 2 1077 1045 1053 1035
3096 2 1077 1045 1053 1054
3097 2 1041 1047 1049 1033
3098 2 1041 1047 1049 1050
3099 2 1079 1047 1049 1033
3100 2 1079 1047 1049 1050
3101 3 1033 1049 1050 1013
3102 3 1033 1049 1050 1027
3103 3 1047 1049 1050 1013
3104 3 1047 1049 1050 1027
3105 3 1035 1053 1054 1015
3106 3 1035 1053 1054 1025
3107 3 1045 1053 1054 1015
3108 3 1045 1053 1054 1025
3109 3 1038 1059 988 1018
3110 3 1038 1059 988 952
3111 3 972 1059 988 1018
3112 3 972 1059 988 952
3113 3 968 1063 1064 948
3114 3 968 1063 1064 1022
3115 3 1042 1063 1064 948
3116 3 1042 1063 1064 1022
3117 3 1110 1131 1060 1090
3118 3 1110 1131 1060 1024
3119 3 1044 1131 1060 1090
3120 3 1044 1131 1060 1024
3121 1 1081 1085 1122 1099
3122 1 1081 1085 1122 1121
3123 1 1082 1087 1126 1097
3124 1 1082 1087 1126 1125
3125 1 1081 1090 1060 1024
3126 1 1081 1090 1060 1131
3127 1 1082 1092 1208 1166
3128 1 1082 1092 1208 1207
3129 1 1081 1094 1136 1020
3130 1 1081 1094 1136 1135
3131 1 1082 1096 1132 1162
3132 1 1082 1096 1132 1203
3133 1 1081 1097 1126 1087
3134 1 1081 1097 1126 1125
3135 1 1082 1099 1122 1085
3136 1 1082 1099 1122 1121
3137 2 1121 1105 1111 1133
3138 2 1121 1105 1111 1143
3139 2 1137 1105 1111 1133
3140 2 1137 1105 1111 1143
3141 2 1111 1105 1121 1119
3142 2 1111 1105 1121 1122
3143 2 1137 1105 1121 1119
3144 2 1137 1105 1121 1122
3145 2 1125 1107 245 265
3146 2 1125 1107 245 277
3147 2 1139 1107 245 265
3148 2 1139 1107 245 277
3149 2 245 1107 1125 1117
3150 2 245 1107 1125 1126
3151 2 1139 1107 1125 1117
3152 2 1139 1107 1125 1126
3153 2 1540 1110 1131 1044
3154 2 1540 1110 1131 1060
3155 2 1142 1110 1131 1044
3156 2 1142 1110 1131 1060
3157 2 674 1112 1207 1186
3158 2 674 1112 1207 1208
3159 2 1144 1112 1207 1186
3160 2 1144 1112 1207 1208
3161 2 1135 1114 688 691
3162 2 1135 1114 688 720
3163 2 1146 1114 688 691
3164 2 1146 1114 688 720
3165 2 688 1114 1135 1040
3166 2 688 1114 1135 1136
3167 2 1146 1114 1135 1040
3168 2 1146 1114 1135 1136
3169 2 1550 1116 1203 1182
3170 2 1550 1116 1203 1132
3171 2 1148 1116 1203 1182
3172 2 1148 1116 1203 1132
3173 2 1203 1116 1550 1631
3174 2 1203 1116 1550 1582
3175 2 1148 1116 1550 1631
3176 2 1148 1116 1550 1582
3177 2 251 1117 1125 1107
3178 2 251 1117 1125 1126
3179 2 1149 1117 1125 1107
3180 2 1149 1117 1125 1126
3181 2 1113 1119 1121 1105
3182 2 1113 1119 1121 1122
3183 2 1151 1119 1121 1105
3184 2 1151 1119 1121 1122
3185 3 1105 1121 1122 1085
3186 3 1105 1121 1122 1099
3187 3 1119 1121 1122 1085
3188 3 1119 1121 1122 1099
3189 3 1107 1125 1126 1087
3190 3 1107 1125 1126 1097
3191 3 1117 1125 1126 1087
3192 3 1117 1125 1126 1097
3193 3 1040 1135 1136 1020
3194 3 1040 1135 1136 1094
3195 3 1114 1135 1136 1020
3196 3 1114 1135 1136 1094
3197 1 1153 1157 1194 1171
3198 1 1153 1157 1194 1193
3199 1 1153 1162 1132 1096
3200 1 1153 1162 1132 1203
3201 1 1153 1166 1208 1092
3202 1 1153 1166 1208 1207
3203 1 1153 1169 1198 1159
3204 1 1153 1169 1198 1197
3205 2 1193 1177 1183 1205
3206 2 1193 1177 1183 1215
3207 2 1209 1177 1183 1205
3208 2 1209 1177 1183 1215
3209 2 1183 1177 1193 1191
3210 2 1183 1177 1193 1194
3211 2 1209 1177 1193 1191
3212 2 1209 1177 1193 1194
3213 2 1612 1182 1203 1116
3214 2 1612 1182 1203 1132
3215 2 1214 1182 1203 1116
3216 2 1214 1182 1203 1132
3217 2 1207 1186 760 763
3218 2 1207 1186 760 792
3219 2 1218 1186 760 763
3220 2 1218 1186 760 792
3221 2 760 1186 1207 1112
3222 2 760 1186 1207 1208
3223 2 1218 1186 1207 1112
3224 2 1218 1186 1207 1208
3225 2 323 1189 1197 1179
3226 2 323 1189 1197 1198
3227 2 1221 1189 1197 1179
3228 2 1221 1189 1197 1198
3229 3 1177 1193 1194 1157
3230 3 1177 1193 1194 1171
3231 3 1191 1193 1194 1157
3232 3 1191 1193 1194 1171
3233 3 1182 1203 1132 1162
3234 3 1182 1203 1132 1096
3235 3 1116 1203 1132 1162
3236 3 1116 1203 1132 1096
3237 3 1112 1207 1208 1092
3238 3 1112 1207 1208 1166
3239 3 1186 1207 1208 1092
3240 3 1186 1207 1208 1166
3241 3 894 915 1276 874
3242 3 894 915 1276 1240
3243 3 1260 915 1276 874
3244 3 1260 915 1276 1240
3245 1 1154 1159 1198 1169
3246 1 1154 1159 1198 1197
3247 1 1154 1164 1280 1238
3248 1 1154 1164 1280 1279
3249 1 1154 1168 1204 1234
3250 1 1154 1168 1204 1275
3251 1 1154 1171 1194 1157
3252 1 1154 1171 1194 1193
3253 2 1197 1179 317 337
3254 2 1197 1179 317 349
3255 2 1211 1179 317 337
3256 2 1211 1179 317 349
3257 2 317 1179 1197 1189
3258 2 317 1179 1197 1198
3259 2 1211 1179 1197 1189
3260 2 1211 1179 1197 1198
3261 2 746 1184 1279 1258
3262 2 746 1184 1279 1280
3263 2 1216 1184 1279 1258
3264 2 1216 1184 1279 1280
3265 2 1622 1188 1275 1254
3266 2 1622 1188 1275 1204
3267 2 1220 1188 1275 1254
3268 2 1220 1188 1275 1204
3269 2 1275 1188 1622 1703
3270 2 1275 1188 1622 1654
3271 2 1220 1188 1622 1703
3272 2 1220 1188 1622 1654
3273 2 1185 1191 1193 1177
3274 2 1185 1191 1193 1194
3275 2 1223 1191 1193 1177
3276 2 1223 1191 1193 1194
3277 3 1179 1197 1198 1159
3278 3 1179 1197 1198 1169
3279 3 1189 1197 1198 1159
3280 3 1189 1197 1198 1169
3281 1 1225 1229 1266 1243
3282 1 1225 1229 1266 1265
3283 1 1226 1231 1270 1241
3284 1 1226 1231 1270 1269
3285 1 1225 1234 1204 1168
3286 1 1225 1234 1204 1275
3287 1 1226 1236 920 878
3288 1 1226 1236 920 919
3289 1 1225 1238 1280 1164
3290 1 1225 1238 1280 1279
3291 1 1226 1240 1276 874
3292 1 1226 1240 1276 915
3293 1 1225 1241 1270 1231
3294 1 1225 1241 1270 1269
3295 1 1226 1243 1266 1229
3296 1 1226 1243 1266 1265
3297 2 1265 1249 1255 1277
3298 2 1265 1249 1255 1287
3299 2 1281 1249 1255 1277
3300 2 1281 1249 1255 1287
3301 2 1255 1249 1265 1263
3302 2 1255 1249 1265 1266
3303 2 1281 1249 1265 1263
3304 2 1281 1249 1265 1266
3305 2 1269 1251 389 409
3306 2 1269 1251 389 421
3307 2 1283 1251 389 409
3308 2 1283 1251 389 421
3309 2 389 1251 1269 1261
3310 2 389 1251 1269 1270
3311 2 1283 1251 1269 1261
3312 2 1283 1251 1269 1270
3313 2 1684 1254 1275 1188
3314 2 1684 1254 1275 1204
3315 2 1286 1254 1275 1188
3316 2 1286 1254 1275 1204
3317 2 818 1256 919 898
3318 2 818 1256 919 920
3319 2 1288 1256 919 898
3320 2 1288 1256 919 920
3321 2 1279 1258 832 835
3322 2 1279 1258 832 864
3323 2 1290 1258 832 835
3324 2 1290 1258 832 864
3325 2 832 1258 1279 1184
3326 2 832 1258 1279 1280
3327 2 1290 1258 1279 1184
3328 2 1290 1258 1279 1280
3329 2 1694 1260 915 894
3330 2 1694 1260 915 1276
3331 2 1292 1260 915 894
3332 2 1292 1260 915 1276
3333 2 915 1260 1694 1343
3334 2 915 1260 1694 1726
3335 2 1292 1260 1694 1343
3336 2 1292 1260 1694 1726
3337 2 395 1261 1269 1251
3338 2 395 1261 1269 1270
3339 2 1293 1261 1269 1251
3340 2 1293 1261 1269 1270
3341 2 1257 1263 1265 1249
3342 2 1257 1263 1265 1266
3343 2 1295 1263 1265 1249
3344 2 1295 1263 1265 1266
3345 3 1249 1265 1266 1229
3346 3 1249 1265 1266 1243
3347 3 1263 1265 1266 1229
3348 3 1263 1265 1266 1243
3349 3 1251 1269 1270 1231
3350 3 1251 1269 1270 1241
3351 3 1261 1269 1270 1231
3352 3 1261 1269 1270 1241
3353 3 1254 1275 1204 1234
3354 3 1254 1275 1204 1168
3355 3 1188 1275 1204 1234
3356 3 1188 1275 1204 1168
3357 3 1184 1279 1280 1164
3358 3 1184 1279 1280 1238
3359 3 1258 1279 1280 1164
3360 3 1258 1279 1280 1238
3361 1 1297 1301 1338 1315
3362 1 1297 1301 1338 1337
3363 1 1298 1303 1342 1313
3364 1 1298 1303 1342 1341
3365 1 1297 1306 1708 1672
3366 1 1297 1306 1708 1347
3367 1 1298 1308 1424 1382
3368 1 1298 1308 1424 1423
3369 1 1297 1310 1352 1668
3370 1 1297 1310 1352 1351
3371 1 1298 1312 1348 1378
3372 1 1298 1312 1348 1419
3373 1 1297 1313 1342 1303
3374 1 1297 1313 1342 1341
3375 1 1298 1315 1338 1301
3376 1 1298 1315 1338 1337
3377 2 1337 1321 1327 1349
3378 2 1337 1321 1327 1359
3379 2 1353 1321 1327 1349
3380 2 1353 1321 1327 1359
3381 2 1327 1321 1337 1335
3382 2 1327 1321 1337 1338
3383 2 1353 1321 1337 1335
3384 2 1353 1321 1337 1338
3385 2 1341 1323 461 481
3386 2 1341 1323 461 493
3387 2 1355 1323 461 481
3388 2 1355 1323 461 493
3389 2 461 1323 1341 1333
3390 2 461 1323 1341 1342
3391 2 1355 1323 1341 1333
3392 2 1355 1323 1341 1342
3393 2 892 1326 1347 1692
3394 2 892 1326 1347 1708
3395 2 1358 1326 1347 1692
3396 2 1358 1326 1347 1708
3397 2 26 1328 1423 1402
3398 2 26 1328 1423 1424
3399 2 1360 1328 1423 1402
3400 2 1360 1328 1423 1424
3401 2 1351 1330 40 43
3402 2 1351 1330 40 72
3403 2 1362 1330 40 43
3404 2 1362 1330 40 72
3405 2 40 1330 1351 1688
3406 2 40 1330 1351 1352
3407 2 1362 1330 1351 1688
3408 2 1362 1330 1351 1352
3409 2 1419 1332 902 983
3410 2 1419 1332 902 934
3411 2 1364 1332 902 983
3412 2 1364 1332 902 934
3413 2 902 1332 1419 1398
3414 2 902 1332 1419 1348
3415 2 1364 1332 1419 1398
3416 2 1364 1332 1419 1348
3417 2 467 1333 1341 1323
3418 2 467 1333 1341 1342
3419 2 1365 1333 1341 1323
3420 2 1365 1333 1341 1342
3421 2 1329 1335 1337 1321
3422 2 1329 1335 1337 1338
3423 2 1367 1335 1337 1321
3424 2 1367 1335 1337 1338
3425 3 1321 1337 1338 1301
3426 3 1321 1337 1338 1315
3427 3 1335 1337 1338 1301
3428 3 1335 1337 1338 1315
3429 3 1323 1341 1342 1303
3430 3 1323 1341 1342 1313
3431 3 1333 1341 1342 1303
3432 3 1333 1341 1342 1313
3433 3 1688 1351 1352 1668
3434 3 1688 1351 1352 1310
3435 3 1330 1351 1352 1668
3436 3 1330 1351 1352 1310
3437 1 1369 1373 1410 1387
3438 1 1369 1373 1410 1409
3439 1 1369 1378 1348 1312
3440 1 1369 1378 1348 1419
3441 1 1369 1382 1424 1308
3442 1 1369 1382 1424 1423
3443 1 1369 1385 1414 1375
3444 1 1369 1385 1414 1413
3445 2 1409 1393 1399 1421
3446 2 1409 1393 1399 1431
3447 2 1425 1393 1399 1421
3448 2 1425 1393 1399 1431
3449 2 1399 1393 1409 1407
3450 2 1399 1393 1409 1410
3451 2 1425 1393 1409 1407
3452 2 1425 1393 1409 1410
3453 2 964 1398 1419 1332
3454 2 964 1398 1419 1348
3455 2 1430 1398 1419 1332
3456 2 1430 1398 1419 1348
3457 2 1423 1402 112 115
3458 2 1423 1402 112 144
3459 2 1434 1402 112 115
3460 2 1434 1402 112 144
3461 2 112 1402 1423 1328
3462 2 112 1402 1423 1424
3463 2 1434 1402 1423 1328
3464 2 1434 1402 1423 1424
3465 2 539 1405 1413 1395
3466 2 539 1405 1413 1414
3467 2 1437 1405 1413 1395
3468 2 1437 1405 1413 1414
3469 3 1393 1409 1410 1373
3470 3 1393 1409 1410 1387
3471 3 1407 1409 1410 1373
3472 3 1407 1409 1410 1387
3473 3 1398 1419 1348 1378
3474 3 1398 1419 1348 1312
3475 3 1332 1419 1348 1378
3476 3 1332 1419 1348 1312
3477 3 1328 1423 1424 1308
3478 3 1328 1423 1424 1382
3479 3 1402 1423 1424 1308
3480 3 1402 1423 1424 1382
3481 1 1370 1375 1414 1385
3482 1 1370 1375 1414 1413
3483 1 1370 1380 1496 1454
3484 1 1370 1380 1496 1495
3485 1 1370 1384 1420 1450
3486 1 1370 1384 1420 1491
3487 1 1370 1387 1410 1373
3488 1 1370 1387 1410 1409
3489 2 1413 1395 533 553
3490 2 1413 1395 533 565
3491 2 1427 1395 533 553
3492 2 1427 1395 533 565
3493 2 533 1395 1413 1405
3494 2 533 1395 1413 1414
3495 2 1427 1395 1413 1405
3496 2 1427 1395 1413 1414
3497 2 98 1400 1495 1474
3498 2 98 1400 1495 1496
3499 2 1432 1400 1495 1474
3500 2 1432 1400 1495 1496
3501 2 1491 1404 974 1055
3502 2 1491 1404 974 1006
3503 2 1436 1404 974 1055
3504 2 1436 1404 974 1006
3505 2 974 1404 1491 1470
3506 2 974 1404 1491 1420
3507 2 1436 1404 1491 1470
3508 2 1436 1404 1491 1420
3509 2 1401 1407 1409 1393
3510 2 1401 1407 1409 1410
3511 2 1439 1407 1409 1393
3512 2 1439 1407 1409 1410
3513 3 1395 1413 1414 1375
3514 3 1395 1413 1414 1385
3515 3 1405 1413 1414 1375
3516 3 1405 1413 1414 1385
3517 1 1441 1445 1482 1459
3518 1 1441 1445 1482 1481
3519 1 1442 1447 1486 1457
3520 1 1442 1447 1486 1485
3521 1 1441 1450 1420 1384
3522 1 1441 1450 1420 1491
3523 1 1442 1452 1568 1526
3524 1 1442 1452 1568 1567
3525 1 1441 1454 1496 1380
3526 1 1441 1454 1496 1495
3527 1 1442 1456 1492 1522
3528 1 1442 1456 1492 1563
3529 1 1441 1457 1486 1447
3530 1 1441 1457 1486 1485
3531 1 1442 1459 1482 1445
3532 1 1442 1459 1482 1481
3533 2 1481 1465 1471 1493
3534 2 1481 1465 1471 1503
3535 2 1497 1465 1471 1493
3536 2 1497 1465 1471 1503
3537 2 1471 1465 1481 1479
3538 2 1471 1465 1481 1482
3539 2 1497 1465 1481 1479
3540 2 1497 1465 1481 1482
3541 2 1485 1467 605 625
3542 2 1485 1467 605 637
3543 2 1499 1467 605 625
3544 2 1499 1467 605 637
3545 2 605 1467 1485 1477
3546 2 605 1467 1485 1486
3547 2 1499 1467 1485 1477
3548 2 1499 1467 1485 1486
3549 2 1036 1470 1491 1404
3550 2 1036 1470 1491 1420
3551 2 1502 1470 1491 1404
3552 2 1502 1470 1491 1420
3553 2 170 1472 1567 1546
3554 2 170 1472 1567 1568
3555 2 1504 1472 1567 1546
3556 2 1504 1472 1567 1568
3557 2 1495 1474 184 187
3558 2 1495 1474 184 216
3559 2 1506 1474 184 187
3560 2 1506 1474 184 216
3561 2 184 1474 1495 1400
3562 2 184 1474 1495 1496
3563 2 1506 1474 1495 1400
3564 2 1506 1474 1495 1496
3565 2 1563 1476 1046 1127
3566 2 1563 1476 1046 1078
3567 2 1508 1476 1046 1127
3568 2 1508 1476 1046 1078
3569 2 1046 1476 1563 1542
3570 2 1046 1476 1563 1492
3571 2 1508 1476 1563 1542
3572 2 1508 1476 1563 1492
3573 2 611 1477 1485 1467
3574 2 611 1477 1485 1486
3575 2 1509 1477 1485 1467
3576 2 1509 1477 1485 1486
3577 2 1473 1479 1481 1465
3578 2 1473 1479 1481 1482
3579 2 1511 1479 1481 1465
3580 2 1511 1479 1481 1482
3581 3 1465 1481 1482 1445
3582 3 1465 1481 1482 1459
3583 3 1479 1481 1482 1445
3584 3 1479 1481 1482 1459
3585 3 1467 1485 1486 1447
3586 3 1467 1485 1486 1457
3587 3 1477 1485 1486 1447
3588 3 1477 1485 1486 1457
3589 3 1470 1491 1420 1450
3590 3 1470 1491 1420 1384
3591 3 1404 1491 1420 1450
3592 3 1404 1491 1420 1384
3593 3 1400 1495 1496 1380
3594 3 1400 1495 1496 1454
3595 3 1474 1495 1496 1380
3596 3 1474 1495 1496 1454
3597 3 1542 1563 1492 1522
3598 3 1542 1563 1492 1456
3599 3 1476 1563 1492 1522
3600 3 1476 1563 1492 1456
3601 1 1513 1517 1554 1531
3602 1 1513 1517 1554 1553
3603 1 1514 1519 1558 1529
3604 1 1514 1519 1558 1557
3605 1 1513 1522 1492 1456
3606 1 1513 1522 1492 1563
3607 1 1514 1524 1640 1598
3608 1 1514 1524 1640 1639
3609 1 1513 1526 1568 1452
3610 1 1513 1526 1568 1567
3611 1 1514 1528 1564 1594
3612 1 1514 1528 1564 1635
3613 1 1513 1529 1558 1519
3614 1 1513 1529 1558 1557
3615 1 1514 1531 1554 1517
3616 1 1514 1531 1554 1553
3617 2 1553 1537 1543 1565
3618 2 1553 1537 1543 1575
3619 2 1569 1537 1543 1565
3620 2 1569 1537 1543 1575
3621 2 1543 1537 1553 1551
3622 2 1543 1537 1553 1554
3623 2 1569 1537 1553 1551
3624 2 1569 1537 1553 1554
3625 2 1557 1539 677 697
3626 2 1557 1539 677 709
3627 2 1571 1539 677 697
3628 2 1571 1539 677 709
3629 2 677 1539 1557 1549
3630 2 677 1539 1557 1558
3631 2 1571 1539 1557 1549
3632 2 1571 1539 1557 1558
3633 2 1108 1542 1563 1476
3634 2 1108 1542 1563 1492
3635 2 1574 1542 1563 1476
3636 2 1574 1542 1563 1492
3637 2 242 1544 1639 1618
3638 2 242 1544 1639 1640
3639 2 1576 1544 1639 1618
3640 2 1576 1544 1639 1640
3641 2 1567 1546 256 259
3642 2 1567 1546 256 288
3643 2 1578 1546 256 259
3644 2 1578 1546 256 288
3645 2 256 1546 1567 1472
3646 2 256 1546 1567 1568
3647 2 1578 1546 1567 1472
3648 2 1578 1546 1567 1568
3649 2 1635 1548 1118 1199
3650 2 1635 1548 1118 1150
3651 2 1580 1548 1118 1199
3652 2 1580 1548 1118 1150
3653 2 1118 1548 1635 1614
3654 2 1118 1548 1635 1564
3655 2 1580 1548 1635 1614
3656 2 1580 1548 1635 1564
3657 2 683 1549 1557 1539
3658 2 683 1549 1557 1558
3659 2 1581 1549 1557 1539
3660 2 1581 1549 1557 1558
3661 2 1545 1551 1553 1537
3662 2 1545 1551 1553 1554
3663 2 1583 1551 1553 1537
3664 2 1583 1551 1553 1554
3665 3 1537 1553 1554 1517
3666 3 1537 1553 1554 1531
3667 3 1551 1553 1554 1517
3668 3 1551 1553 1554 1531
3669 3 1539 1557 1558 1519
3670 3 1539 1557 1558 1529
3671 3 1549 1557 1558 1519
3672 3 1549 1557 1558 1529
3673 3 1472 1567 1568 1452
3674 3 1472 1567 1568 1526
3675 3 1546 1567 1568 1452
3676 3 1546 1567 1568 1526
3677 1 1585 1589 1626 1603
3678 1 1585 1589 1626 1625
3679 1 1585 1594 1564 1528
3680 1 1585 1594 1564 1635
3681 1 1585 1598 1640 1524
3682 1 1585 1598 1640 1639
3683 1 1585 1601 1630 1591
3684 1 1585 1601 1630 1629
3685 2 1625 1609 1615 1637
3686 2 1625 1609 1615 1647
3687 2 1641 1609 1615 1637
3688 2 1641 1609 1615 1647
3689 2 1615 1609 1625 1623
3690 2 1615 1609 1625 1626
3691 2 1641 1609 1625 1623
3692 2 1641 1609 1625 1626
3693 2 1180 1614 1635 1548
3694 2 1180 1614 1635 1564
3695 2 1646 1614 1635 1548
3696 2 1646 1614 1635 1564
3697 2 1639 1618 328 331
3698 2 1639 1618 328 360
3699 2 1650 1618 328 331
3700 2 1650 1618 328 360
3701 2 328 1618 1639 1544
3702 2 328 1618 1639 1640
3703 2 1650 1618 1639 1544
3704 2 1650 1618 1639 1640
3705 2 755 1621 1629 1611
3706 2 755 1621 1629 1630
3707 2 1653 1621 1629 1611
3708 2 1653 1621 1629 1630
3709 3 1609 1625 1626 1589
3710 3 1609 1625 1626 1603
3711 3 1623 1625 1626 1589
3712 3 1623 1625 1626 1603
3713 3 1614 1635 1564 1594
3714 3 1614 1635 1564 1528
3715 3 1548 1635 1564 1594
3716 3 1548 1635 1564 1528
3717 3 1544 1639 1640 1524
3718 3 1544 1639 1640 1598
3719 3 1618 1639 1640 1524
3720 3 1618 1639 1640 1598
3721 3 1326 1347 1708 1306
3722 3 1326 1347 1708 1672
3723 3 1692 1347 1708 1306
3724 3 1692 1347 1708 1672
3725 1 1586 1591 1630 1601
3726 1 1586 1591 1630 1629
3727 1 1586 1596 1712 1670
3728 1 1586 1596 1712 1711
3729 1 1586 1600 1636 1666
3730 1 1586 1600 1636 1707
3731 1 1586 1603 1626 1589
3732 1 1586 1603 1626 1625
3733 2 1629 1611 749 769
3734 2 1629 1611 749 781
3735 2 1643 1611 749 769
3736 2 1643 1611 749 781
3737 2 749 1611 1629 1621
3738 2 749 1611 1629 1630
3739 2 1643 1611 1629 1621
3740 2 1643 1611 1629 1630
3741 2 314 1616 1711 1690
3742 2 314 1616 1711 1712
3743 2 1648 1616 1711 1690
3744 2 1648 1616 1711 1712
3745 2 1707 1620 1190 1271
3746 2 1707 1620 1190 1222
3747 2 1652 1620 1190 1271
3748 2 1652 1620 1190 1222
3749 2 1190 1620 1707 1686
3750 2 1190 1620 1707 1636
3751 2 1652 1620 1707 1686
3752 2 1652 1620 1707 1636
3753 2 1617 1623 1625 1609
3754 2 1617 1623 1625 1626
3755 2 1655 1623 1625 1609
3756 2 1655 1623 1625 1626
3757 3 1611 1629 1630 1591
3758 3 1611 1629 1630 1601
3759 3 1621 1629 1630 1591
3760 3 1621 1629 1630 1601
3761 1 1657 1661 1698 1675
3762 1 1657 1661 1698 1697
3763 1 1658 1663 1702 1673
3764 1 1658 1663 1702 1701
3765 1 1657 1666 1636 1600
3766 1 1657 1666 1636 1707
3767 1 1658 1668 1352 1310
3768 1 1658 1668 1352 1351
3769 1 1657 1670 1712 1596
3770 1 1657 1670 1712 1711
3771 1 1658 1672 1708 1306
3772 1 1658 1672 1708 1347
3773 1 1657 1673 1702 1663
3774 1 1657 1673 1702 1701
3775 1 1658 1675 1698 1661
3776 1 1658 1675 1698 1697
3777 2 1697 1681 1687 1709
3778 2 1697 1681 1687 1719
3779 2 1713 1681 1687 1709
3780 2 1713 1681 1687 1719
3781 2 1687 1681 1697 1695
3782 2 1687 1681 1697 1698
3783 2 1713 1681 1697 1695
3784 2 1713 1681 1697 1698
3785 2 1701 1683 821 841
3786 2 1701 1683 821 853
3787 2 1715 1683 821 841
3788 2 1715 1683 821 853
3789 2 821 1683 1701 1693
3790 2 821 1683 1701 1702
3791 2 1715 1683 1701 1693
3792 2 1715 1683 1701 1702
3793 2 1252 1686 1707 1620
3794 2 1252 1686 1707 1636
3795 2 1718 1686 1707 1620
3796 2 1718 1686 1707 1636
3797 2 386 1688 1351 1330
3798 2 386 1688 1351 1352
3799 2 1720 1688 1351 1330
3800 2 1720 1688 1351 1352
3801 2 1711 1690 400 403
3802 2 1711 1690 400 432
3803 2 1722 1690 400 403
3804 2 1722 1690 400 432
3805 2 400 1690 1711 1616
3806 2 400 1690 1711 1712
3807 2 1722 1690 1711 1616
3808 2 1722 1690 1711 1712
3809 2 1347 1692 1262 911
3810 2 1347 1692 1262 1294
3811 2 1724 1692 1262 911
3812 2 1724 1692 1262 1294
3813 2 1262 1692 1347 1326
3814 2 1262 1692 1347 1708
3815 2 1724 1692 1347 1326
3816 2 1724 1692 1347 1708
3817 2 827 1693 1701 1683
3818 2 827 1693 1701 1702
3819 2 1725 1693 1701 1683
3820 2 1725 1693 1701 1702
3821 2 1689 1695 1697 1681
3822 2 1689 1695 1697 1698
3823 2 1727 1695 1697 1681
3824 2 1727 1695 1697 1698
3825 3 1681 1697 1698 1661
3826 3 1681 1697 1698 1675
3827 3 1695 1697 1698 1661
3828 3 1695 1697 1698 1675
3829 3 1683 1701 1702 1663
3830 3 1683 1701 1702 1673
3831 3 1693 1701 1702 1663
3832 3 1693 1701 1702 1673
3833 3 1686 1707 1636 1666
3834 3 1686 1707 1636 1600
3835 3 1620 1707 1636 1666
3836 3 1620 1707 1636 1600
3837 3 1616 1711 1712 1596
3838 3 1616 1711 1712 1670
3839 3 1690 1711 1712 1596
3840 3 1690 1711 1712 1670

Impropers

1 1 44 6 92 115
2 1 48 8 378 47
3 1 50 9 15 49
4 1 54 11 13 53
5 1 54 13 11 53
6 1 50 15 9 49
7 1 120 18 80 119
8 1 404 20 366 43
9 1 115 26 112 44
10 1 1328 26 1423 1360
11 1 47 28 398 48
12 1 462 28 483 494
13 1 49 29 35 50
14 1 891 29 909 923
15 1 25 31 41 57
16 1 53 31 33 54
17 1 39 33 41 71
18 1 53 33 31 54
19 1 49 35 29 50
20 1 901 35 909 933
21 1 119 38 100 120
22 1 468 38 555 500
23 1 43 40 386 404
24 1 1330 40 1351 1362
25 1 115 44 26 112
26 1 28 47 462 60
27 1 48 47 8 378
28 1 398 47 828 430
29 1 47 48 28 398
30 1 29 49 891 61
31 1 35 49 901 67
32 1 50 49 9 15
33 1 49 50 29 35
34 1 31 53 25 63
35 1 33 53 39 65
36 1 54 53 11 13
37 1 53 54 31 33
38 1 26 58 1328 115
39 1 28 60 462 47
40 1 29 61 891 49
41 1 31 63 25 53
42 1 33 65 39 53
43 1 35 67 901 49
44 1 38 70 468 119
45 1 40 72 1330 43
46 1 120 80 18 119
47 1 126 83 85 125
48 1 122 87 81 121
49 1 44 92 6 115
50 1 119 100 38 120
51 1 534 100 555 566
52 1 97 103 113 129
53 1 125 103 105 126
54 1 121 107 101 122
55 1 973 107 981 1005
56 1 115 112 26 44
57 1 1402 112 1423 1434
58 1 26 115 1328 58
59 1 44 115 6 92
60 1 112 115 1402 144
61 1 38 119 468 70
62 1 100 119 534 132
63 1 120 119 80 18
64 1 119 120 100 38
65 1 101 121 963 133
66 1 107 121 973 139
67 1 122 121 81 87
68 1 121 122 101 107
69 1 100 132 534 119
70 1 103 135 97 125
71 1 107 139 973 121
72 1 112 144 1402 115
73 1 116 78 164 187
74 1 122 81 87 121
75 1 126 85 83 125
76 1 192 90 152 191
77 1 187 98 184 116
78 1 1400 98 1495 1432
79 1 121 101 107 122
80 1 963 101 981 995
81 1 111 105 113 143
82 1 125 105 103 126
83 1 191 110 172 192
84 1 540 110 627 572
85 1 187 116 98 184
86 1 103 125 97 135
87 1 105 125 111 137
88 1 126 125 83 85
89 1 125 126 103 105
90 1 98 130 1400 187
91 1 101 133 963 121
92 1 105 137 111 125
93 1 110 142 540 191
94 1 188 150 236 259
95 1 192 152 90 191
96 1 194 153 159 193
97 1 198 155 157 197
98 1 198 157 155 197
99 1 194 159 153 193
100 1 264 162 224 263
101 1 116 164 78 187
102 1 259 170 256 188
103 1 1472 170 1567 1504
104 1 191 172 110 192
105 1 606 172 627 638
106 1 193 173 179 194
107 1 1035 173 1053 1067
108 1 169 175 185 201
109 1 197 175 177 198
110 1 183 177 185 215
111 1 197 177 175 198
112 1 193 179 173 194
113 1 1045 179 1053 1077
114 1 263 182 244 264
115 1 612 182 699 644
116 1 187 184 98 116
117 1 1474 184 1495 1506
118 1 98 187 1400 130
119 1 116 187 78 164
120 1 184 187 1474 216
121 1 259 188 170 256
122 1 110 191 540 142
123 1 172 191 606 204
124 1 192 191 152 90
125 1 191 192 172 110
126 1 173 193 1035 205
127 1 179 193 1045 211
128 1 194 193 153 159
129 1 193 194 173 179
130 1 175 197 169 207
131 1 177 197 183 209
132 1 198 197 155 157
133 1 197 198 175 177
134 1 170 202 1472 259
135 1 172 204 606 191
136 1 173 205 1035 193
137 1 175 207 169 197
138 1 177 209 183 197
139 1 179 211 1045 193
140 1 182 214 612 263
141 1 184 216 1474 187
142 1 170 259 1472 202
143 1 188 259 150 236
144 1 256 259 1546 288
145 1 260 222 308 331
146 1 264 224 162 263
147 1 266 225 231 265
148 1 270 227 229 269
149 1 270 229 227 269
150 1 266 231 225 265
151 1 336 234 296 335
152 1 188 236 150 259
153 1 331 242 328 260
154 1 1544 242 1639 1576
155 1 263 244 182 264
156 1 678 244 699 710
157 1 265 245 251 266
158 1 1107 245 1125 1139
159 1 241 247 257 273
160 1 269 247 249 270
161 1 255 249 257 287
162 1 269 249 247 270
163 1 265 251 245 266
164 1 1117 251 1125 1149
165 1 335 254 316 336
166 1 684 254 771 716
167 1 259 256 170 188
168 1 1546 256 1567 1578
169 1 331 260 242 328
170 1 182 263 612 214
171 1 244 263 678 276
172 1 264 263 224 162
173 1 263 264 244 182
174 1 245 265 1107 277
175 1 251 265 1117 283
176 1 266 265 225 231
177 1 265 266 245 251
178 1 247 269 241 279
179 1 249 269 255 281
180 1 270 269 227 229
181 1 269 270 247 249
182 1 242 274 1544 331
183 1 244 276 678 263
184 1 245 277 1107 265
185 1 247 279 241 269
186 1 249 281 255 269
187 1 251 283 1117 265
188 1 254 286 684 335
189 1 256 288 1546 259
190 1 336 296 234 335
191 1 342 299 301 341
192 1 338 303 297 337
193 1 260 308 222 331
194 1 335 316 254 336
195 1 750 316 771 782
196 1 313 319 329 345
197 1 341 319 321 342
198 1 337 323 317 338
199 1 1189 323 1197 1221
200 1 331 328 242 260
201 1 1618 328 1639 1650
202 1 242 331 1544 274
203 1 260 331 222 308
204 1 328 331 1618 360
205 1 254 335 684 286
206 1 316 335 750 348
207 1 336 335 296 234
208 1 335 336 316 254
209 1 317 337 1179 349
210 1 323 337 1189 355
211 1 338 337 297 303
212 1 337 338 317 323
213 1 316 348 750 335
214 1 319 351 313 341
215 1 323 355 1189 337
216 1 328 360 1618 331
217 1 40 43 1330 72
218 1 386 43 1688 418
219 1 404 43 366 20
220 1 332 294 380 403
221 1 338 297 303 337
222 1 342 301 299 341
223 1 408 306 368 407
224 1 403 314 400 332
225 1 1616 314 1711 1648
226 1 337 317 323 338
227 1 1179 317 1197 1211
228 1 327 321 329 359
229 1 341 321 319 342
230 1 407 326 388 408
231 1 756 326 843 788
232 1 403 332 314 400
233 1 319 341 313 351
234 1 321 341 327 353
235 1 342 341 299 301
236 1 341 342 319 321
237 1 314 346 1616 403
238 1 317 349 1179 337
239 1 321 353 327 341
240 1 326 358 756 407
241 1 404 366 20 43
242 1 408 368 306 407
243 1 410 369 375 409
244 1 414 371 373 413
245 1 414 373 371 413
246 1 410 375 369 409
247 1 48 378 8 47
248 1 332 380 294 403
249 1 43 386 40 404
250 1 1688 386 1351 1720
251 1 407 388 326 408
252 1 822 388 843 854
253 1 409 389 395 410
254 1 1251 389 1269 1283
255 1 385 391 401 417
256 1 413 391 393 414
257 1 399 393 401 431
258 1 413 393 391 414
259 1 409 395 389 410
260 1 1261 395 1269 1293
261 1 47 398 28 48
262 1 828 398 483 860
263 1 403 400 314 332
264 1 1690 400 1711 1722
265 1 314 403 1616 346
266 1 332 403 294 380
267 1 400 403 1690 432
268 1 43 404 386 40
269 1 326 407 756 358
270 1 388 407 822 420
271 1 408 407 368 306
272 1 407 408 388 326
273 1 389 409 1251 421
274 1 395 409 1261 427
275 1 410 409 369 375
276 1 409 410 389 395
277 1 391 413 385 423
278 1 393 413 399 425
279 1 414 413 371 373
280 1 413 414 391 393
281 1 386 418 1688 43
282 1 388 420 822 407
283 1 389 421 1251 409
284 1 391 423 385 413
285 1 393 425 399 413
286 1 395 427 1261 409
287 1 398 430 828 47
288 1 400 432 1690 403
289 1 476 438 524 547
290 1 480 440 810 479
291 1 482 441 447 481
292 1 486 443 445 485
293 1 486 445 443 485
294 1 482 447 441 481
295 1 552 450 512 551
296 1 836 452 798 475
297 1 547 458 544 476
298 1 896 458 991 928
299 1 30 460 51 62
300 1 479 460 830 480
301 1 481 461 467 482
302 1 1323 461 1341 1355
303 1 457 463 473 489
304 1 485 463 465 486
305 1 471 465 473 503
306 1 485 465 463 486
307 1 481 467 461 482
308 1 1333 467 1341 1365
309 1 36 470 123 68
310 1 551 470 532 552
311 1 475 472 818 836
312 1 898 472 919 930
313 1 547 476 458 544
314 1 460 479 30 492
315 1 480 479 440 810
316 1 830 479 396 862
317 1 479 480 460 830
318 1 461 481 1323 493
319 1 467 481 1333 499
320 1 482 481 441 447
321 1 481 482 461 467
322 1 463 485 457 495
323 1 465 485 471 497
324 1 486 485 443 445
325 1 485 486 463 465
326 1 458 490 896 547
327 1 460 492 30 479
328 1 461 493 1323 481
329 1 463 495 457 485
330 1 465 497 471 485
331 1 467 499 1333 481
332 1 470 502 36 551
333 1 472 504 898 475
334 1 552 512 450 551
335 1 558 515 517 557
336 1 554 519 513 553
337 1 476 524 438 547
338 1 102 532 123 134
339 1 551 532 470 552
340 1 529 535 545 561
341 1 557 535 537 558
342 1 553 539 533 554
343 1 1405 539 1413 1437
344 1 547 544 458 476
345 1 970 544 991 1002
346 1 458 547 896 490
347 1 476 547 438 524
348 1 544 547 970 576
349 1 470 551 36 502
350 1 532 551 102 564
351 1 552 551 512 450
352 1 551 552 532 470
353 1 533 553 1395 565
354 1 539 553 1405 571
355 1 554 553 513 519
356 1 553 554 533 539
357 1 532 564 102 551
358 1 535 567 529 557
359 1 539 571 1405 553
360 1 544 576 970 547
361 1 548 510 596 619
362 1 554 513 519 553
363 1 558 517 515 557
364 1 624 522 584 623
365 1 619 530 616 548
366 1 968 530 1063 1000
367 1 553 533 539 554
368 1 1395 533 1413 1427
369 1 543 537 545 575
370 1 557 537 535 558
371 1 108 542 195 140
372 1 623 542 604 624
373 1 619 548 530 616
374 1 535 557 529 567
375 1 537 557 543 569
376 1 558 557 515 517
377 1 557 558 535 537
378 1 530 562 968 619
379 1 533 565 1395 553
380 1 537 569 543 557
381 1 542 574 108 623
382 1 620 582 668 691
383 1 624 584 522 623
384 1 626 585 591 625
385 1 630 587 589 629
386 1 630 589 587 629
387 1 626 591 585 625
388 1 696 594 656 695
389 1 548 596 510 619
390 1 691 602 688 620
391 1 1040 602 1135 1072
392 1 174 604 195 206
393 1 623 604 542 624
394 1 625 605 611 626
395 1 1467 605 1485 1499
396 1 601 607 617 633
397 1 629 607 609 630
398 1 615 609 617 647
399 1 629 609 607 630
400 1 625 611 605 626
401 1 1477 611 1485 1509
402 1 180 614 267 212
403 1 695 614 676 696
404 1 619 616 530 548
405 1 1042 616 1063 1074
406 1 530 619 968 562
407 1 548 619 510 596
408 1 616 619 1042 648
409 1 691 620 602 688
410 1 542 623 108 574
411 1 604 623 174 636
412 1 624 623 584 522
413 1 623 624 604 542
414 1 605 625 1467 637
415 1 611 625 1477 643
416 1 626 625 585 591
417 1 625 626 605 611
418 1 607 629 601 639
419 1 609 629 615 641
420 1 630 629 587 589
421 1 629 630 607 609
422 1 602 634 1040 691
423 1 604 636 174 623
424 1 605 637 1467 625
425 1 607 639 601 629
426 1 609 641 615 629
427 1 611 643 1477 625
428 1 614 646 180 695
429 1 616 648 1042 619
430 1 602 691 1040 634
431 1 620 691 582 668
432 1 688 691 1114 720
433 1 692 654 740 763
434 1 696 656 594 695
435 1 698 657 663 697
436 1 702 659 661 701
437 1 702 661 659 701
438 1 698 663 657 697
439 1 768 666 728 767
440 1 620 668 582 691
441 1 763 674 760 692
442 1 1112 674 1207 1144
443 1 246 676 267 278
444 1 695 676 614 696
445 1 697 677 683 698
446 1 1539 677 1557 1571
447 1 673 679 689 705
448 1 701 679 681 702
449 1 687 681 689 719
450 1 701 681 679 702
451 1 697 683 677 698
452 1 1549 683 1557 1581
453 1 252 686 339 284
454 1 767 686 748 768
455 1 691 688 602 620
456 1 1114 688 1135 1146
457 1 763 692 674 760
458 1 614 695 180 646
459 1 676 695 246 708
460 1 696 695 656 594
461 1 695 696 676 614
462 1 677 697 1539 709
463 1 683 697 1549 715
464 1 698 697 657 663
465 1 697 698 677 683
466 1 679 701 673 711
467 1 681 701 687 713
468 1 702 701 659 661
469 1 701 702 679 681
470 1 674 706 1112 763
471 1 676 708 246 695
472 1 677 709 1539 697
473 1 679 711 673 701
474 1 681 713 687 701
475 1 683 715 1549 697
476 1 686 718 252 767
477 1 688 720 1114 691
478 1 768 728 666 767
479 1 774 731 733 773
480 1 770 735 729 769
481 1 692 740 654 763
482 1 318 748 339 350
483 1 767 748 686 768
484 1 745 751 761 777
485 1 773 751 753 774
486 1 769 755 749 770
487 1 1621 755 1629 1653
488 1 763 760 674 692
489 1 1186 760 1207 1218
490 1 674 763 1112 706
491 1 692 763 654 740
492 1 760 763 1186 792
493 1 686 767 252 718
494 1 748 767 318 780
495 1 768 767 728 666
496 1 767 768 748 686
497 1 749 769 1611 781
498 1 755 769 1621 787
499 1 770 769 729 735
500 1 769 770 749 755
501 1 748 780 318 767
502 1 751 783 745 773
503 1 755 787 1621 769
504 1 760 792 1186 763
505 1 472 475 898 504
506 1 818 475 1256 850
507 1 836 475 798 452
508 1 764 726 812 835
509 1 770 729 735 769
510 1 774 733 731 773
511 1 840 738 800 839
512 1 835 746 832 764
513 1 1184 746 1279 1216
514 1 769 749 755 770
515 1 1611 749 1629 1643
516 1 759 753 761 791
517 1 773 753 751 774
518 1 324 758 411 356
519 1 839 758 820 840
520 1 835 764 746 832
521 1 751 773 745 783
522 1 753 773 759 785
523 1 774 773 731 733
524 1 773 774 751 753
525 1 746 778 1184 835
526 1 749 781 1611 769
527 1 753 785 759 773
528 1 758 790 324 839
529 1 836 798 452 475
530 1 840 800 738 839
531 1 842 801 807 841
532 1 846 803 805 845
533 1 846 805 803 845
534 1 842 807 801 841
535 1 480 810 440 479
536 1 764 812 726 835
537 1 475 818 472 836
538 1 1256 818 919 1288
539 1 390 820 411 422
540 1 839 820 758 840
541 1 841 821 827 842
542 1 1683 821 1701 1715
543 1 817 823 833 849
544 1 845 823 825 846
545 1 831 825 833 863
546 1 845 825 823 846
547 1 841 827 821 842
548 1 1693 827 1701 1725
549 1 396 830 51 428
550 1 479 830 460 480
551 1 835 832 746 764
552 1 1258 832 1279 1290
553 1 746 835 1184 778
554 1 764 835 726 812
555 1 832 835 1258 864
556 1 475 836 818 472
557 1 758 839 324 790
558 1 820 839 390 852
559 1 840 839 800 738
560 1 839 840 820 758
561 1 821 841 1683 853
562 1 827 841 1693 859
563 1 842 841 801 807
564 1 841 842 821 827
565 1 823 845 817 855
566 1 825 845 831 857
567 1 846 845 803 805
568 1 845 846 823 825
569 1 818 850 1256 475
570 1 820 852 390 839
571 1 821 853 1683 841
572 1 823 855 817 845
573 1 825 857 831 845
574 1 827 859 1693 841
575 1 830 862 396 479
576 1 832 864 1258 835
577 1 42 5 19 41
578 1 46 7 17 45
579 1 412 10 376 51
580 1 128 12 86 127
581 1 56 14 372 55
582 1 52 16 82 123
583 1 46 17 7 45
584 1 42 19 5 41
585 1 31 25 53 63
586 1 41 25 39 42
587 1 45 27 37 46
588 1 893 27 913 925
589 1 51 30 396 412
590 1 460 30 479 492
591 1 127 32 106 128
592 1 1322 32 1411 1354
593 1 55 34 392 56
594 1 1336 34 1339 1368
595 1 123 36 102 52
596 1 470 36 551 502
597 1 45 37 27 46
598 1 899 37 913 931
599 1 33 39 53 65
600 1 41 39 25 42
601 1 25 41 31 57
602 1 39 41 33 71
603 1 42 41 5 19
604 1 41 42 25 39
605 1 27 45 893 59
606 1 37 45 899 69
607 1 46 45 7 17
608 1 45 46 27 37
609 1 123 52 102 36
610 1 34 55 1336 66
611 1 56 55 372 14
612 1 392 55 1682 424
613 1 55 56 392 34
614 1 25 57 31 41
615 1 27 59 893 45
616 1 30 62 460 51
617 1 32 64 1322 127
618 1 34 66 1336 55
619 1 36 68 470 123
620 1 37 69 899 45
621 1 39 71 33 41
622 1 114 77 91 113
623 1 52 82 16 123
624 1 128 86 12 127
625 1 118 89 79 117
626 1 103 97 125 135
627 1 113 97 111 114
628 1 123 102 36 52
629 1 532 102 551 564
630 1 127 106 32 128
631 1 1408 106 1411 1440
632 1 117 109 99 118
633 1 971 109 985 1003
634 1 97 113 103 129
635 1 111 113 105 143
636 1 114 113 77 91
637 1 113 114 97 111
638 1 36 123 470 68
639 1 52 123 82 16
640 1 102 123 532 134
641 1 32 127 1322 64
642 1 106 127 1408 138
643 1 128 127 12 86
644 1 127 128 32 106
645 1 97 129 103 113
646 1 102 134 532 123
647 1 106 138 1408 127
648 1 109 141 971 117
649 1 118 79 89 117
650 1 200 84 158 199
651 1 124 88 154 195
652 1 114 91 77 113
653 1 117 99 109 118
654 1 965 99 985 997
655 1 199 104 178 200
656 1 1394 104 1483 1426
657 1 195 108 174 124
658 1 542 108 623 574
659 1 105 111 125 137
660 1 113 111 97 114
661 1 99 117 965 131
662 1 109 117 971 141
663 1 118 117 79 89
664 1 117 118 99 109
665 1 195 124 174 108
666 1 99 131 965 117
667 1 104 136 1394 199
668 1 108 140 542 195
669 1 111 143 105 113
670 1 186 149 163 185
671 1 190 151 161 189
672 1 124 154 88 195
673 1 272 156 230 271
674 1 200 158 84 199
675 1 196 160 226 267
676 1 190 161 151 189
677 1 186 163 149 185
678 1 175 169 197 207
679 1 185 169 183 186
680 1 189 171 181 190
681 1 1037 171 1057 1069
682 1 195 174 108 124
683 1 604 174 623 636
684 1 271 176 250 272
685 1 1466 176 1555 1498
686 1 199 178 104 200
687 1 1480 178 1483 1512
688 1 267 180 246 196
689 1 614 180 695 646
690 1 189 181 171 190
691 1 1043 181 1057 1075
692 1 177 183 197 209
693 1 185 183 169 186
694 1 169 185 175 201
695 1 183 185 177 215
696 1 186 185 149 163
697 1 185 186 169 183
698 1 171 189 1037 203
699 1 181 189 1043 213
700 1 190 189 151 161
701 1 189 190 171 181
702 1 108 195 542 140
703 1 124 195 154 88
704 1 174 195 604 206
705 1 267 196 246 180
706 1 104 199 1394 136
707 1 178 199 1480 210
708 1 200 199 84 158
709 1 199 200 104 178
710 1 169 201 175 185
711 1 171 203 1037 189
712 1 174 206 604 195
713 1 176 208 1466 271
714 1 178 210 1480 199
715 1 180 212 614 267
716 1 181 213 1043 189
717 1 183 215 177 185
718 1 180 267 614 212
719 1 196 267 226 160
720 1 246 267 676 278
721 1 258 221 235 257
722 1 262 223 233 261
723 1 196 226 160 267
724 1 344 228 302 343
725 1 272 230 156 271
726 1 268 232 298 339
727 1 262 233 223 261
728 1 258 235 221 257
729 1 247 241 269 279
730 1 257 241 255 258
731 1 261 243 253 262
732 1 1109 243 1129 1141
733 1 267 246 180 196
734 1 676 246 695 708
735 1 343 248 322 344
736 1 1538 248 1627 1570
737 1 271 250 176 272
738 1 1552 250 1555 1584
739 1 339 252 318 268
740 1 686 252 767 718
741 1 261 253 243 262
742 1 1115 253 1129 1147
743 1 249 255 269 281
744 1 257 255 241 258
745 1 241 257 247 273
746 1 255 257 249 287
747 1 258 257 221 235
748 1 257 258 241 255
749 1 243 261 1109 275
750 1 253 261 1115 285
751 1 262 261 223 233
752 1 261 262 243 253
753 1 339 268 318 252
754 1 176 271 1466 208
755 1 250 271 1552 282
756 1 272 271 156 230
757 1 271 272 176 250
758 1 241 273 247 257
759 1 243 275 1109 261
760 1 246 278 676 267
761 1 248 280 1538 343
762 1 250 282 1552 271
763 1 252 284 686 339
764 1 253 285 1115 261
765 1 255 287 249 257
766 1 330 293 307 329
767 1 268 298 232 339
768 1 344 302 228 343
769 1 334 305 295 333
770 1 319 313 341 351
771 1 329 313 327 330
772 1 339 318 252 268
773 1 748 318 767 780
774 1 343 322 248 344
775 1 1624 322 1627 1656
776 1 333 325 315 334
777 1 1187 325 1201 1219
778 1 313 329 319 345
779 1 327 329 321 359
780 1 330 329 293 307
781 1 329 330 313 327
782 1 252 339 686 284
783 1 268 339 298 232
784 1 318 339 748 350
785 1 248 343 1538 280
786 1 322 343 1624 354
787 1 344 343 228 302
788 1 343 344 248 322
789 1 313 345 319 329
790 1 318 350 748 339
791 1 322 354 1624 343
792 1 325 357 1187 333
793 1 30 51 460 62
794 1 396 51 830 428
795 1 412 51 10 376
796 1 334 295 305 333
797 1 416 300 374 415
798 1 340 304 370 411
799 1 330 307 293 329
800 1 333 315 325 334
801 1 1181 315 1201 1213
802 1 415 320 394 416
803 1 1610 320 1699 1642
804 1 411 324 390 340
805 1 758 324 839 790
806 1 321 327 341 353
807 1 329 327 313 330
808 1 315 333 1181 347
809 1 325 333 1187 357
810 1 334 333 295 305
811 1 333 334 315 325
812 1 411 340 390 324
813 1 315 347 1181 333
814 1 320 352 1610 415
815 1 324 356 758 411
816 1 327 359 321 329
817 1 402 365 379 401
818 1 406 367 377 405
819 1 340 370 304 411
820 1 56 372 14 55
821 1 416 374 300 415
822 1 412 376 10 51
823 1 406 377 367 405
824 1 402 379 365 401
825 1 391 385 413 423
826 1 401 385 399 402
827 1 405 387 397 406
828 1 1253 387 1273 1285
829 1 411 390 324 340
830 1 820 390 839 852
831 1 55 392 34 56
832 1 1682 392 1339 1714
833 1 415 394 320 416
834 1 1696 394 1699 1728
835 1 51 396 30 412
836 1 830 396 479 862
837 1 405 397 387 406
838 1 1259 397 1273 1291
839 1 393 399 413 425
840 1 401 399 385 402
841 1 385 401 391 417
842 1 399 401 393 431
843 1 402 401 365 379
844 1 401 402 385 399
845 1 387 405 1253 419
846 1 397 405 1259 429
847 1 406 405 367 377
848 1 405 406 387 397
849 1 324 411 758 356
850 1 340 411 370 304
851 1 390 411 820 422
852 1 51 412 30 396
853 1 320 415 1610 352
854 1 394 415 1696 426
855 1 416 415 300 374
856 1 415 416 320 394
857 1 385 417 391 401
858 1 387 419 1253 405
859 1 390 422 820 411
860 1 392 424 1682 55
861 1 394 426 1696 415
862 1 396 428 830 51
863 1 397 429 1259 405
864 1 399 431 393 401
865 1 474 437 451 473
866 1 478 439 449 477
867 1 844 442 808 483
868 1 560 444 518 559
869 1 488 446 804 487
870 1 484 448 514 555
871 1 478 449 439 477
872 1 474 451 437 473
873 1 463 457 485 495
874 1 473 457 471 474
875 1 477 459 469 478
876 1 1325 459 1345 1357
877 1 28 462 47 60
878 1 483 462 828 844
879 1 559 464 538 560
880 1 890 464 979 922
881 1 487 466 824 488
882 1 904 466 907 936
883 1 38 468 119 70
884 1 555 468 534 484
885 1 477 469 459 478
886 1 1331 469 1345 1363
887 1 465 471 485 497
888 1 473 471 457 474
889 1 457 473 463 489
890 1 471 473 465 503
891 1 474 473 437 451
892 1 473 474 457 471
893 1 459 477 1325 491
894 1 469 477 1331 501
895 1 478 477 439 449
896 1 477 478 459 469
897 1 555 484 534 468
898 1 466 487 904 498
899 1 488 487 804 446
900 1 824 487 1250 856
901 1 487 488 824 466
902 1 457 489 463 473
903 1 459 491 1325 477
904 1 462 494 28 483
905 1 464 496 890 559
906 1 466 498 904 487
907 1 468 500 38 555
908 1 469 501 1331 477
909 1 471 503 465 473
910 1 546 509 523 545
911 1 484 514 448 555
912 1 560 518 444 559
913 1 550 521 511 549
914 1 535 529 557 567
915 1 545 529 543 546
916 1 100 534 119 132
917 1 555 534 468 484
918 1 559 538 464 560
919 1 976 538 979 1008
920 1 549 541 531 550
921 1 1403 541 1417 1435
922 1 529 545 535 561
923 1 543 545 537 575
924 1 546 545 509 523
925 1 545 546 529 543
926 1 468 555 38 500
927 1 484 555 514 448
928 1 534 555 100 566
929 1 464 559 890 496
930 1 538 559 976 570
931 1 560 559 444 518
932 1 559 560 464 538
933 1 529 561 535 545
934 1 534 566 100 555
935 1 538 570 976 559
936 1 541 573 1403 549
937 1 550 511 521 549
938 1 632 516 590 631
939 1 556 520 586 627
940 1 546 523 509 545
941 1 549 531 541 550
942 1 1397 531 1417 1429
943 1 631 536 610 632
944 1 962 536 1051 994
945 1 110 540 191 142
946 1 627 540 606 556
947 1 537 543 557 569
948 1 545 543 529 546
949 1 531 549 1397 563
950 1 541 549 1403 573
951 1 550 549 511 521
952 1 549 550 531 541
953 1 627 556 606 540
954 1 531 563 1397 549
955 1 536 568 962 631
956 1 540 572 110 627
957 1 543 575 537 545
958 1 618 581 595 617
959 1 622 583 593 621
960 1 556 586 520 627
961 1 704 588 662 703
962 1 632 590 516 631
963 1 628 592 658 699
964 1 622 593 583 621
965 1 618 595 581 617
966 1 607 601 629 639
967 1 617 601 615 618
968 1 621 603 613 622
969 1 1469 603 1489 1501
970 1 172 606 191 204
971 1 627 606 540 556
972 1 703 608 682 704
973 1 1034 608 1123 1066
974 1 631 610 536 632
975 1 1048 610 1051 1080
976 1 182 612 263 214
977 1 699 612 678 628
978 1 621 613 603 622
979 1 1475 613 1489 1507
980 1 609 615 629 641
981 1 617 615 601 618
982 1 601 617 607 633
983 1 615 617 609 647
984 1 618 617 581 595
985 1 617 618 601 615
986 1 603 621 1469 635
987 1 613 621 1475 645
988 1 622 621 583 593
989 1 621 622 603 613
990 1 540 627 110 572
991 1 556 627 586 520
992 1 606 627 172 638
993 1 699 628 678 612
994 1 536 631 962 568
995 1 610 631 1048 642
996 1 632 631 516 590
997 1 631 632 536 610
998 1 601 633 607 617
999 1 603 635 1469 621
1000 1 606 638 172 627
1001 1 608 640 1034 703
1002 1 610 642 1048 631
1003 1 612 644 182 699
1004 1 613 645 1475 621
1005 1 615 647 609 617
1006 1 612 699 182 644
1007 1 628 699 658 592
1008 1 678 699 244 710
1009 1 690 653 667 689
1010 1 694 655 665 693
1011 1 628 658 592 699
1012 1 776 660 734 775
1013 1 704 662 588 703
1014 1 700 664 730 771
1015 1 694 665 655 693
1016 1 690 667 653 689
1017 1 679 673 701 711
1018 1 689 673 687 690
1019 1 693 675 685 694
1020 1 1541 675 1561 1573
1021 1 244 678 263 276
1022 1 699 678 612 628
1023 1 775 680 754 776
1024 1 1106 680 1195 1138
1025 1 703 682 608 704
1026 1 1120 682 1123 1152
1027 1 254 684 335 286
1028 1 771 684 750 700
1029 1 693 685 675 694
1030 1 1547 685 1561 1579
1031 1 681 687 701 713
1032 1 689 687 673 690
1033 1 673 689 679 705
1034 1 687 689 681 719
1035 1 690 689 653 667
1036 1 689 690 673 687
1037 1 675 693 1541 707
1038 1 685 693 1547 717
1039 1 694 693 655 665
1040 1 693 694 675 685
1041 1 771 700 750 684
1042 1 608 703 1034 640
1043 1 682 703 1120 714
1044 1 704 703 588 662
1045 1 703 704 608 682
1046 1 673 705 679 689
1047 1 675 707 1541 693
1048 1 678 710 244 699
1049 1 680 712 1106 775
1050 1 682 714 1120 703
1051 1 684 716 254 771
1052 1 685 717 1547 693
1053 1 687 719 681 689
1054 1 762 725 739 761
1055 1 700 730 664 771
1056 1 776 734 660 775
1057 1 766 737 727 765
1058 1 751 745 773 783
1059 1 761 745 759 762
1060 1 316 750 335 348
1061 1 771 750 684 700
1062 1 775 754 680 776
1063 1 1192 754 1195 1224
1064 1 765 757 747 766
1065 1 1619 757 1633 1651
1066 1 745 761 751 777
1067 1 759 761 753 791
1068 1 762 761 725 739
1069 1 761 762 745 759
1070 1 684 771 254 716
1071 1 700 771 730 664
1072 1 750 771 316 782
1073 1 680 775 1106 712
1074 1 754 775 1192 786
1075 1 776 775 660 734
1076 1 775 776 680 754
1077 1 745 777 751 761
1078 1 750 782 316 771
1079 1 754 786 1192 775
1080 1 757 789 1619 765
1081 1 462 483 28 494
1082 1 828 483 398 860
1083 1 844 483 442 808
1084 1 766 727 737 765
1085 1 848 732 806 847
1086 1 772 736 802 843
1087 1 762 739 725 761
1088 1 765 747 757 766
1089 1 1613 747 1633 1645
1090 1 847 752 826 848
1091 1 1178 752 1267 1210
1092 1 326 756 407 358
1093 1 843 756 822 772
1094 1 753 759 773 785
1095 1 761 759 745 762
1096 1 747 765 1613 779
1097 1 757 765 1619 789
1098 1 766 765 727 737
1099 1 765 766 747 757
1100 1 843 772 822 756
1101 1 747 779 1613 765
1102 1 752 784 1178 847
1103 1 756 788 326 843
1104 1 759 791 753 761
1105 1 834 797 811 833
1106 1 838 799 809 837
1107 1 772 802 736 843
1108 1 488 804 446 487
1109 1 848 806 732 847
1110 1 844 808 442 483
1111 1 838 809 799 837
1112 1 834 811 797 833
1113 1 823 817 845 855
1114 1 833 817 831 834
1115 1 837 819 829 838
1116 1 1685 819 1705 1717
1117 1 388 822 407 420
1118 1 843 822 756 772
1119 1 487 824 466 488
1120 1 1250 824 907 1282
1121 1 847 826 752 848
1122 1 1264 826 1267 1296
1123 1 398 828 47 430
1124 1 483 828 462 844
1125 1 837 829 819 838
1126 1 1691 829 1705 1723
1127 1 825 831 845 857
1128 1 833 831 817 834
1129 1 817 833 823 849
1130 1 831 833 825 863
1131 1 834 833 797 811
1132 1 833 834 817 831
1133 1 819 837 1685 851
1134 1 829 837 1691 861
1135 1 838 837 799 809
1136 1 837 838 819 829
1137 1 756 843 326 788
1138 1 772 843 802 736
1139 1 822 843 388 854
1140 1 483 844 462 828
1141 1 752 847 1178 784
1142 1 826 847 1264 858
1143 1 848 847 732 806
1144 1 847 848 752 826
1145 1 817 849 823 833
1146 1 819 851 1685 837
1147 1 822 854 388 843
1148 1 824 856 1250 487
1149 1 826 858 1264 847
1150 1 828 860 398 483
1151 1 829 861 1691 837
1152 1 831 863 825 833
1153 1 908 870 956 979
1154 1 912 872 1242 911
1155 1 914 873 879 913
1156 1 918 875 877 917
1157 1 918 877 875 917
1158 1 914 879 873 913
1159 1 984 882 944 983
1160 1 1268 884 1230 907
1161 1 464 890 559 496
1162 1 979 890 976 908
1163 1 911 892 1262 912
1164 1 1326 892 1347 1358
1165 1 27 893 45 59
1166 1 913 893 899 914
1167 1 889 895 905 921
1168 1 917 895 897 918
1169 1 903 897 905 935
1170 1 917 897 895 918
1171 1 37 899 45 69
1172 1 913 899 893 914
1173 1 983 902 964 984
1174 1 1332 902 1419 1364
1175 1 466 904 487 498
1176 1 907 904 1250 1268
1177 1 979 908 890 976
1178 1 892 911 1326 924
1179 1 912 911 872 1242
1180 1 1262 911 1692 1294
1181 1 911 912 892 1262
1182 1 893 913 27 925
1183 1 899 913 37 931
1184 1 914 913 873 879
1185 1 913 914 893 899
1186 1 895 917 889 927
1187 1 897 917 903 929
1188 1 918 917 875 877
1189 1 917 918 895 897
1190 1 890 922 464 979
1191 1 892 924 1326 911
1192 1 893 925 27 913
1193 1 895 927 889 917
1194 1 897 929 903 917
1195 1 899 931 37 913
1196 1 902 934 1332 983
1197 1 904 936 466 907
1198 1 984 944 882 983
1199 1 990 947 949 989
1200 1 986 951 945 985
1201 1 908 956 870 979
1202 1 983 964 902 984
1203 1 1398 964 1419 1430
1204 1 961 967 977 993
1205 1 989 967 969 990
1206 1 109 971 117 141
1207 1 985 971 965 986
1208 1 538 976 559 570
1209 1 979 976 890 908
1210 1 890 979 464 922
1211 1 908 979 870 956
1212 1 976 979 538 1008
1213 1 902 983 1332 934
1214 1 964 983 1398 996
1215 1 984 983 944 882
1216 1 983 984 964 902
1217 1 965 985 99 997
1218 1 971 985 109 1003
1219 1 986 985 945 951
1220 1 985 986 965 971
1221 1 964 996 1398 983
1222 1 967 999 961 989
1223 1 971 1003 109 985
1224 1 976 1008 538 979
1225 1 980 942 1028 1051
1226 1 986 945 951 985
1227 1 990 949 947 989
1228 1 1056 954 1016 1055
1229 1 536 962 631 568
1230 1 1051 962 1048 980
1231 1 99 965 117 131
1232 1 985 965 971 986
1233 1 975 969 977 1007
1234 1 989 969 967 990
1235 1 1055 974 1036 1056
1236 1 1404 974 1491 1436
1237 1 1051 980 962 1048
1238 1 967 989 961 999
1239 1 969 989 975 1001
1240 1 990 989 947 949
1241 1 989 990 967 969
1242 1 962 994 536 1051
1243 1 965 997 99 985
1244 1 969 1001 975 989
1245 1 974 1006 1404 1055
1246 1 1052 1014 1100 1123
1247 1 1056 1016 954 1055
1248 1 1058 1017 1023 1057
1249 1 1062 1019 1021 1061
1250 1 1062 1021 1019 1061
1251 1 1058 1023 1017 1057
1252 1 1128 1026 1088 1127
1253 1 980 1028 942 1051
1254 1 608 1034 703 640
1255 1 1123 1034 1120 1052
1256 1 1055 1036 974 1056
1257 1 1470 1036 1491 1502
1258 1 171 1037 189 203
1259 1 1057 1037 1043 1058
1260 1 1033 1039 1049 1065
1261 1 1061 1039 1041 1062
1262 1 1047 1041 1049 1079
1263 1 1061 1041 1039 1062
1264 1 181 1043 189 213
1265 1 1057 1043 1037 1058
1266 1 1127 1046 1108 1128
1267 1 1476 1046 1563 1508
1268 1 610 1048 631 642
1269 1 1051 1048 962 980
1270 1 962 1051 536 994
1271 1 980 1051 942 1028
1272 1 1048 1051 610 1080
1273 1 1123 1052 1034 1120
1274 1 974 1055 1404 1006
1275 1 1036 1055 1470 1068
1276 1 1056 1055 1016 954
1277 1 1055 1056 1036 974
1278 1 1037 1057 171 1069
1279 1 1043 1057 181 1075
1280 1 1058 1057 1017 1023
1281 1 1057 1058 1037 1043
1282 1 1039 1061 1033 1071
1283 1 1041 1061 1047 1073
1284 1 1062 1061 1019 1021
1285 1 1061 1062 1039 1041
1286 1 1034 1066 608 1123
1287 1 1036 1068 1470 1055
1288 1 1037 1069 171 1057
1289 1 1039 1071 1033 1061
1290 1 1041 1073 1047 1061
1291 1 1043 1075 181 1057
1292 1 1046 1078 1476 1127
1293 1 1048 1080 610 1051
1294 1 1034 1123 608 1066
1295 1 1052 1123 1014 1100
1296 1 1120 1123 682 1152
1297 1 1124 1086 1172 1195
1298 1 1128 1088 1026 1127
1299 1 1130 1089 1095 1129
1300 1 1134 1091 1093 1133
1301 1 1134 1093 1091 1133
1302 1 1130 1095 1089 1129
1303 1 1200 1098 1160 1199
1304 1 1052 1100 1014 1123
1305 1 680 1106 775 712
1306 1 1195 1106 1192 1124
1307 1 1127 1108 1046 1128
1308 1 1542 1108 1563 1574
1309 1 243 1109 261 275
1310 1 1129 1109 1115 1130
1311 1 1105 1111 1121 1137
1312 1 1133 1111 1113 1134
1313 1 1119 1113 1121 1151
1314 1 1133 1113 1111 1134
1315 1 253 1115 261 285
1316 1 1129 1115 1109 1130
1317 1 1199 1118 1180 1200
1318 1 1548 1118 1635 1580
1319 1 682 1120 703 714
1320 1 1123 1120 1034 1052
1321 1 1195 1124 1106 1192
1322 1 1046 1127 1476 1078
1323 1 1108 1127 1542 1140
1324 1 1128 1127 1088 1026
1325 1 1127 1128 1108 1046
1326 1 1109 1129 243 1141
1327 1 1115 1129 253 1147
1328 1 1130 1129 1089 1095
1329 1 1129 1130 1109 1115
1330 1 1111 1133 1105 1143
1331 1 1113 1133 1119 1145
1332 1 1134 1133 1091 1093
1333 1 1133 1134 1111 1113
1334 1 1106 1138 680 1195
1335 1 1108 1140 1542 1127
1336 1 1109 1141 243 1129
1337 1 1111 1143 1105 1133
1338 1 1113 1145 1119 1133
1339 1 1115 1147 253 1129
1340 1 1118 1150 1548 1199
1341 1 1120 1152 682 1123
1342 1 1200 1160 1098 1199
1343 1 1206 1163 1165 1205
1344 1 1202 1167 1161 1201
1345 1 1124 1172 1086 1195
1346 1 1199 1180 1118 1200
1347 1 1614 1180 1635 1646
1348 1 1177 1183 1193 1209
1349 1 1205 1183 1185 1206
1350 1 325 1187 333 357
1351 1 1201 1187 1181 1202
1352 1 754 1192 775 786
1353 1 1195 1192 1106 1124
1354 1 1106 1195 680 1138
1355 1 1124 1195 1086 1172
1356 1 1192 1195 754 1224
1357 1 1118 1199 1548 1150
1358 1 1180 1199 1614 1212
1359 1 1200 1199 1160 1098
1360 1 1199 1200 1180 1118
1361 1 1181 1201 315 1213
1362 1 1187 1201 325 1219
1363 1 1202 1201 1161 1167
1364 1 1201 1202 1181 1187
1365 1 1180 1212 1614 1199
1366 1 1183 1215 1177 1205
1367 1 1187 1219 325 1201
1368 1 1192 1224 754 1195
1369 1 904 907 466 936
1370 1 1250 907 824 1282
1371 1 1268 907 1230 884
1372 1 1196 1158 1244 1267
1373 1 1202 1161 1167 1201
1374 1 1206 1165 1163 1205
1375 1 1272 1170 1232 1271
1376 1 752 1178 847 784
1377 1 1267 1178 1264 1196
1378 1 315 1181 333 347
1379 1 1201 1181 1187 1202
1380 1 1191 1185 1193 1223
1381 1 1205 1185 1183 1206
1382 1 1271 1190 1252 1272
1383 1 1620 1190 1707 1652
1384 1 1267 1196 1178 1264
1385 1 1183 1205 1177 1215
1386 1 1185 1205 1191 1217
1387 1 1206 1205 1163 1165
1388 1 1205 1206 1183 1185
1389 1 1178 1210 752 1267
1390 1 1181 1213 315 1201
1391 1 1185 1217 1191 1205
1392 1 1190 1222 1620 1271
1393 1 1268 1230 884 907
1394 1 1272 1232 1170 1271
1395 1 1274 1233 1239 1273
1396 1 1278 1235 1237 1277
1397 1 1278 1237 1235 1277
1398 1 1274 1239 1233 1273
1399 1 912 1242 872 911
1400 1 1196 1244 1158 1267
1401 1 824 1250 487 856
1402 1 907 1250 904 1268
1403 1 1271 1252 1190 1272
1404 1 1686 1252 1707 1718
1405 1 387 1253 405 419
1406 1 1273 1253 1259 1274
1407 1 1249 1255 1265 1281
1408 1 1277 1255 1257 1278
1409 1 1263 1257 1265 1295
1410 1 1277 1257 1255 1278
1411 1 397 1259 405 429
1412 1 1273 1259 1253 1274
1413 1 911 1262 892 912
1414 1 1692 1262 1347 1724
1415 1 826 1264 847 858
1416 1 1267 1264 1178 1196
1417 1 1178 1267 752 1210
1418 1 1196 1267 1158 1244
1419 1 1264 1267 826 1296
1420 1 907 1268 1250 904
1421 1 1190 1271 1620 1222
1422 1 1252 1271 1686 1284
1423 1 1272 1271 1232 1170
1424 1 1271 1272 1252 1190
1425 1 1253 1273 387 1285
1426 1 1259 1273 397 1291
1427 1 1274 1273 1233 1239
1428 1 1273 1274 1253 1259
1429 1 1255 1277 1249 1287
1430 1 1257 1277 1263 1289
1431 1 1278 1277 1235 1237
1432 1 1277 1278 1255 1257
1433 1 1250 1282 824 907
1434 1 1252 1284 1686 1271
1435 1 1253 1285 387 1273
1436 1 1255 1287 1249 1277
1437 1 1257 1289 1263 1277
1438 1 1259 1291 397 1273
1439 1 1262 1294 1692 911
1440 1 1264 1296 826 1267
1441 1 1340 1302 1388 1411
1442 1 1344 1304 1674 1343
1443 1 1346 1305 1311 1345
1444 1 1350 1307 1309 1349
1445 1 1350 1309 1307 1349
1446 1 1346 1311 1305 1345
1447 1 1416 1314 1376 1415
1448 1 1700 1316 1662 1339
1449 1 32 1322 127 64
1450 1 1411 1322 1408 1340
1451 1 894 1324 915 926
1452 1 1343 1324 1694 1344
1453 1 459 1325 477 491
1454 1 1345 1325 1331 1346
1455 1 1321 1327 1337 1353
1456 1 1349 1327 1329 1350
1457 1 1335 1329 1337 1367
1458 1 1349 1329 1327 1350
1459 1 469 1331 477 501
1460 1 1345 1331 1325 1346
1461 1 900 1334 987 932
1462 1 1415 1334 1396 1416
1463 1 34 1336 55 66
1464 1 1339 1336 1682 1700
1465 1 1411 1340 1322 1408
1466 1 1324 1343 894 1356
1467 1 1344 1343 1304 1674
1468 1 1694 1343 1260 1726
1469 1 1343 1344 1324 1694
1470 1 1325 1345 459 1357
1471 1 1331 1345 469 1363
1472 1 1346 1345 1305 1311
1473 1 1345 1346 1325 1331
1474 1 1327 1349 1321 1359
1475 1 1329 1349 1335 1361
1476 1 1350 1349 1307 1309
1477 1 1349 1350 1327 1329
1478 1 1322 1354 32 1411
1479 1 1324 1356 894 1343
1480 1 1325 1357 459 1345
1481 1 1327 1359 1321 1349
1482 1 1329 1361 1335 1349
1483 1 1331 1363 469 1345
1484 1 1334 1366 900 1415
1485 1 1336 1368 34 1339
1486 1 1416 1376 1314 1415
1487 1 1422 1379 1381 1421
1488 1 1418 1383 1377 1417
1489 1 1340 1388 1302 1411
1490 1 966 1396 987 998
1491 1 1415 1396 1334 1416
1492 1 1393 1399 1409 1425
1493 1 1421 1399 1401 1422
1494 1 541 1403 549 573
1495 1 1417 1403 1397 1418
1496 1 106 1408 127 138
1497 1 1411 1408 1322 1340
1498 1 1322 1411 32 1354
1499 1 1340 1411 1302 1388
1500 1 1408 1411 106 1440
1501 1 1334 1415 900 1366
1502 1 1396 1415 966 1428
1503 1 1416 1415 1376 1314
1504 1 1415 1416 1396 1334
1505 1 1397 1417 531 1429
1506 1 1403 1417 541 1435
1507 1 1418 1417 1377 1383
1508 1 1417 1418 1397 1403
1509 1 1396 1428 966 1415
1510 1 1399 1431 1393 1421
1511 1 1403 1435 541 1417
1512 1 1408 1440 106 1411
1513 1 1412 1374 1460 1483
1514 1 1418 1377 1383 1417
1515 1 1422 1381 1379 1421
1516 1 1488 1386 1448 1487
1517 1 104 1394 199 136
1518 1 1483 1394 1480 1412
1519 1 531 1397 549 563
1520 1 1417 1397 1403 1418
1521 1 1407 1401 1409 1439
1522 1 1421 1401 1399 1422
1523 1 972 1406 1059 1004
1524 1 1487 1406 1468 1488
1525 1 1483 1412 1394 1480
1526 1 1399 1421 1393 1431
1527 1 1401 1421 1407 1433
1528 1 1422 1421 1379 1381
1529 1 1421 1422 1399 1401
1530 1 1394 1426 104 1483
1531 1 1397 1429 531 1417
1532 1 1401 1433 1407 1421
1533 1 1406 1438 972 1487
1534 1 1484 1446 1532 1555
1535 1 1488 1448 1386 1487
1536 1 1490 1449 1455 1489
1537 1 1494 1451 1453 1493
1538 1 1494 1453 1451 1493
1539 1 1490 1455 1449 1489
1540 1 1560 1458 1520 1559
1541 1 1412 1460 1374 1483
1542 1 176 1466 271 208
1543 1 1555 1466 1552 1484
1544 1 1038 1468 1059 1070
1545 1 1487 1468 1406 1488
1546 1 603 1469 621 635
1547 1 1489 1469 1475 1490
1548 1 1465 1471 1481 1497
1549 1 1493 1471 1473 1494
1550 1 1479 1473 1481 1511
1551 1 1493 1473 1471 1494
1552 1 613 1475 621 645
1553 1 1489 1475 1469 1490
1554 1 1044 1478 1131 1076
1555 1 1559 1478 1540 1560
1556 1 178 1480 199 210
1557 1 1483 1480 1394 1412
1558 1 1394 1483 104 1426
1559 1 1412 1483 1374 1460
1560 1 1480 1483 178 1512
1561 1 1555 1484 1466 1552
1562 1 1406 1487 972 1438
1563 1 1468 1487 1038 1500
1564 1 1488 1487 1448 1386
1565 1 1487 1488 1468 1406
1566 1 1469 1489 603 1501
1567 1 1475 1489 613 1507
1568 1 1490 1489 1449 1455
1569 1 1489 1490 1469 1475
1570 1 1471 1493 1465 1503
1571 1 1473 1493 1479 1505
1572 1 1494 1493 1451 1453
1573 1 1493 1494 1471 1473
1574 1 1466 1498 176 1555
1575 1 1468 1500 1038 1487
1576 1 1469 1501 603 1489
1577 1 1471 1503 1465 1493
1578 1 1473 1505 1479 1493
1579 1 1475 1507 613 1489
1580 1 1478 1510 1044 1559
1581 1 1480 1512 178 1483
1582 1 1466 1555 176 1498
1583 1 1484 1555 1446 1532
1584 1 1552 1555 250 1584
1585 1 1556 1518 1604 1627
1586 1 1560 1520 1458 1559
1587 1 1562 1521 1527 1561
1588 1 1566 1523 1525 1565
1589 1 1566 1525 1523 1565
1590 1 1562 1527 1521 1561
1591 1 1632 1530 1592 1631
1592 1 1484 1532 1446 1555
1593 1 248 1538 343 280
1594 1 1627 1538 1624 1556
1595 1 1110 1540 1131 1142
1596 1 1559 1540 1478 1560
1597 1 675 1541 693 707
1598 1 1561 1541 1547 1562
1599 1 1537 1543 1553 1569
1600 1 1565 1543 1545 1566
1601 1 1551 1545 1553 1583
1602 1 1565 1545 1543 1566
1603 1 685 1547 693 717
1604 1 1561 1547 1541 1562
1605 1 1116 1550 1203 1148
1606 1 1631 1550 1612 1632
1607 1 250 1552 271 282
1608 1 1555 1552 1466 1484
1609 1 1627 1556 1538 1624
1610 1 1478 1559 1044 1510
1611 1 1540 1559 1110 1572
1612 1 1560 1559 1520 1458
1613 1 1559 1560 1540 1478
1614 1 1541 1561 675 1573
1615 1 1547 1561 685 1579
1616 1 1562 1561 1521 1527
1617 1 1561 1562 1541 1547
1618 1 1543 1565 1537 1575
1619 1 1545 1565 1551 1577
1620 1 1566 1565 1523 1525
1621 1 1565 1566 1543 1545
1622 1 1538 1570 248 1627
1623 1 1540 1572 1110 1559
1624 1 1541 1573 675 1561
1625 1 1543 1575 1537 1565
1626 1 1545 1577 1551 1565
1627 1 1547 1579 685 1561
1628 1 1550 1582 1116 1631
1629 1 1552 1584 250 1555
1630 1 1632 1592 1530 1631
1631 1 1638 1595 1597 1637
1632 1 1634 1599 1593 1633
1633 1 1556 1604 1518 1627
1634 1 1182 1612 1203 1214
1635 1 1631 1612 1550 1632
1636 1 1609 1615 1625 1641
1637 1 1637 1615 1617 1638
1638 1 757 1619 765 789
1639 1 1633 1619 1613 1634
1640 1 322 1624 343 354
1641 1 1627 1624 1538 1556
1642 1 1538 1627 248 1570
1643 1 1556 1627 1518 1604
1644 1 1624 1627 322 1656
1645 1 1550 1631 1116 1582
1646 1 1612 1631 1182 1644
1647 1 1632 1631 1592 1530
1648 1 1631 1632 1612 1550
1649 1 1613 1633 747 1645
1650 1 1619 1633 757 1651
1651 1 1634 1633 1593 1599
1652 1 1633 1634 1613 1619
1653 1 1612 1644 1182 1631
1654 1 1615 1647 1609 1637
1655 1 1619 1651 757 1633
1656 1 1624 1656 322 1627
1657 1 1336 1339 34 1368
1658 1 1682 1339 392 1714
1659 1 1700 1339 1662 1316
1660 1 1628 1590 1676 1699
1661 1 1634 1593 1599 1633
1662 1 1638 1597 1595 1637
1663 1 1704 1602 1664 1703
1664 1 320 1610 415 352
1665 1 1699 1610 1696 1628
1666 1 747 1613 765 779
1667 1 1633 1613 1619 1634
1668 1 1623 1617 1625 1655
1669 1 1637 1617 1615 1638
1670 1 1188 1622 1275 1220
1671 1 1703 1622 1684 1704
1672 1 1699 1628 1610 1696
1673 1 1615 1637 1609 1647
1674 1 1617 1637 1623 1649
1675 1 1638 1637 1595 1597
1676 1 1637 1638 1615 1617
1677 1 1610 1642 320 1699
1678 1 1613 1645 747 1633
1679 1 1617 1649 1623 1637
1680 1 1622 1654 1188 1703
1681 1 1700 1662 1316 1339
1682 1 1704 1664 1602 1703
1683 1 1706 1665 1671 1705
1684 1 1710 1667 1669 1709
1685 1 1710 1669 1667 1709
1686 1 1706 1671 1665 1705
1687 1 1344 1674 1304 1343
1688 1 1628 1676 1590 1699
1689 1 392 1682 55 424
1690 1 1339 1682 1336 1700
1691 1 1254 1684 1275 1286
1692 1 1703 1684 1622 1704
1693 1 819 1685 837 851
1694 1 1705 1685 1691 1706
1695 1 1681 1687 1697 1713
1696 1 1709 1687 1689 1710
1697 1 1695 1689 1697 1727
1698 1 1709 1689 1687 1710
1699 1 829 1691 837 861
1700 1 1705 1691 1685 1706
1701 1 1260 1694 915 1292
1702 1 1343 1694 1324 1344
1703 1 394 1696 415 426
1704 1 1699 1696 1610 1628
1705 1 1610 1699 320 1642
1706 1 1628 1699 1590 1676
1707 1 1696 1699 394 1728
1708 1 1339 1700 1682 1336
1709 1 1622 1703 1188 1654
1710 1 1684 1703 1254 1716
1711 1 1704 1703 1664 1602
1712 1 1703 1704 1684 1622
1713 1 1685 1705 819 1717
1714 1 1691 1705 829 1723
1715 1 1706 1705 1665 1671
1716 1 1705 1706 1685 1691
1717 1 1687 1709 1681 1719
1718 1 1689 1709 1695 1721
1719 1 1710 1709 1667 1669
1720 1 1709 1710 1687 1689
1721 1 1682 1714 392 1339
1722 1 1684 1716 1254 1703
1723 1 1685 1717 819 1705
1724 1 1687 1719 1681 1709
1725 1 1689 1721 1695 1709
1726 1 1691 1723 829 1705
1727 1 1694 1726 1260 1343
1728 1 1696 1728 394 1699
1729 1 906 869 883 905
1730 1 910 871 881 909
1731 1 1276 874 1240 915
1732 1 992 876 950 991
1733 1 920 878 1236 919
1734 1 916 880 946 987
1735 1 910 881 871 909
1736 1 906 883 869 905
1737 1 895 889 917 927
1738 1 905 889 903 906
1739 1 29 891 49 61
1740 1 909 891 901 910
1741 1 915 894 1260 1276
1742 1 1324 894 1343 1356
1743 1 458 896 547 490
1744 1 991 896 970 992
1745 1 472 898 475 504
1746 1 919 898 1256 920
1747 1 987 900 966 916
1748 1 1334 900 1415 1366
1749 1 35 901 49 67
1750 1 909 901 891 910
1751 1 897 903 917 929
1752 1 905 903 889 906
1753 1 889 905 895 921
1754 1 903 905 897 935
1755 1 906 905 869 883
1756 1 905 906 889 903
1757 1 891 909 29 923
1758 1 901 909 35 933
1759 1 910 909 871 881
1760 1 909 910 891 901
1761 1 987 916 966 900
1762 1 898 919 472 930
1763 1 920 919 1236 878
1764 1 1256 919 818 1288
1765 1 919 920 1256 898
1766 1 889 921 895 905
1767 1 891 923 29 909
1768 1 894 926 1324 915
1769 1 896 928 458 991
1770 1 898 930 472 919
1771 1 900 932 1334 987
1772 1 901 933 35 909
1773 1 903 935 897 905
1774 1 978 941 955 977
1775 1 916 946 880 987
1776 1 992 950 876 991
1777 1 982 953 943 981
1778 1 967 961 989 999
1779 1 977 961 975 978
1780 1 987 966 900 916
1781 1 1396 966 1415 1428
1782 1 544 970 547 576
1783 1 991 970 896 992
1784 1 107 973 121 139
1785 1 981 973 963 982
1786 1 961 977 967 993
1787 1 975 977 969 1007
1788 1 978 977 941 955
1789 1 977 978 961 975
1790 1 900 987 1334 932
1791 1 916 987 946 880
1792 1 966 987 1396 998
1793 1 896 991 458 928
1794 1 970 991 544 1002
1795 1 992 991 876 950
1796 1 991 992 896 970
1797 1 961 993 967 977
1798 1 966 998 1396 987
1799 1 970 1002 544 991
1800 1 973 1005 107 981
1801 1 982 943 953 981
1802 1 1064 948 1022 1063
1803 1 988 952 1018 1059
1804 1 978 955 941 977
1805 1 101 963 121 133
1806 1 981 963 973 982
1807 1 530 968 619 562
1808 1 1063 968 1042 1064
1809 1 1059 972 1038 988
1810 1 1406 972 1487 1438
1811 1 969 975 989 1001
1812 1 977 975 961 978
1813 1 963 981 101 995
1814 1 973 981 107 1005
1815 1 982 981 943 953
1816 1 981 982 963 973
1817 1 1059 988 1038 972
1818 1 963 995 101 981
1819 1 968 1000 530 1063
1820 1 972 1004 1406 1059
1821 1 975 1007 969 977
1822 1 1050 1013 1027 1049
1823 1 1054 1015 1025 1053
1824 1 988 1018 952 1059
1825 1 1136 1020 1094 1135
1826 1 1064 1022 948 1063
1827 1 1060 1024 1090 1131
1828 1 1054 1025 1015 1053
1829 1 1050 1027 1013 1049
1830 1 1039 1033 1061 1071
1831 1 1049 1033 1047 1050
1832 1 173 1035 193 205
1833 1 1053 1035 1045 1054
1834 1 1059 1038 972 988
1835 1 1468 1038 1487 1500
1836 1 602 1040 691 634
1837 1 1135 1040 1114 1136
1838 1 616 1042 619 648
1839 1 1063 1042 968 1064
1840 1 1131 1044 1110 1060
1841 1 1478 1044 1559 1510
1842 1 179 1045 193 211
1843 1 1053 1045 1035 1054
1844 1 1041 1047 1061 1073
1845 1 1049 1047 1033 1050
1846 1 1033 1049 1039 1065
1847 1 1047 1049 1041 1079
1848 1 1050 1049 1013 1027
1849 1 1049 1050 1033 1047
1850 1 1035 1053 173 1067
1851 1 1045 1053 179 1077
1852 1 1054 1053 1015 1025
1853 1 1053 1054 1035 1045
1854 1 972 1059 1406 1004
1855 1 988 1059 1018 952
1856 1 1038 1059 1468 1070
1857 1 1131 1060 1110 1044
1858 1 968 1063 530 1000
1859 1 1042 1063 616 1074
1860 1 1064 1063 948 1022
1861 1 1063 1064 968 1042
1862 1 1033 1065 1039 1049
1863 1 1035 1067 173 1053
1864 1 1038 1070 1468 1059
1865 1 1040 1072 602 1135
1866 1 1042 1074 616 1063
1867 1 1044 1076 1478 1131
1868 1 1045 1077 179 1053
1869 1 1047 1079 1041 1049
1870 1 1044 1131 1478 1076
1871 1 1060 1131 1090 1024
1872 1 1110 1131 1540 1142
1873 1 1122 1085 1099 1121
1874 1 1126 1087 1097 1125
1875 1 1060 1090 1024 1131
1876 1 1208 1092 1166 1207
1877 1 1136 1094 1020 1135
1878 1 1132 1096 1162 1203
1879 1 1126 1097 1087 1125
1880 1 1122 1099 1085 1121
1881 1 1111 1105 1133 1143
1882 1 1121 1105 1119 1122
1883 1 245 1107 265 277
1884 1 1125 1107 1117 1126
1885 1 1131 1110 1044 1060
1886 1 1540 1110 1559 1572
1887 1 674 1112 763 706
1888 1 1207 1112 1186 1208
1889 1 688 1114 691 720
1890 1 1135 1114 1040 1136
1891 1 1203 1116 1182 1132
1892 1 1550 1116 1631 1582
1893 1 251 1117 265 283
1894 1 1125 1117 1107 1126
1895 1 1113 1119 1133 1145
1896 1 1121 1119 1105 1122
1897 1 1105 1121 1111 1137
1898 1 1119 1121 1113 1151
1899 1 1122 1121 1085 1099
1900 1 1121 1122 1105 1119
1901 1 1107 1125 245 1139
1902 1 1117 1125 251 1149
1903 1 1126 1125 1087 1097
1904 1 1125 1126 1107 1117
1905 1 1203 1132 1182 1116
1906 1 1040 1135 602 1072
1907 1 1114 1135 688 1146
1908 1 1136 1135 1020 1094
1909 1 1135 1136 1040 1114
1910 1 1105 1137 1111 1121
1911 1 1107 1139 245 1125
1912 1 1110 1142 1540 1131
1913 1 1112 1144 674 1207
1914 1 1114 1146 688 1135
1915 1 1116 1148 1550 1203
1916 1 1117 1149 251 1125
1917 1 1119 1151 1113 1121
1918 1 1194 1157 1171 1193
1919 1 1132 1162 1096 1203
1920 1 1208 1166 1092 1207
1921 1 1198 1169 1159 1197
1922 1 1183 1177 1205 1215
1923 1 1193 1177 1191 1194
1924 1 1203 1182 1116 1132
1925 1 1612 1182 1631 1644
1926 1 760 1186 763 792
1927 1 1207 1186 1112 1208
1928 1 323 1189 337 355
1929 1 1197 1189 1179 1198
1930 1 1177 1193 1183 1209
1931 1 1191 1193 1185 1223
1932 1 1194 1193 1157 1171
1933 1 1193 1194 1177 1191
1934 1 1116 1203 1550 1148
1935 1 1132 1203 1162 1096
1936 1 1182 1203 1612 1214
1937 1 1112 1207 674 1144
1938 1 1186 1207 760 1218
1939 1 1208 1207 1092 1166
1940 1 1207 1208 1112 1186
1941 1 1177 1209 1183 1193
1942 1 1182 1214 1612 1203
1943 1 1186 1218 760 1207
1944 1 1189 1221 323 1197
1945 1 894 915 1324 926
1946 1 1260 915 1694 1292
1947 1 1276 915 874 1240
1948 1 1198 1159 1169 1197
1949 1 1280 1164 1238 1279
1950 1 1204 1168 1234 1275
1951 1 1194 1171 1157 1193
1952 1 317 1179 337 349
1953 1 1197 1179 1189 1198
1954 1 746 1184 835 778
1955 1 1279 1184 1258 1280
1956 1 1275 1188 1254 1204
1957 1 1622 1188 1703 1654
1958 1 1185 1191 1205 1217
1959 1 1193 1191 1177 1194
1960 1 1179 1197 317 1211
1961 1 1189 1197 323 1221
1962 1 1198 1197 1159 1169
1963 1 1197 1198 1179 1189
1964 1 1275 1204 1254 1188
1965 1 1179 1211 317 1197
1966 1 1184 1216 746 1279
1967 1 1188 1220 1622 1275
1968 1 1191 1223 1185 1193
1969 1 1266 1229 1243 1265
1970 1 1270 1231 1241 1269
1971 1 1204 1234 1168 1275
1972 1 920 1236 878 919
1973 1 1280 1238 1164 1279
1974 1 1276 1240 874 915
1975 1 1270 1241 1231 1269
1976 1 1266 1243 1229 1265
1977 1 1255 1249 1277 1287
1978 1 1265 1249 1263 1266
1979 1 389 1251 409 421
1980 1 1269 1251 1261 1270
1981 1 1275 1254 1188 1204
1982 1 1684 1254 1703 1716
1983 1 818 1256 475 850
1984 1 919 1256 898 920
1985 1 832 1258 835 864
1986 1 1279 1258 1184 1280
1987 1 915 1260 894 1276
1988 1 1694 1260 1343 1726
1989 1 395 1261 409 427
1990 1 1269 1261 1251 1270
1991 1 1257 1263 1277 1289
1992 1 1265 1263 1249 1266
1993 1 1249 1265 1255 1281
1994 1 1263 1265 1257 1295
1995 1 1266 1265 1229 1243
1996 1 1265 1266 1249 1263
1997 1 1251 1269 389 1283
1998 1 1261 1269 395 1293
1999 1 1270 1269 1231 1241
2000 1 1269 1270 1251 1261
2001 1 1188 1275 1622 1220
2002 1 1204 1275 1234 1168
2003 1 1254 1275 1684 1286
2004 1 915 1276 894 1260
2005 1 1184 1279 746 1216
2006 1 1258 1279 832 1290
2007 1 1280 1279 1164 1238
2008 1 1279 1280 1184 1258
2009 1 1249 1281 1255 1265
2010 1 1251 1283 389 1269
2011 1 1254 1286 1684 1275
2012 1 1256 1288 818 919
2013 1 1258 1290 832 1279
2014 1 1260 1292 1694 915
2015 1 1261 1293 395 1269
2016 1 1263 1295 1257 1265
2017 1 1338 1301 1315 1337
2018 1 1342 1303 1313 1341
2019 1 1708 1306 1672 1347
2020 1 1424 1308 1382 1423
2021 1 1352 1310 1668 1351
2022 1 1348 1312 1378 1419
2023 1 1342 1313 1303 1341
2024 1 1338 1315 1301 1337
2025 1 1327 1321 1349 1359
2026 1 1337 1321 1335 1338
2027 1 461 1323 481 493
2028 1 1341 1323 1333 1342
2029 1 892 1326 911 924
2030 1 1347 1326 1692 1708
2031 1 26 1328 115 58
2032 1 1423 1328 1402 1424
2033 1 40 1330 43 72
2034 1 1351 1330 1688 1352
2035 1 902 1332 983 934
2036 1 1419 1332 1398 1348
2037 1 467 1333 481 499
2038 1 1341 1333 1323 1342
2039 1 1329 1335 1349 1361
2040 1 1337 1335 1321 1338
2041 1 1321 1337 1327 1353
2042 1 1335 1337 1329 1367
2043 1 1338 1337 1301 1315
2044 1 1337 1338 1321 1335
2045 1 1323 1341 461 1355
2046 1 1333 1341 467 1365
2047 1 1342 1341 1303 1313
2048 1 1341 1342 1323 1333
2049 1 1419 1348 1398 1332
2050 1 1330 1351 40 1362
2051 1 1352 1351 1668 1310
2052 1 1688 1351 386 1720
2053 1 1351 1352 1688 1330
2054 1 1321 1353 1327 1337
2055 1 1323 1355 461 1341
2056 1 1326 1358 892 1347
2057 1 1328 1360 26 1423
2058 1 1330 1362 40 1351
2059 1 1332 1364 902 1419
2060 1 1333 1365 467 1341
2061 1 1335 1367 1329 1337
2062 1 1410 1373 1387 1409
2063 1 1348 1378 1312 1419
2064 1 1424 1382 1308 1423
2065 1 1414 1385 1375 1413
2066 1 1399 1393 1421 1431
2067 1 1409 1393 1407 1410
2068 1 964 1398 983 996
2069 1 1419 1398 1332 1348
2070 1 112 1402 115 144
2071 1 1423 1402 1328 1424
2072 1 539 1405 553 571
2073 1 1413 1405 1395 1414
2074 1 1393 1409 1399 1425
2075 1 1407 1409 1401 1439
2076 1 1410 1409 1373 1387
2077 1 1409 1410 1393 1407
2078 1 1332 1419 902 1364
2079 1 1348 1419 1378 1312
2080 1 1398 1419 964 1430
2081 1 1328 1423 26 1360
2082 1 1402 1423 112 1434
2083 1 1424 1423 1308 1382
2084 1 1423 1424 1328 1402
2085 1 1393 1425 1399 1409
2086 1 1398 1430 964 1419
2087 1 1402 1434 112 1423
2088 1 1405 1437 539 1413
2089 1 1414 1375 1385 1413
2090 1 1496 1380 1454 1495
2091 1 1420 1384 1450 1491
2092 1 1410 1387 1373 1409
2093 1 533 1395 553 565
2094 1 1413 1395 1405 1414
2095 1 98 1400 187 130
2096 1 1495 1400 1474 1496
2097 1 974 1404 1055 1006
2098 1 1491 1404 1470 1420
2099 1 1401 1407 1421 1433
2100 1 1409 1407 1393 1410
2101 1 1395 1413 533 1427
2102 1 1405 1413 539 1437
2103 1 1414 1413 1375 1385
2104 1 1413 1414 1395 1405
2105 1 1491 1420 1470 1404
2106 1 1395 1427 533 1413
2107 1 1400 1432 98 1495
2108 1 1404 1436 974 1491
2109 1 1407 1439 1401 1409
2110 1 1482 1445 1459 1481
2111 1 1486 1447 1457 1485
2112 1 1420 1450 1384 1491
2113 1 1568 1452 1526 1567
2114 1 1496 1454 1380 1495
2115 1 1492 1456 1522 1563
2116 1 1486 1457 1447 1485
2117 1 1482 1459 1445 1481
2118 1 1471 1465 1493 1503
2119 1 1481 1465 1479 1482
2120 1 605 1467 625 637
2121 1 1485 1467 1477 1486
2122 1 1036 1470 1055 1068
2123 1 1491 1470 1404 1420
2124 1 170 1472 259 202
2125 1 1567 1472 1546 1568
2126 1 184 1474 187 216
2127 1 1495 1474 1400 1496
2128 1 1046 1476 1127 1078
2129 1 1563 1476 1542 1492
2130 1 611 1477 625 643
2131 1 1485 1477 1467 1486
2132 1 1473 1479 1493 1505
2133 1 1481 1479 1465 1482
2134 1 1465 1481 1471 1497
2135 1 1479 1481 1473 1511
2136 1 1482 1481 1445 1459
2137 1 1481 1482 1465 1479
2138 1 1467 1485 605 1499
2139 1 1477 1485 611 1509
2140 1 1486 1485 1447 1457
2141 1 1485 1486 1467 1477
2142 1 1404 1491 974 1436
2143 1 1420 1491 1450 1384
2144 1 1470 1491 1036 1502
2145 1 1563 1492 1542 1476
2146 1 1400 1495 98 1432
2147 1 1474 1495 184 1506
2148 1 1496 1495 1380 1454
2149 1 1495 1496 1400 1474
2150 1 1465 1497 1471 1481
2151 1 1467 1499 605 1485
2152 1 1470 1502 1036 1491
2153 1 1472 1504 170 1567
2154 1 1474 1506 184 1495
2155 1 1476 1508 1046 1563
2156 1 1477 1509 611 1485
2157 1 1479 1511 1473 1481
2158 1 1476 1563 1046 1508
2159 1 1492 1563 1522 1456
2160 1 1542 1563 1108 1574
2161 1 1554 1517 1531 1553
2162 1 1558 1519 1529 1557
2163 1 1492 1522 1456 1563
2164 1 1640 1524 1598 1639
2165 1 1568 1526 1452 1567
2166 1 1564 1528 1594 1635
2167 1 1558 1529 1519 1557
2168 1 1554 1531 1517 1553
2169 1 1543 1537 1565 1575
2170 1 1553 1537 1551 1554
2171 1 677 1539 697 709
2172 1 1557 1539 1549 1558
2173 1 1108 1542 1127 1140
2174 1 1563 1542 1476 1492
2175 1 242 1544 331 274
2176 1 1639 1544 1618 1640
2177 1 256 1546 259 288
2178 1 1567 1546 1472 1568
2179 1 1118 1548 1199 1150
2180 1 1635 1548 1614 1564
2181 1 683 1549 697 715
2182 1 1557 1549 1539 1558
2183 1 1545 1551 1565 1577
2184 1 1553 1551 1537 1554
2185 1 1537 1553 1543 1569
2186 1 1551 1553 1545 1583
2187 1 1554 1553 1517 1531
2188 1 1553 1554 1537 1551
2189 1 1539 1557 677 1571
2190 1 1549 1557 683 1581
2191 1 1558 1557 1519 1529
2192 1 1557 1558 1539 1549
2193 1 1635 1564 1614 1548
2194 1 1472 1567 170 1504
2195 1 1546 1567 256 1578
2196 1 1568 1567 1452 1526
2197 1 1567 1568 1472 1546
2198 1 1537 1569 1543 1553
2199 1 1539 1571 677 1557
2200 1 1542 1574 1108 1563
2201 1 1544 1576 242 1639
2202 1 1546 1578 256 1567
2203 1 1548 1580 1118 1635
2204 1 1549 1581 683 1557
2205 1 1551 1583 1545 1553
2206 1 1626 1589 1603 1625
2207 1 1564 1594 1528 1635
2208 1 1640 1598 1524 1639
2209 1 1630 1601 1591 1629
2210 1 1615 1609 1637 1647
2211 1 1625 1609 1623 1626
2212 1 1180 1614 1199 1212
2213 1 1635 1614 1548 1564
2214 1 328 1618 331 360
2215 1 1639 1618 1544 1640
2216 1 755 1621 769 787
2217 1 1629 1621 1611 1630
2218 1 1609 1625 1615 1641
2219 1 1623 1625 1617 1655
2220 1 1626 1625 1589 1603
2221 1 1625 1626 1609 1623
2222 1 1548 1635 1118 1580
2223 1 1564 1635 1594 1528
2224 1 1614 1635 1180 1646
2225 1 1544 1639 242 1576
2226 1 1618 1639 328 1650
2227 1 1640 1639 1524 1598
2228 1 1639 1640 1544 1618
2229 1 1609 1641 1615 1625
2230 1 1614 1646 1180 1635
2231 1 1618 1650 328 1639
2232 1 1621 1653 755 1629
2233 1 1326 1347 892 1358
2234 1 1692 1347 1262 1724
2235 1 1708 1347 1306 1672
2236 1 1630 1591 1601 1629
2237 1 1712 1596 1670 1711
2238 1 1636 1600 1666 1707
2239 1 1626 1603 1589 1625
2240 1 749 1611 769 781
2241 1 1629 1611 1621 1630
2242 1 314 1616 403 346
2243 1 1711 1616 1690 1712
2244 1 1190 1620 1271 1222
2245 1 1707 1620 1686 1636
2246 1 1617 1623 1637 1649
2247 1 1625 1623 1609 1626
2248 1 1611 1629 749 1643
2249 1 1621 1629 755 1653
2250 1 1630 1629 1591 1601
2251 1 1629 1630 1611 1621
2252 1 1707 1636 1686 1620
2253 1 1611 1643 749 1629
2254 1 1616 1648 314 1711
2255 1 1620 1652 1190 1707
2256 1 1623 1655 1617 1625
2257 1 1698 1661 1675 1697
2258 1 1702 1663 1673 1701
2259 1 1636 1666 1600 1707
2260 1 1352 1668 1310 1351
2261 1 1712 1670 1596 1711
2262 1 1708 1672 1306 1347
2263 1 1702 1673 1663 1701
2264 1 1698 1675 1661 1697
2265 1 1687 1681 1709 1719
2266 1 1697 1681 1695 1698
2267 1 821 1683 841 853
2268 1 1701 1683 1693 1702
2269 1 1252 1686 1271 1284
2270 1 1707 1686 1620 1636
2271 1 386 1688 43 418
2272 1 1351 1688 1330 1352
2273 1 400 1690 403 432
2274 1 1711 1690 1616 1712
2275 1 1262 1692 911 1294
2276 1 1347 1692 1326 1708
2277 1 827 1693 841 859
2278 1 1701 1693 1683 1702
2279 1 1689 1695 1709 1721
2280 1 1697 1695 1681 1698
2281 1 1681 1697 1687 1713
2282 1 1695 1697 1689 1727
2283 1 1698 1697 1661 1675
2284 1 1697 1698 1681 1695
2285 1 1683 1701 821 1715
2286 1 1693 1701 827 1725
2287 1 1702 1701 1663 1673
2288 1 1701 1702 1683 1693
2289 1 1620 1707 1190 1652
2290 1 1636 1707 1666 1600
2291 1 1686 1707 1252 1718
2292 1 1347 1708 1326 1692
2293 1 1616 1711 314 1648
2294 1 1690 1711 400 1722
2295 1 1712 1711 1596 1670
2296 1 1711 1712 1616 1690
2297 1 1681 1713 1687 1697
2298 1 1683 1715 821 1701
2299 1 1686 1718 1252 1707
2300 1 1688 1720 386 1351
2301 1 1690 1722 400 1711
2302 1 1692 1724 1262 1347
2303 1 1693 1725 827 1701
2304 1 1695 1727 1689 1697
