Generated using phonoLAMMPS
1.0
       17.0154000000         0.0000000000         0.0000000000
        0.0000000000        17.0154000000         0.0000000000
        0.0000000000         0.0000000000        17.0154000000
C H N Zn 
72 72 48 12
Direct
0.489154680223429   0.110064480899063   0.889931424750939
0.489154680223435   0.889931902758167   0.110064002891825
0.601954132070790   0.136509107715120   0.194429467991264
0.601954132070788   0.194429945998496   0.136508629707890
0.601954132070817   0.805566437658738   0.863486797934871
0.601954132070813   0.863487275942112   0.805565959651495
0.101954132070794   0.305566437658751   0.363486797934878
0.101954132070790   0.363487275942130   0.305565959651506
0.101954132070787   0.636509107715133   0.694429467991253
0.101954132070786   0.694429945998505   0.636508629707874
0.110067657050564   0.489151504071944   0.889931424750939
0.110067657050566   0.110064480899060   0.510844401578075
0.110067657050570   0.510844879585326   0.110064002891836
0.110067657050562   0.889931902758164   0.489151026064686
0.136512283866617   0.601950955919313   0.194429467991267
0.136512283866625   0.194429945998490   0.601950477912060
0.136512283866621   0.398045427737961   0.805565959651507
0.136512283866614   0.805566437658735   0.398044949730699
0.194433122149996   0.601950955919315   0.136508629707895
0.194433122149998   0.136509107715112   0.601950477912059
0.194433122149997   0.398045427737961   0.863486797934883
0.194433122149993   0.863487275942106   0.398044949730703
0.305569613810239   0.101950955919278   0.363486797934882
0.305569613810240   0.363487275942128   0.101950477912060
0.305569613810244   0.636509107715135   0.898044949730703
0.305569613810240   0.898045427737929   0.636508629707895
0.363490452093616   0.101950955919278   0.305565959651508
0.363490452093612   0.305566437658749   0.101950477912057
0.363490452093622   0.694429945998509   0.898044949730698
0.363490452093618   0.898045427737930   0.694429467991269
0.389935078909671   0.389931902758181   0.010844401578075
0.389935078909678   0.610064480899081   0.989151026064685
0.389935078909672   0.010844879585295   0.389931424750937
0.389935078909668   0.989151504071915   0.610064002891837
0.398048603889446   0.136509107715111   0.805565959651506
0.398048603889444   0.194429945998491   0.863486797934878
0.398048603889450   0.805566437658734   0.136508629707870
0.398048603889449   0.863487275942105   0.194429467991251
0.510848055736808   0.110064480899062   0.110064002891832
0.510848055736830   0.889931902758164   0.889931424750928
0.610067657050563   0.389931902758177   0.989151026064695
0.610067657050575   0.610064480899070   0.010844401578080
0.610067657050568   0.010844879585305   0.610064002891833
0.610067657050575   0.989151504071919   0.389931424750937
0.636512283866624   0.101950955919288   0.694429467991267
0.636512283866620   0.305566437658746   0.898044949730710
0.636512283866626   0.694429945998503   0.101950477912063
0.636512283866634   0.898045427737937   0.305565959651506
0.694433122150000   0.101950955919289   0.636508629707892
0.694433122149995   0.363487275942122   0.898044949730711
0.694433122150002   0.636509107715128   0.101950477912067
0.694433122150008   0.898045427737938   0.363486797934884
0.805569613810233   0.601950955919302   0.863486797934885
0.805569613810247   0.136509107715115   0.398044949730712
0.805569613810238   0.398045427737949   0.136508629707890
0.805569613810238   0.863487275942111   0.601950477912069
0.863490452093606   0.601950955919304   0.805565959651506
0.863490452093619   0.194429945998494   0.398044949730712
0.863490452093614   0.398045427737951   0.194429467991265
0.863490452093613   0.805566437658735   0.601950477912064
0.889935078909670   0.489151504071932   0.110064002891830
0.889935078909677   0.110064480899064   0.489151026064697
0.889935078909667   0.510844879585319   0.889931424750936
0.889935078909664   0.889931902758171   0.510844401578081
0.898048603889447   0.305566437658743   0.636508629707888
0.898048603889443   0.363487275942121   0.694429467991261
0.898048603889426   0.636509107715131   0.305565959651498
0.898048603889425   0.694429945998506   0.363486797934873
0.010848055736807   0.389931902758178   0.389931424750940
0.010848055736802   0.610064480899073   0.610064002891825
0.989154680223428   0.389931902758177   0.610064002891830
0.989154680223411   0.610064480899077   0.389931424750927
0.535983833229757   0.078669832667188   0.921326072982819
0.535983833229765   0.921326550990048   0.078669354659952
0.578673008818700   0.578669832667192   0.964015248571751
0.578673008818685   0.421326550990053   0.035980179071024
0.578673008818692   0.964015726578977   0.578669354659956
0.578673008818695   0.035980657078246   0.421326072982815
0.629483191758198   0.139943527657200   0.746010441277386
0.629483191758195   0.253985464372627   0.860052377992796
0.629483191758198   0.746010919284625   0.139943049649974
0.629483191758211   0.860052856000025   0.253984986365385
0.078673008818686   0.535980657078272   0.921326072982815
0.078673008818689   0.078669832667186   0.464015248571745
0.078673008818694   0.464015726578999   0.078669354659956
0.078673008818685   0.921326550990042   0.535980179071013
0.129483191758199   0.246010919284609   0.639943049649974
0.129483191758196   0.360052856000048   0.753984986365388
0.129483191758186   0.639943527657226   0.246010441277386
0.129483191758184   0.753985464372617   0.360052377992782
0.139946703808702   0.629480015606711   0.746010441277372
0.139946703808709   0.253985464372633   0.370515890043298
0.139946703808703   0.370516368050561   0.253984986365386
0.139946703808700   0.746010919284624   0.629479537599444
0.246014095436114   0.129480015606684   0.639943049649976
0.246014095436117   0.360052856000047   0.870515890043308
0.246014095436112   0.639943527657232   0.129479537599470
0.246014095436113   0.870516368050531   0.360052377992790
0.253988640524123   0.629480015606710   0.860052377992791
0.253988640524120   0.139943527657192   0.370515890043308
0.253988640524122   0.370516368050556   0.139943049649973
0.253988640524121   0.860052856000012   0.629479537599471
0.360056032151532   0.129480015606682   0.753984986365386
0.360056032151527   0.246010919284608   0.870515890043301
0.360056032151535   0.753985464372617   0.129479537599438
0.360056032151531   0.870516368050528   0.246010441277368
0.370519544202042   0.139943527657193   0.253984986365388
0.370519544202037   0.253985464372630   0.139943049649972
0.370519544202048   0.746010919284626   0.860052377992781
0.370519544202047   0.860052856000017   0.746010441277386
0.421329727141555   0.578669832667204   0.035980179071014
0.421329727141549   0.421326550990058   0.964015248571747
0.421329727141549   0.964015726578966   0.421326072982815
0.421329727141543   0.035980657078245   0.578669354659959
0.464018902730481   0.078669832667183   0.078669354659956
0.464018902730499   0.921326550990039   0.921326072982806
0.639946703808708   0.129480015606694   0.246010441277382
0.639946703808701   0.246010919284616   0.129479537599464
0.639946703808734   0.753985464372620   0.870515890043297
0.639946703808726   0.870516368050540   0.753984986365375
0.746014095436119   0.629480015606703   0.139943049649984
0.746014095436120   0.139943527657202   0.629479537599468
0.746014095436115   0.370516368050550   0.860052377992799
0.746014095436130   0.860052856000028   0.370515890043309
0.753988640524128   0.129480015606687   0.360052377992796
0.753988640524120   0.360052856000034   0.129479537599464
0.753988640524115   0.639943527657216   0.870515890043312
0.753988640524121   0.870516368050536   0.639943049649985
0.860056032151514   0.629480015606703   0.253984986365378
0.860056032151534   0.253985464372623   0.629479537599463
0.860056032151528   0.370516368050546   0.746010441277380
0.860056032151510   0.746010919284626   0.370515890043298
0.870519544202044   0.246010919284611   0.360052377992796
0.870519544202040   0.360052856000039   0.246010441277385
0.870519544202030   0.639943527657218   0.753984986365387
0.870519544202042   0.753985464372614   0.639943049649975
0.921329727141547   0.535980657078259   0.078669354659952
0.921329727141555   0.078669832667186   0.535980179071024
0.921329727141543   0.464015726578990   0.921326072982812
0.921329727141538   0.921326550990048   0.464015248571752
0.964018902730473   0.578669832667193   0.578669354659950
0.964018902730478   0.421326550990052   0.421326072982821
0.035983833229740   0.578669832667201   0.421326072982805
0.035983833229756   0.421326550990053   0.578669354659952
0.548181771678391   0.078707235202365   0.173674653457588
0.548181771678386   0.173675131464821   0.078706757195136
0.548181771678412   0.826321252192409   0.921288670447624
0.548181771678408   0.921289148454862   0.826320774185171
0.578710411353866   0.326321252192419   0.951817310123114
0.578710411353876   0.673675131464828   0.048178117519657
0.578710411353879   0.951817788130338   0.326320774185179
0.578710411353871   0.048178595526884   0.673674653457591
0.078710411353867   0.548178595526907   0.173674653457590
0.078710411353871   0.173675131464818   0.548178117519656
0.078710411353867   0.451817788130363   0.826320774185181
0.078710411353861   0.826321252192411   0.451817310123101
0.173678307616326   0.548178595526911   0.078706757195141
0.173678307616320   0.078707235202360   0.548178117519656
0.173678307616322   0.451817788130364   0.921288670447637
0.173678307616321   0.921289148454859   0.451817310123108
0.326324428343919   0.578707235202385   0.951817310123108
0.326324428343916   0.421289148454882   0.048178117519658
0.326324428343912   0.951817788130332   0.578706757195141
0.326324428343915   0.048178595526875   0.421288670447635
0.421292324606367   0.326321252192422   0.048178117519654
0.421292324606377   0.673675131464834   0.951817310123099
0.421292324606368   0.951817788130335   0.673674653457592
0.421292324606370   0.048178595526877   0.326320774185182
0.451820964281850   0.078707235202360   0.826320774185184
0.451820964281846   0.173675131464820   0.921288670447634
0.451820964281856   0.826321252192414   0.078706757195121
0.451820964281852   0.921289148454860   0.173674653457582
0.673678307616330   0.578707235202374   0.048178117519664
0.673678307616321   0.421289148454874   0.951817310123117
0.673678307616331   0.951817788130340   0.421288670447636
0.673678307616325   0.048178595526887   0.578706757195137
0.826324428343911   0.548178595526898   0.921288670447637
0.826324428343922   0.078707235202365   0.451817310123117
0.826324428343913   0.451817788130350   0.078706757195134
0.826324428343910   0.921289148454866   0.548178117519666
0.921292324606360   0.548178595526901   0.826320774185179
0.921292324606373   0.173675131464821   0.451817310123115
0.921292324606366   0.451817788130354   0.173674653457588
0.921292324606362   0.826321252192413   0.548178117519657
0.951820964281831   0.578707235202379   0.326320774185172
0.951820964281850   0.326321252192417   0.578706757195135
0.951820964281845   0.421289148454875   0.673674653457585
0.951820964281829   0.673675131464834   0.421288670447625
0.048181771678385   0.578707235202378   0.673674653457582
0.048181771678392   0.326321252192421   0.421288670447633
0.048181771678384   0.421289148454880   0.326320774185183
0.048181771678382   0.673675131464828   0.578706757195123
0.500001367980115   0.249998191828619   0.999997713821387
0.500001367980131   0.749998191828623   0.999997713821374
0.500001367980123   0.999998191828609   0.249997713821382
0.500001367980123   0.999998191828607   0.749997713821385
0.250001367980121   0.499998191828639   0.999997713821388
0.250001367980115   0.999998191828603   0.499997713821385
0.750001367980118   0.499998191828623   0.999997713821388
0.750001367980121   0.999998191828615   0.499997713821390
0.000001367980114   0.499998191828632   0.249997713821383
0.000001367980114   0.499998191828629   0.749997713821380
0.000001367980125   0.249998191828617   0.499997713821385
0.000001367980108   0.749998191828624   0.499997713821373
