LAMMPS data file via write_data, version 15 Jun 2023, timestep = 100000, units = real

1632 atoms
6 atom types
1920 bonds
6 bond types
3456 angles
9 angle types
6144 dihedrals
13 dihedral types
960 impropers
3 improper types

0 33.942036 xlo xhi
0 33.942036 ylo yhi
0 33.942036 zlo zhi
0 0 0 xy xz yz

Masses

1 65.38
2 1.0079
3 1.0079
4 12.0107
5 12.0107
6 14.0067

Atoms # full

10 1 1 0.5212 8.48550878431372 1.274511392571333e-07 4.242754397058822 0 0 0
52 26 2 0.142 4.3141583248622695 2.400115382831771 6.297584413276086 0 0 0
55 29 2 0.142 6.297584300531102 4.314158667999572 2.4001151524394824 0 0 0
60 30 2 0.142 2.4001150396944064 6.297584643668225 4.314158437607377 0 0 0
64 30 2 0.142 2.4001150396944864 4.314158667999607 6.297584413275975 0 0 0
67 29 2 0.142 4.314158324862454 6.297584643668138 2.4001151524395934 0 0 0
72 26 2 0.142 6.297584300530849 2.40011538283186 4.314158437607444 0 0 0
73 27 3 0.1145 1.3372109212597991 1.3372112643969905 7.875400018363016 0 0 0
77 28 3 0.1145 7.875399905617915 1.337211264397103 1.3372110340048107 0 0 0
78 25 3 0.1145 1.3372109212597758 7.875400248755132 1.3372110340048509 0 0 0
124 26 4 -0.1504 5.188883417506482 1.7504326268130725 6.174391920328365 0 0 0
127 29 4 -0.1504 6.1743918075833655 5.188883760643778 1.7504323964207775 0 0 0
132 30 4 -0.1504 1.7504322836756925 6.1743921507205055 5.1888835302515774 0 0 0
136 30 4 -0.1504 1.7504322836757336 5.188883760643785 6.174391920328289 0 0 0
139 29 4 -0.1504 5.188883417506626 6.174392150720469 1.7504323964208317 0 0 0
144 26 4 -0.1504 6.1743918075831825 1.7504326268131174 5.1888835302516325 0 0 0
148 26 5 -0.0519 6.61775845818605 0.19161978498965135 6.617758570931118 0 0 0
151 29 5 -0.0519 6.617758458186086 6.617758801323341 0.19161955459734162 0 0 0
156 30 5 -0.0519 0.19161944185224583 6.61775880132326 6.617758570931119 0 0 0
184 26 6 -0.1532 5.538181670957882 0.8290973909099918 7.153332914739565 0 0 0
187 29 6 -0.1532 7.153332801994551 5.538182014095182 0.829097160517681 0 0 0
192 30 6 -0.1532 0.8290970477726033 7.153333145131704 5.538181783702959 0 0 0
196 30 6 -0.1532 0.8290970477726739 5.538182014095122 7.153332914739528 0 0 0
199 29 6 -0.1532 5.538181670957943 7.153333145131724 0.829097160517778 0 0 0
204 26 6 -0.1532 7.153332801994439 0.82909739091007 5.538181783702966 0 0 0
213 1 1 0.5212 16.971017784313748 4.2427546274509815 8.485508897058827 0 0 0
14 3 2 0.142 12.799667324862321 6.085393872070256 2.187924380841493 0 0 0
32 16 2 0.142 12.799667324862328 2.1879246112338038 6.085393641678112 0 0 0
48 24 3 0.1145 9.82271992125978 0.6101090061469242 7.148297760112844 0 0 0
54 28 2 0.142 10.885624039694454 2.1879246112339183 4.171350356510207 0 0 0
59 16 2 0.142 14.78309330053095 4.171350586902407 6.085393641678113 0 0 0
61 28 2 0.142 10.885624039694504 4.1713505869024745 2.18792438084154 0 0 0
70 3 2 0.142 14.783093300530876 6.085393872070239 4.171350356510154 0 0 0
75 32 3 0.1145 9.822719921259825 7.148297990504974 0.6101087757545156 0 0 0
81 36 3 0.1145 16.36090890561786 7.148297990504941 7.148297760112809 0 0 0
86 3 4 -0.1504 13.67439241750651 6.735076628088986 2.311116873789222 0 0 0
104 16 4 -0.1504 13.67439241750653 2.3111171041814957 6.735076397696832 0 0 0
119 16 5 -0.0519 15.103267458186066 1.8677504535786669 8.293889239520263 0 0 0
126 28 4 -0.1504 10.235941283675743 2.3111171041815988 3.2966252638659976 0 0 0
131 16 4 -0.1504 14.659900807583252 3.296625494258206 6.735076397696831 0 0 0
133 28 4 -0.1504 10.235941283675768 3.296625494258287 2.3111168737892522 0 0 0
142 3 4 -0.1504 14.659900807583199 6.735076628088977 3.296625263865963 0 0 0
146 3 5 -0.0519 15.103267458186039 8.293889469912445 1.86775022318647 0 0 0
150 28 5 -0.0519 8.677128441852302 1.8677504535787757 1.8677502231864727 0 0 0
158 3 6 -0.1532 14.0236906709579 7.656411863992062 1.3321758793780145 0 0 0
176 16 6 -0.1532 14.023690670957901 1.3321761097702574 7.656411633599883 0 0 0
186 28 6 -0.1532 9.314606047772667 1.3321761097703742 2.947327010414649 0 0 0
191 16 6 -0.1532 15.638841801994483 2.947327240806829 7.656411633599887 0 0 0
193 28 6 -0.1532 9.314606047772708 2.9473272408069078 1.3321758793780272 0 0 0
202 3 6 -0.1532 15.638841801994433 7.65641186399205 2.947327010414635 0 0 0
8 1 1 0.5212 4.242754284313766 1.2745098440259507e-07 8.485508897058828 0 0 0
1 1 1 0.5212 12.728263284313758 1.2745098051041713e-07 8.48550889705882 0 0 0
194 11 6 -0.1532 16.141920520854825 5.538182014095132 9.8176848793781 0 0 0
20 9 2 0.142 6.085393528933042 2.1879246112337554 12.799667437607376 0 0 0
33 17 2 0.142 2.1879242680966224 6.08539387207027 12.799667437607413 0 0 0
46 23 3 0.1145 7.148297647367765 0.610109006146784 9.822720034004872 0 0 0
51 17 2 0.142 4.1713502437652075 6.085393872070259 14.783093413276045 0 0 0
53 27 2 0.142 2.187924268096579 4.1713505869023715 10.88562415243958 0 0 0
63 9 2 0.142 6.085393528933044 4.171350586902394 14.783093413275957 0 0 0
65 27 2 0.142 4.171350243765175 2.1879246112337474 10.885624152439592 0 0 0
74 31 3 0.1145 7.148297647367719 7.148297990505005 16.36090901836297 0 0 0
79 34 3 0.1145 0.6101086630096685 7.14829799050494 9.822720034004796 0 0 0
92 9 4 -0.1504 6.735076284951766 2.311117104181463 13.674392530251568 0 0 0
105 17 4 -0.1504 2.311116761044312 6.735076628088995 13.674392530251609 0 0 0
116 9 5 -0.0519 8.293889126775216 1.8677504535786773 15.103267570931097 0 0 0
123 17 4 -0.1504 3.2966251511210167 6.735076628088989 14.659900920328337 0 0 0
125 27 4 -0.1504 2.311116761044276 3.2966254942581763 10.235941396420854 0 0 0
135 9 4 -0.1504 6.735076284951768 3.296625494258194 14.659900920328273 0 0 0
137 27 4 -0.1504 3.2966251511209848 2.3111171041814518 10.235941396420857 0 0 0
147 17 5 -0.0519 1.8677501104414944 8.293889469912443 15.103267570931127 0 0 0
149 27 5 -0.0519 1.8677501104414678 1.8677504535786595 8.677128554597399 0 0 0
164 9 6 -0.1532 7.65641152085483 1.3321761097702411 14.023690783702952 0 0 0
177 17 6 -0.1532 1.3321757666330865 7.656411863992065 14.023690783702962 0 0 0
183 17 6 -0.1532 2.9473268976696407 7.65641186399205 15.638841914739562 0 0 0
185 27 6 -0.1532 1.3321757666330531 2.9473272408068185 9.314606160517782 0 0 0
195 9 6 -0.1532 7.656411520854833 2.9473272408068425 15.638841914739503 0 0 0
197 27 6 -0.1532 2.947326897669619 1.3321761097702318 9.314606160517787 0 0 0
189 19 6 -0.1532 9.817684766633036 5.538182014095145 16.141920633599792 0 0 0
6 1 1 0.5212 8.485508784313762 1.2745094318708824e-07 12.728263397058829 0 0 0
13 2 2 0.142 12.656859243765162 2.4001153828316837 10.673433380841665 0 0 0
22 11 2 0.142 14.570902528933061 6.297584643668224 12.65685935651024 0 0 0
30 2 2 0.142 10.673433268096527 2.4001153828316575 12.65685935651025 0 0 0
35 19 2 0.142 12.656859243765156 6.2975846436682135 14.570902641677975 0 0 0
40 16 3 0.1145 15.633806647367734 1.3372112643969882 9.095617775754642 0 0 0
44 5 3 0.1145 15.63380664736772 7.875400248755179 15.63380676011274 0 0 0
47 9 3 0.1145 9.095617663009593 1.337211264397008 15.63380676011278 0 0 0
57 19 2 0.142 10.67343326809656 4.31415866799959 14.570902641677993 0 0 0
62 11 2 0.142 14.570902528933035 4.31415866799959 10.673433380841654 0 0 0
85 2 4 -0.1504 11.782134151120973 1.7504326268129482 10.79662587378935 0 0 0
94 11 4 -0.1504 15.220585284951783 6.174392150720511 11.782134263866045 0 0 0
102 2 4 -0.1504 10.796625761044243 1.7504326268129333 11.782134263866057 0 0 0
107 19 4 -0.1504 11.782134151120967 6.174392150720511 15.22058539769671 0 0 0
109 2 5 -0.0519 10.35325911044147 0.19161978498948368 10.353259223186521 0 0 0
129 19 4 -0.1504 10.796625761044258 5.188883760643787 15.220585397696716 0 0 0
134 11 4 -0.1504 15.220585284951765 5.188883760643783 10.79662587378934 0 0 0
153 19 5 -0.0519 10.353259110441451 6.617758801323308 16.77939823952017 0 0 0
154 11 5 -0.0519 16.779398126775224 6.617758801323288 10.353259223186505 0 0 0
157 2 6 -0.1532 11.432835897669621 0.8290973909098888 9.817684879378113 0 0 0
166 11 6 -0.1532 16.141920520854853 7.153333145131726 11.43283601041466 0 0 0
174 2 6 -0.1532 9.817684766633032 0.8290973909098576 11.432836010414675 0 0 0
179 19 6 -0.1532 11.4328358976696 7.153333145131735 16.141920633599778 0 0 0
827 1 1 0.5212 8.485508784313769 4.242754627451008 16.97101789705876 0 0 0
826 1 1 0.5212 8.485508784313675 1.2745110353621635e-07 21.213772397058868 0 0 0
868 134 2 0.142 4.3141583248622775 2.400115382831747 23.26860241327624 0 0 0
871 31 2 0.142 6.2975843005310015 4.314158667999532 19.371133152439462 0 0 0
876 137 2 0.142 2.4001150396943864 6.2975846436681655 21.285176437607365 0 0 0
880 137 2 0.142 2.4001150396944686 4.314158667999553 23.268602413275957 0 0 0
883 31 2 0.142 4.314158324862362 6.29758464366812 19.371133152439526 0 0 0
888 134 2 0.142 6.297584300530833 2.4001153828318422 21.285176437607568 0 0 0
889 135 3 0.1145 1.3372109212598104 1.3372112643969685 24.846418018363106 0 0 0
893 136 3 0.1145 7.875399905617873 1.3372112643970884 18.30822903400484 0 0 0
894 133 3 0.1145 1.3372109212597536 7.875400248755118 18.30822903400482 0 0 0
940 134 4 -0.1504 5.188883417506478 1.7504326268130392 23.14540992032849 0 0 0
943 31 4 -0.1504 6.17439180758329 5.188883760643749 18.721450396420767 0 0 0
948 137 4 -0.1504 1.7504322836756787 6.174392150720453 22.159901530251574 0 0 0
952 137 4 -0.1504 1.7504322836757202 5.188883760643735 23.145409920328287 0 0 0
955 31 4 -0.1504 5.188883417506561 6.174392150720451 18.7214503964208 0 0 0
960 134 4 -0.1504 6.174391807583166 1.750432626813085 22.15990153025174 0 0 0
964 134 5 -0.0519 6.617758458186044 0.1916197849896089 23.588776570931213 0 0 0
967 31 5 -0.0519 6.617758458186062 6.617758801323309 17.162637554597342 0 0 0
972 137 5 -0.0519 0.1916194418522459 6.6177588013232205 23.588776570931124 0 0 0
1000 134 6 -0.1532 5.5381816709578855 0.8290973909099506 24.12435091473968 0 0 0
1003 31 6 -0.1532 7.153332801994503 5.538182014095148 17.8001151605177 0 0 0
1008 137 6 -0.1532 0.8290970477725993 7.153333145131659 22.509199783702957 0 0 0
1012 137 6 -0.1532 0.8290970477726735 5.538182014095082 24.124350914739534 0 0 0
1015 31 6 -0.1532 5.538181670957907 7.153333145131702 17.800115160517752 0 0 0
1020 134 6 -0.1532 7.153332801994421 0.8290973909100297 22.509199783703057 0 0 0
1029 1 1 0.5212 16.97101778431376 4.242754627450962 25.456526897058847 0 0 0
830 115 2 0.142 12.799667324862307 6.085393872070231 19.158942380841435 0 0 0
848 126 2 0.142 12.799667324862332 2.1879246112338224 23.05641164167813 0 0 0
864 132 3 0.1145 9.822719921259777 0.6101090061468757 24.11931576011286 0 0 0
870 136 2 0.142 10.885624039694408 2.187924611233856 21.142368356510254 0 0 0
875 126 2 0.142 14.783093300530961 4.171350586902417 23.056411641678164 0 0 0
877 136 2 0.142 10.885624039694472 4.171350586902436 19.158942380841623 0 0 0
886 115 2 0.142 14.783093300530867 6.0853938720701795 21.1423683565101 0 0 0
891 19 3 0.1145 9.822719921259784 7.148297990504977 17.58112677575455 0 0 0
897 140 3 0.1145 16.360908905617865 7.148297990504916 24.119315760112794 0 0 0
902 115 4 -0.1504 13.6743924175065 6.7350766280889545 19.28213487378918 0 0 0
920 126 4 -0.1504 13.674392417506537 2.3111171041814944 23.706094397696848 0 0 0
935 126 5 -0.0519 15.103267458186066 1.8677504535786424 25.26490723952028 0 0 0
942 136 4 -0.1504 10.235941283675697 2.311117104181552 20.26764326386605 0 0 0
947 126 4 -0.1504 14.659900807583261 3.296625494258201 23.706094397696862 0 0 0
949 136 4 -0.1504 10.235941283675727 3.296625494258255 19.28213487378932 0 0 0
958 115 4 -0.1504 14.659900807583194 6.735076628088929 20.267643263865917 0 0 0
962 115 5 -0.0519 15.103267458186036 8.293889469912411 18.838768223186445 0 0 0
966 136 5 -0.0519 8.677128441852258 1.8677504535787546 18.838768223186516 0 0 0
974 115 6 -0.1532 14.023690670957885 7.656411863992045 18.303193879377986 0 0 0
992 126 6 -0.1532 14.023690670957901 1.3321761097702443 24.62742963359989 0 0 0
1002 136 6 -0.1532 9.314606047772616 1.332176109770339 19.91834501041469 0 0 0
1007 126 6 -0.1532 15.638841801994491 2.94732724080681 24.627429633599917 0 0 0
1009 136 6 -0.1532 9.314606047772672 2.947327240806888 18.30319387937808 0 0 0
1018 115 6 -0.1532 15.63884180199443 7.656411863992 19.918345010414598 0 0 0
824 1 1 0.5212 4.242754284313751 1.2745096343968982e-07 25.456526897058943 0 0 0
817 1 1 0.5212 12.72826328431376 1.274509589701803e-07 25.456526897058804 0 0 0
1010 122 6 -0.1532 16.14192052085484 5.538182014095113 26.78870287937812 0 0 0
836 120 2 0.142 6.085393528933091 2.1879246112337234 29.770685437607344 0 0 0
849 127 2 0.142 2.1879242680966238 6.085393872070321 29.770685437607423 0 0 0
862 131 3 0.1145 7.148297647367745 0.6101090061467616 26.79373803400493 0 0 0
867 127 2 0.142 4.171350243765227 6.085393872070285 31.754111413276032 0 0 0
869 135 2 0.142 2.18792426809655 4.171350586902391 27.856642152439647 0 0 0
879 120 2 0.142 6.085393528933063 4.171350586902405 31.754111413275876 0 0 0
881 135 2 0.142 4.171350243765149 2.187924611233769 27.85664215243971 0 0 0
890 29 3 0.1145 7.148297647367708 7.148297990505026 33.33192701836293 0 0 0
895 138 3 0.1145 0.610108663009677 7.148297990504933 26.79373803400482 0 0 0
908 120 4 -0.1504 6.735076284951807 2.3111171041814536 30.645410530251542 0 0 0
921 127 4 -0.1504 2.311116761044315 6.735076628089026 30.645410530251635 0 0 0
932 120 5 -0.0519 8.293889126775248 1.8677504535787064 32.074285570931096 0 0 0
939 127 4 -0.1504 3.296625151121029 6.73507662808901 31.63091892032835 0 0 0
941 135 4 -0.1504 2.3111167610442593 3.2966254942581896 27.20695939642093 0 0 0
951 120 4 -0.1504 6.735076284951791 3.2966254942582043 31.630918920328227 0 0 0
953 135 4 -0.1504 3.296625151120969 2.3111171041814664 27.20695939642096 0 0 0
963 127 5 -0.0519 1.8677501104415062 8.293889469912454 32.07428557093118 0 0 0
965 135 5 -0.0519 1.867750110441474 1.8677504535786487 25.648146554597492 0 0 0
980 120 6 -0.1532 7.656411520854875 1.332176109770245 30.994708783702954 0 0 0
993 127 6 -0.1532 1.3321757666330911 7.6564118639920915 30.994708783703004 0 0 0
999 127 6 -0.1532 2.947326897669658 7.656411863992059 32.609859914739594 0 0 0
1001 135 6 -0.1532 1.3321757666330494 2.9473272408068154 26.285624160517852 0 0 0
1011 120 6 -0.1532 7.656411520854851 2.947327240806876 32.609859914739474 0 0 0
1013 135 6 -0.1532 2.947326897669618 1.3321761097702336 26.285624160517898 0 0 0
1005 32 6 -0.1532 9.817684766633063 5.538182014095162 33.11293863359973 0 0 0
822 1 1 0.5212 8.485508784313808 1.2745094145952683e-07 29.699281397058854 0 0 0
829 114 2 0.142 12.656859243765211 2.4001153828316584 27.644451380841677 0 0 0
838 122 2 0.142 14.570902528933093 6.297584643668218 29.62787735651027 0 0 0
846 114 2 0.142 10.673433268096588 2.4001153828316326 29.62787735651027 0 0 0
851 32 2 0.142 12.65685924376517 6.297584643668247 31.541920641677905 0 0 0
856 126 3 0.1145 15.633806647367736 1.3372112643969514 26.066635775754648 0 0 0
860 117 3 0.1145 15.633806647367722 7.875400248755172 32.604824760112706 0 0 0
863 120 3 0.1145 9.095617663009625 1.3372112643970584 32.6048247601128 0 0 0
873 32 2 0.142 10.67343326809657 4.314158667999627 31.541920641677912 0 0 0
878 122 2 0.142 14.570902528933063 4.314158667999566 27.64445138084171 0 0 0
901 114 4 -0.1504 11.782134151121014 1.7504326268129318 27.767643873789353 0 0 0
910 122 4 -0.1504 15.220585284951806 6.1743921507205 28.75315226386607 0 0 0
918 114 4 -0.1504 10.796625761044291 1.7504326268129224 28.753152263866063 0 0 0
923 32 4 -0.1504 11.782134151120989 6.174392150720534 32.191603397696646 0 0 0
925 114 5 -0.0519 10.35325911044149 0.1916197849894884 27.32427722318652 0 0 0
945 32 4 -0.1504 10.796625761044275 5.188883760643814 32.191603397696646 0 0 0
950 122 4 -0.1504 15.220585284951788 5.1888837606437646 27.767643873789375 0 0 0
969 32 5 -0.0519 10.353259110441487 6.6177588013233155 33.75041623952012 0 0 0
970 122 5 -0.0519 16.77939812677524 6.617758801323271 27.324277223186517 0 0 0
973 114 6 -0.1532 11.432835897669644 0.8290973909098844 26.78870287937811 0 0 0
982 122 6 -0.1532 16.14192052085487 7.153333145131716 28.403854010414673 0 0 0
990 114 6 -0.1532 9.817684766633068 0.8290973909098581 28.403854010414687 0 0 0
995 32 6 -0.1532 11.432835897669635 7.153333145131744 33.11293863359973 0 0 0
11 1 1 0.5212 8.485508784313797 4.242754627451033 33.942035897058716 0 0 -1
216 1 1 0.5212 16.971017784313684 8.485509127450987 4.242754397058812 0 0 0
21 10 2 0.142 2.187924268096579 12.799667667999582 6.085393641678072 0 0 0
26 14 2 0.142 6.085393528933027 12.799667667999628 2.187924380841673 0 0 0
49 25 2 0.142 4.171350243765129 10.885624382831697 2.1879243808417193 0 0 0
58 14 2 0.142 6.085393528933005 14.783093643668266 4.1713503565102545 0 0 0
66 25 2 0.142 2.18792426809647 10.885624382831676 4.17135035651028 0 0 0
71 10 2 0.142 4.17135024376518 14.783093643668202 6.0853936416781105 0 0 0
76 33 3 0.1145 7.148297647367764 9.82272026439702 0.6101087757547482 0 0 0
80 35 3 0.1145 7.148297647367743 16.360909248755185 7.148297760112774 0 0 0
83 37 3 0.1145 0.6101086630095286 9.822720264396965 7.148297760112759 0 0 0
93 10 4 -0.1504 2.311116761044268 13.674392760643771 6.73507639769681 0 0 0
98 14 4 -0.1504 6.73507628495175 13.674392760643826 2.3111168737893646 0 0 0
117 10 5 -0.0519 1.8677501104414498 15.10326780132327 8.293889239520277 0 0 0
118 14 5 -0.0519 8.2938891267752 15.103267801323344 1.8677502231865517 0 0 0
121 25 4 -0.1504 3.2966251511209324 10.23594162681297 2.31111687378939 0 0 0
130 14 4 -0.1504 6.735076284951739 14.659901150720557 3.2966252638660682 0 0 0
138 25 4 -0.1504 2.3111167610441914 10.235941626812956 3.2966252638660825 0 0 0
143 10 4 -0.1504 3.296625151120981 14.659901150720492 6.735076397696829 0 0 0
145 25 5 -0.0519 1.8677501104414294 8.677128784989517 1.8677502231865368 0 0 0
165 10 6 -0.1532 1.3321757666330338 14.02369101409512 7.656411633599872 0 0 0
170 14 6 -0.1532 7.656411520854824 14.02369101409518 1.3321758793781433 0 0 0
181 25 6 -0.1532 2.947326897669598 9.314606390909907 1.3321758793781475 0 0 0
190 14 6 -0.1532 7.656411520854806 15.63884214513178 2.947327010414695 0 0 0
198 25 6 -0.1532 1.3321757666329759 9.314606390909892 2.947327010414683 0 0 0
203 10 6 -0.1532 2.9473268976696074 15.638842145131703 7.656411633599908 0 0 0
201 4 6 -0.1532 9.817684766632997 16.141920863992116 5.538181783702972 0 0 0
15 4 2 0.142 12.656859243765117 14.570902872070278 6.297584413275985 0 0 0
17 6 2 0.142 10.673433268096641 12.656859586902344 2.4001151524396116 0 0 0
27 15 2 0.142 14.570902528933 12.656859586902423 6.297584413276037 0 0 0
29 6 2 0.142 12.656859243765224 10.673433611233712 2.4001151524395006 0 0 0
38 8 3 0.1145 15.633806647367718 15.633806990504956 7.875400018362978 0 0 0
43 14 3 0.1145 9.095617663009588 15.63380699050501 1.3372110340048828 0 0 0
56 15 2 0.142 14.570902528932956 10.673433611233826 4.314158437607415 0 0 0
69 4 2 0.142 10.673433268096494 14.570902872070329 4.314158437607387 0 0 0
82 3 3 0.1145 15.633806647367718 9.095618006146838 1.3372110340048227 0 0 0
87 4 4 -0.1504 11.782134151120928 15.220585628089017 6.1743919203283 0 0 0
89 6 4 -0.1504 10.796625761044314 11.782134494258171 1.7504323964208517 0 0 0
99 15 4 -0.1504 15.220585284951715 11.78213449425822 6.174391920328329 0 0 0
101 6 4 -0.1504 11.782134151121014 10.796626104181442 1.750432396420798 0 0 0
111 4 5 -0.0519 10.35325911044143 16.77939846991248 6.617758570931133 0 0 0
113 6 5 -0.0519 10.353259110441458 10.353259453578712 0.19161955459735486 0 0 0
128 15 4 -0.1504 15.220585284951692 10.796626104181508 5.1888835302516085 0 0 0
141 4 4 -0.1504 10.796625761044208 15.22058562808904 5.188883530251592 0 0 0
152 15 5 -0.0519 16.779398126775153 10.353259453578675 6.6177585709311115 0 0 0
159 4 6 -0.1532 11.43283589766958 16.141920863992073 7.15333291473954 0 0 0
161 6 6 -0.1532 9.817684766633064 11.432836240806852 0.8290971605177939 0 0 0
171 15 6 -0.1532 16.14192052085479 11.432836240806838 7.153332914739543 0 0 0
173 6 6 -0.1532 11.432835897669621 9.817685109770254 0.8290971605177 0 0 0
188 15 6 -0.1532 16.14192052085475 9.817685109770268 5.538181783702959 0 0 0
209 1 1 0.5212 16.97101778431375 12.728263627450982 8.485508897058816 0 0 0
818 1 1 0.5212 12.728263284313742 8.485509127451008 16.97101789705873 0 0 0
180 5 6 -0.1532 15.638841801994502 9.314606390909947 14.02369078370292 0 0 0
18 7 2 0.142 2.4001150396945663 10.673433611233857 12.6568593565102 0 0 0
23 12 2 0.142 6.297584300530927 12.65685958690242 14.570902641678163 0 0 0
25 7 2 0.142 2.4001150396945174 12.65685958690244 10.673433380841564 0 0 0
34 18 2 0.142 6.297584300530959 14.570902872070208 12.656859356510253 0 0 0
39 10 3 0.1145 1.3372109212597716 15.633806990504924 9.095617775754663 0 0 0
45 13 3 0.1145 7.875399905617916 15.63380699050499 15.63380676011282 0 0 0
50 18 2 0.142 4.314158324862351 14.570902872070215 10.673433380841635 0 0 0
68 12 2 0.142 4.314158324862334 10.673433611233794 14.570902641678147 0 0 0
84 17 3 0.1145 1.3372109212598207 9.095618006146825 15.633806760112796 0 0 0
90 7 4 -0.1504 1.750432283675835 10.79662610418153 11.782134263866004 0 0 0
95 12 4 -0.1504 6.174391807583233 11.782134494258221 15.220585397696887 0 0 0
97 7 4 -0.1504 1.750432283675807 11.782134494258235 10.796625873789276 0 0 0
106 18 4 -0.1504 6.174391807583262 15.220585628088935 11.782134263866059 0 0 0
110 18 5 -0.0519 6.617758458186068 16.779398469912394 10.353259223186544 0 0 0
114 7 5 -0.0519 0.19161944185238539 10.353259453578675 10.3532592231865 0 0 0
122 18 4 -0.1504 5.1888834175065455 15.22058562808894 10.796625873789342 0 0 0
140 12 4 -0.1504 5.188883417506525 10.796626104181497 15.22058539769688 0 0 0
155 12 5 -0.0519 6.617758458186046 10.353259453578698 16.779398239520333 0 0 0
162 7 6 -0.1532 0.8290970477727879 9.817685109770279 11.432836010414658 0 0 0
167 12 6 -0.1532 7.15333280199446 11.43283624080686 16.141920633599955 0 0 0
169 7 6 -0.1532 0.8290970477727382 11.432836240806843 9.81768487937806 0 0 0
178 18 6 -0.1532 7.153332801994488 16.141920863992006 11.432836010414698 0 0 0
182 18 6 -0.1532 5.538181670957912 16.141920863992013 9.817684879378119 0 0 0
200 12 6 -0.1532 5.538181670957897 9.81768510977027 16.14192063359994 0 0 0
16 5 2 0.142 12.799667324862368 10.88562438283176 14.783093413275928 0 0 0
19 8 2 0.142 14.783093300530943 12.799667667999554 10.885624152439526 0 0 0
24 13 2 0.142 10.885624039694484 14.783093643668131 12.799667437607466 0 0 0
28 13 2 0.142 10.885624039694445 12.799667667999554 14.783093413276106 0 0 0
31 8 2 0.142 12.79966732486233 14.783093643668161 10.885624152439531 0 0 0
36 5 2 0.142 14.783093300531004 10.885624382831748 12.799667437607349 0 0 0
37 20 3 0.1145 9.822719921259734 9.82272026439707 16.36090901836296 0 0 0
41 21 3 0.1145 16.360908905617947 9.822720264397002 9.822720034004842 0 0 0
42 22 3 0.1145 9.822719921259777 16.360909248755124 9.822720034004837 0 0 0
88 5 4 -0.1504 13.674392417506558 10.235941626813029 14.659900920328242 0 0 0
91 8 4 -0.1504 14.65990080758325 13.674392760643757 10.235941396420808 0 0 0
96 13 4 -0.1504 10.235941283675748 14.659901150720456 13.674392530251659 0 0 0
100 13 4 -0.1504 10.235941283675732 13.674392760643757 14.65990092032839 0 0 0
103 8 4 -0.1504 13.67439241750653 14.659901150720469 10.235941396420808 0 0 0
108 5 4 -0.1504 14.65990080758329 10.23594162681302 13.674392530251538 0 0 0
112 5 5 -0.0519 15.103267458186062 8.677128784989565 15.103267570931063 0 0 0
115 8 5 -0.0519 15.10326745818605 15.103267801323282 8.67712855459736 0 0 0
120 13 5 -0.0519 8.677128441852295 15.103267801323303 15.103267570931163 0 0 0
160 5 6 -0.1532 14.023690670957903 9.314606390909956 15.63884191473947 0 0 0
163 8 6 -0.1532 15.638841801994477 14.023691014095128 9.314606160517743 0 0 0
168 13 6 -0.1532 9.314606047772694 15.638842145131697 14.023690783703001 0 0 0
172 13 6 -0.1532 9.314606047772662 14.023691014095148 15.638841914739604 0 0 0
175 8 6 -0.1532 14.023690670957894 15.638842145131699 9.314606160517744 0 0 0
208 1 1 0.5212 16.97101778431379 8.485509127450998 12.728263397058802 0 0 0
823 1 1 0.5212 4.242754284313755 8.485509127450978 16.971017897058854 0 0 0
819 1 1 0.5212 8.485508784313728 12.728263627451012 16.97101789705889 0 0 0
1032 1 1 0.5212 16.971017784313684 8.48550912745093 21.21377239705878 0 0 0
837 121 2 0.142 2.1879242680966104 12.799667667999557 23.056411641678135 0 0 0
842 124 2 0.142 6.085393528933 12.799667667999588 19.158942380841722 0 0 0
865 133 2 0.142 4.171350243765117 10.88562438283167 19.158942380841708 0 0 0
874 124 2 0.142 6.085393528932978 14.78309364366822 21.1423683565103 0 0 0
882 133 2 0.142 2.1879242680964617 10.885624382831645 21.14236835651026 0 0 0
887 121 2 0.142 4.171350243765214 14.78309364366818 23.056411641678228 0 0 0
892 12 3 0.1145 7.1482976473677144 9.822720264397029 17.58112677575472 0 0 0
896 139 3 0.1145 7.148297647367735 16.360909248755142 24.11931576011282 0 0 0
899 141 3 0.1145 0.6101086630095299 9.822720264396944 24.119315760112745 0 0 0
909 121 4 -0.1504 2.311116761044281 13.674392760643746 23.706094397696873 0 0 0
914 124 4 -0.1504 6.735076284951711 13.674392760643796 19.282134873789392 0 0 0
933 121 5 -0.0519 1.8677501104414242 15.103267801323243 25.264907239520326 0 0 0
934 124 5 -0.0519 8.293889126775142 15.103267801323335 18.83876822318657 0 0 0
937 133 4 -0.1504 3.296625151120919 10.235941626812943 19.28213487378937 0 0 0
946 124 4 -0.1504 6.7350762849517025 14.659901150720524 20.267643263866102 0 0 0
954 133 4 -0.1504 2.311116761044182 10.235941626812924 20.267643263866066 0 0 0
959 121 4 -0.1504 3.2966251511209914 14.659901150720469 23.706094397696916 0 0 0
961 133 5 -0.0519 1.8677501104414125 8.677128784989495 18.838768223186513 0 0 0
981 121 6 -0.1532 1.332175766633025 14.023691014095094 24.627429633599906 0 0 0
986 124 6 -0.1532 7.656411520854771 14.023691014095164 18.30319387937816 0 0 0
997 133 6 -0.1532 2.9473268976695772 9.314606390909892 18.30319387937812 0 0 0
1006 124 6 -0.1532 7.6564115208547525 15.63884214513176 19.91834501041472 0 0 0
1014 133 6 -0.1532 1.3321757666329668 9.314606390909862 19.91834501041467 0 0 0
1019 121 6 -0.1532 2.947326897669597 15.638842145131678 24.627429633599988 0 0 0
1017 116 6 -0.1532 9.817684766632969 16.141920863992105 22.50919978370298 0 0 0
831 116 2 0.142 12.656859243765117 14.570902872070286 23.268602413275925 0 0 0
833 20 2 0.142 10.673433268096607 12.656859586902378 19.371133152439562 0 0 0
843 125 2 0.142 14.570902528933024 12.6568595869024 23.26860241327594 0 0 0
845 20 2 0.142 12.656859243765203 10.673433611233756 19.371133152439462 0 0 0
854 119 3 0.1145 15.63380664736772 15.633806990504944 24.84641801836294 0 0 0
859 124 3 0.1145 9.09561766300952 15.633806990505008 18.308229034004896 0 0 0
872 125 2 0.142 14.570902528932988 10.673433611233774 21.28517643760735 0 0 0
885 116 2 0.142 10.67343326809646 14.57090287207033 21.28517643760737 0 0 0
898 115 3 0.1145 15.633806647367718 9.095618006146802 18.3082290340048 0 0 0
903 116 4 -0.1504 11.782134151120921 15.220585628089019 23.145409920328262 0 0 0
905 20 4 -0.1504 10.796625761044286 11.782134494258196 18.721450396420813 0 0 0
915 125 4 -0.1504 15.220585284951733 11.782134494258191 23.145409920328255 0 0 0
917 20 4 -0.1504 11.78213415112099 10.796626104181472 18.721450396420764 0 0 0
927 116 5 -0.0519 10.353259110441417 16.77939846991247 23.588776570931127 0 0 0
929 20 5 -0.0519 10.353259110441428 10.353259453578719 17.16263755459734 0 0 0
944 125 4 -0.1504 15.220585284951719 10.79662610418147 22.159901530251545 0 0 0
957 116 4 -0.1504 10.79662576104418 15.22058562808904 22.159901530251574 0 0 0
968 125 5 -0.0519 16.77939812677516 10.353259453578643 23.588776570931067 0 0 0
975 116 6 -0.1532 11.432835897669579 16.141920863992066 24.12435091473952 0 0 0
977 20 6 -0.1532 9.81768476663303 11.432836240806859 17.80011516051777 0 0 0
987 125 6 -0.1532 16.141920520854793 11.432836240806814 24.124350914739487 0 0 0
989 20 6 -0.1532 11.432835897669593 9.81768510977027 17.800115160517684 0 0 0
1004 125 6 -0.1532 16.141920520854764 9.81768510977023 22.50919978370292 0 0 0
1025 1 1 0.5212 16.971017784313737 12.728263627450957 25.45652689705876 0 0 0
996 117 6 -0.1532 15.638841801994495 9.314606390909955 30.9947087837029 0 0 0
991 119 6 -0.1532 14.023690670957885 15.638842145131681 26.285624160517692 0 0 0
834 118 2 0.142 2.4001150396945725 10.673433611233882 29.6278773565102 0 0 0
839 33 2 0.142 6.297584300530959 12.656859586902437 31.541920641678228 0 0 0
841 118 2 0.142 2.4001150396944935 12.656859586902454 27.644451380841556 0 0 0
850 128 2 0.142 6.2975843005309935 14.57090287207018 29.62787735651032 0 0 0
855 121 3 0.1145 1.3372109212597327 15.633806990504894 26.066635775754712 0 0 0
861 123 3 0.1145 7.875399905617963 15.63380699050497 32.604824760112834 0 0 0
866 128 2 0.142 4.314158324862351 14.570902872070183 27.64445138084176 0 0 0
884 33 2 0.142 4.314158324862348 10.673433611233827 31.541920641678228 0 0 0
900 127 3 0.1145 1.337210921259833 9.095618006146818 32.604824760112876 0 0 0
906 118 4 -0.1504 1.7504322836758364 10.796626104181541 28.75315226386601 0 0 0
911 33 4 -0.1504 6.17439180758327 11.782134494258234 32.191603397696944 0 0 0
913 118 4 -0.1504 1.7504322836757944 11.782134494258242 27.76764387378927 0 0 0
922 128 4 -0.1504 6.174391807583283 15.220585628088903 28.75315226386613 0 0 0
926 128 5 -0.0519 6.617758458186071 16.77939846991235 27.3242772231866 0 0 0
930 118 5 -0.0519 0.1916194418523876 10.353259453578662 27.32427722318651 0 0 0
938 128 4 -0.1504 5.1888834175065535 15.220585628088903 27.767643873789428 0 0 0
956 33 4 -0.1504 5.188883417506554 10.796626104181515 32.191603397696944 0 0 0
971 33 5 -0.0519 6.617758458186086 10.353259453578698 33.750416239520376 0 0 0
978 118 6 -0.1532 0.8290970477727977 9.817685109770283 28.40385401041467 0 0 0
983 33 6 -0.1532 7.153332801994505 11.432836240806857 33.112938633599995 0 0 0
985 118 6 -0.1532 0.8290970477727279 11.432836240806832 26.788702879378064 0 0 0
994 128 6 -0.1532 7.153332801994506 16.141920863991967 28.403854010414747 0 0 0
998 128 6 -0.1532 5.538181670957907 16.14192086399197 26.788702879378192 0 0 0
1016 33 6 -0.1532 5.538181670957929 9.817685109770277 33.112938633599995 0 0 0
2 1 1 0.5212 12.728263284313764 8.485509127451 33.94203589705872 0 0 -1
832 117 2 0.142 12.799667324862352 10.885624382831747 31.754111413275908 0 0 0
835 119 2 0.142 14.783093300530906 12.799667667999515 27.85664215243945 0 0 0
840 123 2 0.142 10.885624039694548 14.783093643668114 29.770685437607497 0 0 0
844 123 2 0.142 10.885624039694532 12.799667667999563 31.75411141327617 0 0 0
847 119 2 0.142 12.799667324862304 14.783093643668133 27.85664215243946 0 0 0
852 117 2 0.142 14.783093300530986 10.885624382831748 29.770685437607327 0 0 0
853 6 3 0.1145 9.822719921259775 9.822720264397084 33.331927018362954 0 0 0
857 129 3 0.1145 16.360908905617944 9.822720264396967 26.793738034004836 0 0 0
858 130 3 0.1145 9.822719921259786 16.36090924875511 26.79373803400483 0 0 0
904 117 4 -0.1504 13.67439241750655 10.235941626813025 31.63091892032823 0 0 0
907 119 4 -0.1504 14.659900807583218 13.674392760643725 27.20695939642074 0 0 0
912 123 4 -0.1504 10.235941283675817 14.659901150720438 30.64541053025169 0 0 0
916 123 4 -0.1504 10.235941283675805 13.67439276064375 31.630918920328433 0 0 0
919 119 4 -0.1504 13.674392417506507 14.659901150720444 27.206959396420743 0 0 0
924 117 4 -0.1504 14.659900807583277 10.235941626813021 30.645410530251525 0 0 0
928 117 5 -0.0519 15.103267458186064 8.677128784989568 32.074285570931046 0 0 0
931 119 5 -0.0519 15.10326745818604 15.103267801323263 25.64814655459731 0 0 0
936 123 5 -0.0519 8.677128441852355 15.103267801323286 32.07428557093119 0 0 0
976 117 6 -0.1532 14.023690670957906 9.314606390909956 32.60985991473946 0 0 0
979 119 6 -0.1532 15.638841801994456 14.0236910140951 26.285624160517685 0 0 0
984 123 6 -0.1532 9.31460604777275 15.638842145131676 30.99470878370302 0 0 0
988 123 6 -0.1532 9.314606047772724 14.02369101409514 32.60985991473964 0 0 0
1024 1 1 0.5212 16.97101778431379 8.485509127451007 29.699281397058805 0 0 0
7 1 1 0.5212 4.24275428431378 8.485509127450996 33.942035897058894 0 0 -1
3 1 1 0.5212 8.485508784313776 12.72826362745101 33.9420358970589 0 0 -1
418 1 1 0.5212 8.485508784313732 16.971018127451067 4.242754397058831 0 0 0
460 35 2 0.142 4.314158324862301 19.37113338283172 6.297584413276102 0 0 0
463 86 2 0.142 6.29758430053108 21.285176667999508 2.40011515243947 0 0 0
468 87 2 0.142 2.400115039694375 23.268602643668107 4.314158437607358 0 0 0
472 87 2 0.142 2.4001150396944406 21.285176667999522 6.2975844132759855 0 0 0
475 86 2 0.142 4.314158324862415 23.268602643668054 2.40011515243955 0 0 0
480 35 2 0.142 6.297584300530896 19.371133382831808 4.314158437607476 0 0 0
481 84 3 0.1145 1.337210921259801 18.308229264396974 7.875400018363055 0 0 0
485 85 3 0.1145 7.875399905617935 18.30822926439707 1.3372110340048293 0 0 0
486 83 3 0.1145 1.337210921259769 24.84641824875508 1.3372110340048298 0 0 0
532 35 4 -0.1504 5.18888341750651 18.721450626813017 6.1743919203283815 0 0 0
535 86 4 -0.1504 6.174391807583349 22.159901760643717 1.7504323964207664 0 0 0
540 87 4 -0.1504 1.7504322836756703 23.145410150720423 5.188883530251572 0 0 0
544 87 4 -0.1504 1.750432283675703 22.159901760643713 6.1743919203282935 0 0 0
547 86 4 -0.1504 5.188883417506607 23.145410150720405 1.7504323964208068 0 0 0
552 35 4 -0.1504 6.174391807583214 18.721450626813056 5.188883530251654 0 0 0
556 35 5 -0.0519 6.617758458186054 17.162637784989574 6.61775857093113 0 0 0
559 86 5 -0.0519 6.617758458186091 23.588776801323288 0.19161955459734145 0 0 0
564 87 5 -0.0519 0.19161944185223895 23.588776801323217 6.617758570931118 0 0 0
592 35 6 -0.1532 5.538181670957898 17.80011539090993 7.153332914739582 0 0 0
595 86 6 -0.1532 7.153332801994549 22.509200014095125 0.8290971605176886 0 0 0
600 87 6 -0.1532 0.8290970477725959 24.12435114513164 5.538181783702946 0 0 0
604 87 6 -0.1532 0.8290970477726566 22.509200014095075 7.153332914739538 0 0 0
607 86 6 -0.1532 5.538181670957936 24.124351145131666 0.8290971605177644 0 0 0
612 35 6 -0.1532 7.153332801994455 17.80011539090999 5.538181783702982 0 0 0
621 1 1 0.5212 16.971017784313734 21.21377262745097 8.485508897058864 0 0 0
422 66 2 0.142 12.79966732486226 23.05641187207029 2.1879243808415216 0 0 0
440 78 2 0.142 12.799667324862323 19.158942611233837 6.085393641678121 0 0 0
456 4 3 0.1145 9.822719921259774 17.581127006146865 7.148297760112814 0 0 0
462 85 2 0.142 10.885624039694479 19.158942611233876 4.171350356510229 0 0 0
467 78 2 0.142 14.78309330053095 21.14236858690242 6.085393641678155 0 0 0
469 85 2 0.142 10.885624039694527 21.142368586902432 2.187924380841572 0 0 0
478 66 2 0.142 14.783093300530819 23.056411872070257 4.171350356510183 0 0 0
483 89 3 0.1145 9.822719921259814 24.11931599050496 0.6101087757545257 0 0 0
489 92 3 0.1145 16.36090890561784 24.119315990504923 7.148297760112818 0 0 0
494 66 4 -0.1504 13.67439241750646 23.706094628089 2.3111168737892425 0 0 0
512 78 4 -0.1504 13.674392417506521 19.28213510418151 6.735076397696848 0 0 0
527 78 5 -0.0519 15.103267458186037 18.83876845357866 8.29388923952029 0 0 0
534 85 4 -0.1504 10.235941283675764 19.282135104181553 3.2966252638660225 0 0 0
539 78 4 -0.1504 14.659900807583249 20.267643494258216 6.735076397696866 0 0 0
541 85 4 -0.1504 10.235941283675787 20.267643494258245 2.3111168737892855 0 0 0
550 66 4 -0.1504 14.659900807583155 23.706094628088984 3.2966252638659834 0 0 0
554 66 5 -0.0519 15.10326745818601 25.264907469912433 1.867750223186479 0 0 0
558 85 5 -0.0519 8.677128441852323 18.838768453578737 1.8677502231864984 0 0 0
566 66 6 -0.1532 14.023690670957865 24.627429863992063 1.3321758793780252 0 0 0
584 78 6 -0.1532 14.02369067095788 18.303194109770256 7.656411633599893 0 0 0
594 85 6 -0.1532 9.31460604777269 18.303194109770324 2.947327010414669 0 0 0
599 78 6 -0.1532 15.638841801994468 19.918345240806826 7.656411633599928 0 0 0
601 85 6 -0.1532 9.314606047772727 19.91834524080687 1.332175879378058 0 0 0
610 66 6 -0.1532 15.638841801994399 24.627429863992035 2.947327010414646 0 0 0
416 1 1 0.5212 4.242754284313764 16.971018127450964 8.485508897058853 0 0 0
409 1 1 0.5212 12.728263284313735 16.971018127450975 8.48550889705882 0 0 0
602 73 6 -0.1532 16.141920520854807 22.509200014095118 9.817684879378133 0 0 0
428 71 2 0.142 6.085393528933028 19.15894261123373 12.799667437607413 0 0 0
441 79 2 0.142 2.1879242680966637 23.056411872070335 12.799667437607381 0 0 0
454 18 3 0.1145 7.1482976473677375 17.58112700614678 9.822720034004877 0 0 0
459 79 2 0.142 4.171350243765255 23.056411872070314 14.78309341327601 0 0 0
461 84 2 0.142 2.18792426809659 21.142368586902382 10.885624152439595 0 0 0
471 71 2 0.142 6.0853935289330305 21.14236858690238 14.783093413275992 0 0 0
473 84 2 0.142 4.171350243765199 19.158942611233776 10.885624152439599 0 0 0
482 88 3 0.1145 7.148297647367732 24.119315990504994 16.360909018363024 0 0 0
487 91 3 0.1145 0.6101086630096682 24.119315990504933 9.822720034004815 0 0 0
500 71 4 -0.1504 6.735076284951756 19.282135104181453 13.6743925302516 0 0 0
513 79 4 -0.1504 2.3111167610443464 23.70609462808904 13.674392530251595 0 0 0
524 71 5 -0.0519 8.293889126775214 18.83876845357867 15.103267570931123 0 0 0
531 79 4 -0.1504 3.2966251511210527 23.70609462808903 14.65990092032832 0 0 0
533 84 4 -0.1504 2.3111167610442855 20.26764349425818 10.235941396420875 0 0 0
543 71 4 -0.1504 6.73507628495176 20.26764349425818 14.659900920328305 0 0 0
545 84 4 -0.1504 3.296625151121 19.282135104181464 10.235941396420877 0 0 0
555 79 5 -0.0519 1.8677501104415184 25.264907469912465 15.10326757093114 0 0 0
557 84 5 -0.0519 1.8677501104414733 18.838768453578655 8.67712855459743 0 0 0
572 71 6 -0.1532 7.656411520854828 18.303194109770235 14.023690783702977 0 0 0
585 79 6 -0.1532 1.3321757666331138 24.627429863992095 14.023690783702964 0 0 0
591 79 6 -0.1532 2.9473268976696647 24.62742986399207 15.638841914739563 0 0 0
593 84 6 -0.1532 1.332175766633058 19.91834524080682 9.314606160517812 0 0 0
603 71 6 -0.1532 7.656411520854829 19.918345240806833 15.638841914739533 0 0 0
605 84 6 -0.1532 2.947326897669631 18.30319410977024 9.314606160517815 0 0 0
597 80 6 -0.1532 9.817684766633025 22.509200014095132 16.141920633599845 0 0 0
414 1 1 0.5212 8.48550878431376 16.971018127450954 12.728263397058837 0 0 0
421 22 2 0.142 12.656859243765163 19.371133382831673 10.673433380841654 0 0 0
430 73 2 0.142 14.570902528933052 23.268602643668203 12.656859356510278 0 0 0
438 22 2 0.142 10.673433268096549 19.371133382831655 12.656859356510257 0 0 0
443 80 2 0.142 12.656859243765147 23.268602643668185 14.570902641678023 0 0 0
448 78 3 0.1145 15.633806647367706 18.30822926439697 9.095617775754663 0 0 0
452 67 3 0.1145 15.633806647367715 24.84641824875517 15.63380676011278 0 0 0
455 71 3 0.1145 9.095617663009598 18.308229264397006 15.633806760112797 0 0 0
465 80 2 0.142 10.673433268096552 21.28517666799957 14.570902641678057 0 0 0
470 73 2 0.142 14.570902528933013 21.28517666799958 10.67343338084169 0 0 0
493 22 4 -0.1504 11.782134151120966 18.72145062681295 10.796625873789342 0 0 0
502 73 4 -0.1504 15.220585284951765 23.145410150720494 11.782134263866077 0 0 0
510 22 4 -0.1504 10.796625761044245 18.72145062681294 11.782134263866055 0 0 0
515 80 4 -0.1504 11.782134151120953 23.14541015072049 15.220585397696755 0 0 0
517 22 5 -0.0519 10.353259110441446 17.162637784989503 10.353259223186518 0 0 0
537 80 4 -0.1504 10.796625761044243 22.15990176064377 15.220585397696773 0 0 0
542 73 4 -0.1504 15.220585284951751 22.159901760643766 10.796625873789372 0 0 0
561 80 5 -0.0519 10.353259110441446 23.588776801323302 16.779398239520216 0 0 0
562 73 5 -0.0519 16.779398126775206 23.58877680132327 10.353259223186535 0 0 0
565 22 6 -0.1532 11.432835897669598 17.80011539090989 9.817684879378104 0 0 0
574 73 6 -0.1532 16.141920520854836 24.124351145131712 11.432836010414691 0 0 0
582 22 6 -0.1532 9.817684766633022 17.800115390909877 11.432836010414677 0 0 0
587 80 6 -0.1532 11.432835897669593 24.124351145131723 16.141920633599817 0 0 0
1235 1 1 0.5212 8.485508784313767 21.21377262745099 16.9710178970588 0 0 0
1234 1 1 0.5212 8.485508784313682 16.97101812745105 21.213772397058854 0 0 0
1276 139 2 0.142 4.314158324862289 19.371133382831694 23.268602413276238 0 0 0
1279 88 2 0.142 6.297584300530992 21.2851766679995 19.371133152439487 0 0 0
1284 178 2 0.142 2.4001150396943727 23.268602643668075 21.28517643760737 0 0 0
1288 178 2 0.142 2.4001150396944295 21.285176667999487 23.268602413275985 0 0 0
1291 88 2 0.142 4.314158324862333 23.268602643668064 19.37113315243953 0 0 0
1296 139 2 0.142 6.297584300530838 19.371133382831786 21.285176437607557 0 0 0
1297 176 3 0.1145 1.3372109212598116 18.308229264396942 24.8464180183631 0 0 0
1301 177 3 0.1145 7.875399905617887 18.308229264397063 18.30822903400484 0 0 0
1302 175 3 0.1145 1.3372109212597645 24.846418248755096 18.308229034004828 0 0 0
1348 139 4 -0.1504 5.18888341750649 18.721450626812985 23.145409920328483 0 0 0
1351 88 4 -0.1504 6.174391807583283 22.15990176064372 18.7214503964208 0 0 0
1356 178 4 -0.1504 1.7504322836756674 23.145410150720387 22.15990153025158 0 0 0
1360 178 4 -0.1504 1.750432283675699 22.159901760643677 23.145409920328305 0 0 0
1363 88 4 -0.1504 5.188883417506547 23.145410150720416 18.72145039642082 0 0 0
1368 139 4 -0.1504 6.1743918075831745 18.721450626813024 22.15990153025173 0 0 0
1372 139 5 -0.0519 6.617758458186041 17.162637784989535 23.58877657093119 0 0 0
1375 88 5 -0.0519 6.617758458186068 23.588776801323295 17.162637554597396 0 0 0
1380 178 5 -0.0519 0.19161944185224228 23.58877680132319 23.588776570931127 0 0 0
1408 139 6 -0.1532 5.538181670957894 17.800115390909887 24.124350914739665 0 0 0
1411 88 6 -0.1532 7.1533328019945035 22.509200014095125 17.80011516051774 0 0 0
1416 178 6 -0.1532 0.8290970477726027 24.124351145131612 22.50919978370296 0 0 0
1420 178 6 -0.1532 0.8290970477726557 22.509200014095047 24.12435091473955 0 0 0
1423 88 6 -0.1532 5.538181670957906 24.124351145131683 17.800115160517795 0 0 0
1428 139 6 -0.1532 7.153332801994423 17.800115390909962 22.50919978370304 0 0 0
1437 1 1 0.5212 16.971017784313762 21.21377262745095 25.456526897058875 0 0 0
1238 162 2 0.142 12.799667324862257 23.056411872070274 19.15894238084149 0 0 0
1256 172 2 0.142 12.799667324862337 19.15894261123387 23.05641164167813 0 0 0
1272 116 3 0.1145 9.822719921259763 17.581127006146843 24.11931576011283 0 0 0
1278 177 2 0.142 10.885624039694411 19.158942611233826 21.142368356510275 0 0 0
1283 172 2 0.142 14.783093300530991 21.14236858690243 23.056411641678185 0 0 0
1285 177 2 0.142 10.885624039694475 21.142368586902414 19.158942380841648 0 0 0
1294 162 2 0.142 14.783093300530824 23.056411872070196 21.142368356510154 0 0 0
1299 80 3 0.1145 9.822719921259782 24.119315990504976 17.5811267757546 0 0 0
1305 180 3 0.1145 16.360908905617887 24.1193159905049 24.11931576011282 0 0 0
1310 162 4 -0.1504 13.674392417506462 23.706094628088977 19.282134873789232 0 0 0
1328 172 4 -0.1504 13.67439241750654 19.282135104181517 23.706094397696855 0 0 0
1343 172 5 -0.0519 15.10326745818605 18.83876845357864 25.26490723952029 0 0 0
1350 177 4 -0.1504 10.235941283675704 19.282135104181517 20.267643263866066 0 0 0
1355 172 4 -0.1504 14.659900807583277 20.267643494258213 23.70609439769688 0 0 0
1357 177 4 -0.1504 10.235941283675736 20.267643494258227 19.28213487378934 0 0 0
1366 162 4 -0.1504 14.659900807583163 23.706094628088938 20.267643263865967 0 0 0
1370 162 5 -0.0519 15.103267458186025 25.26490746991241 18.838768223186488 0 0 0
1374 177 5 -0.0519 8.67712844185227 18.838768453578727 18.83876822318652 0 0 0
1382 162 6 -0.1532 14.023690670957867 24.627429863992056 18.303193879378032 0 0 0
1400 172 6 -0.1532 14.02369067095789 18.303194109770256 24.62742963359989 0 0 0
1410 177 6 -0.1532 9.314606047772628 18.303194109770303 19.918345010414694 0 0 0
1415 172 6 -0.1532 15.638841801994493 19.918345240806808 24.627429633599945 0 0 0
1417 177 6 -0.1532 9.314606047772681 19.918345240806865 18.303193879378103 0 0 0
1426 162 6 -0.1532 15.63884180199441 24.627429863991992 19.91834501041464 0 0 0
1232 1 1 0.5212 4.242754284313757 16.971018127450936 25.45652689705894 0 0 0
1225 1 1 0.5212 12.728263284313739 16.97101812745097 25.456526897058797 0 0 0
1418 168 6 -0.1532 16.14192052085484 22.509200014095104 26.78870287937815 0 0 0
1244 166 2 0.142 6.085393528933062 19.15894261123369 29.77068543760739 0 0 0
1257 173 2 0.142 2.187924268096634 23.056411872070317 29.77068543760738 0 0 0
1270 128 3 0.1145 7.148297647367735 17.58112700614673 26.793738034004914 0 0 0
1275 173 2 0.142 4.171350243765243 23.056411872070278 31.754111413275982 0 0 0
1277 176 2 0.142 2.187924268096548 21.14236858690238 27.85664215243963 0 0 0
1287 166 2 0.142 6.085393528933065 21.142368586902364 31.754111413275936 0 0 0
1289 176 2 0.142 4.17135024376516 19.158942611233776 27.85664215243969 0 0 0
1298 86 3 0.1145 7.148297647367729 24.119315990504983 33.331927018362954 0 0 0
1303 179 3 0.1145 0.6101086630096515 24.119315990504894 26.793738034004818 0 0 0
1316 166 4 -0.1504 6.735076284951793 19.28213510418142 30.64541053025158 0 0 0
1329 173 4 -0.1504 2.311116761044323 23.706094628089012 30.6454105302516 0 0 0
1340 166 5 -0.0519 8.293889126775252 18.838768453578666 32.07428557093111 0 0 0
1347 173 4 -0.1504 3.296625151121039 23.706094628088998 31.630918920328313 0 0 0
1349 176 4 -0.1504 2.311116761044258 20.26764349425817 27.206959396420917 0 0 0
1359 166 4 -0.1504 6.735076284951793 20.267643494258166 31.630918920328263 0 0 0
1361 176 4 -0.1504 3.2966251511209763 19.282135104181457 27.206959396420945 0 0 0
1371 173 5 -0.0519 1.8677501104415086 25.26490746991243 32.07428557093116 0 0 0
1373 176 5 -0.0519 1.8677501104414733 18.838768453578627 25.648146554597485 0 0 0
1388 166 6 -0.1532 7.656411520854864 18.30319410977021 30.994708783702972 0 0 0
1401 173 6 -0.1532 1.3321757666330944 24.627429863992074 30.994708783702983 0 0 0
1407 173 6 -0.1532 2.947326897669663 24.627429863992027 32.609859914739566 0 0 0
1409 176 6 -0.1532 1.3321757666330452 19.918345240806786 26.285624160517845 0 0 0
1419 166 6 -0.1532 7.656411520854865 19.918345240806833 32.6098599147395 0 0 0
1421 176 6 -0.1532 2.9473268976696256 18.30319410977022 26.285624160517884 0 0 0
1413 89 6 -0.1532 9.817684766633068 22.50920001409513 33.11293863359976 0 0 0
1230 1 1 0.5212 8.485508784313796 16.971018127450918 29.699281397058854 0 0 0
1237 130 2 0.142 12.656859243765188 19.37113338283164 27.644451380841673 0 0 0
1246 168 2 0.142 14.570902528933095 23.268602643668203 29.627877356510297 0 0 0
1254 130 2 0.142 10.673433268096568 19.371133382831612 29.627877356510265 0 0 0
1259 89 2 0.142 12.656859243765188 23.2686026436682 31.541920641677947 0 0 0
1264 172 3 0.1145 15.633806647367715 18.30822926439694 26.06663577575466 0 0 0
1268 163 3 0.1145 15.633806647367726 24.846418248755175 32.604824760112734 0 0 0
1271 166 3 0.1145 9.095617663009644 18.308229264397013 32.604824760112784 0 0 0
1281 89 2 0.142 10.673433268096597 21.285176667999583 31.541920641677958 0 0 0
1286 168 2 0.142 14.570902528933065 21.285176667999554 27.644451380841737 0 0 0
1309 130 4 -0.1504 11.782134151120983 18.72145062681292 27.767643873789346 0 0 0
1318 168 4 -0.1504 15.220585284951806 23.145410150720494 28.75315226386609 0 0 0
1326 130 4 -0.1504 10.796625761044265 18.721450626812903 28.75315226386606 0 0 0
1331 89 4 -0.1504 11.782134151121 23.1454101507205 32.19160339769668 0 0 0
1333 130 5 -0.0519 10.353259110441462 17.16263778498948 27.324277223186513 0 0 0
1353 89 4 -0.1504 10.796625761044291 22.159901760643777 32.19160339769669 0 0 0
1358 168 4 -0.1504 15.220585284951788 22.159901760643756 27.767643873789396 0 0 0
1377 89 5 -0.0519 10.353259110441485 23.58877680132329 33.75041623952014 0 0 0
1378 168 5 -0.0519 16.779398126775238 23.588776801323263 27.32427722318654 0 0 0
1381 130 6 -0.1532 11.432835897669616 17.80011539090988 26.7887028793781 0 0 0
1390 168 6 -0.1532 16.141920520854868 24.124351145131712 28.403854010414694 0 0 0
1398 130 6 -0.1532 9.81768476663304 17.800115390909845 28.40385401041468 0 0 0
1403 89 6 -0.1532 11.432835897669634 24.12435114513172 33.112938633599754 0 0 0
419 1 1 0.5212 8.485508784313819 21.213772627450997 33.942035897058744 0 0 -1
624 1 1 0.5212 16.97101778431366 25.45652712745095 4.242754397058815 0 0 0
429 72 2 0.142 2.187924268096623 29.770685667999583 6.0853936416779995 0 0 0
434 76 2 0.142 6.085393528933063 29.770685667999633 2.1879243808417037 0 0 0
457 83 2 0.142 4.171350243765175 27.856642382831588 2.187924380841722 0 0 0
466 76 2 0.142 6.0853935289330305 31.754111643668264 4.171350356510287 0 0 0
474 83 2 0.142 2.187924268096523 27.856642382831566 4.1713503565102945 0 0 0
479 72 2 0.142 4.171350243765203 31.754111643668224 6.085393641678054 0 0 0
484 90 3 0.1145 7.148297647367758 26.793738264397014 0.6101087757547418 0 0 0
488 26 3 0.1145 7.148297647367759 33.33192724875529 7.148297760112778 0 0 0
491 93 3 0.1145 0.6101086630095504 26.79373826439693 7.148297760112727 0 0 0
501 72 4 -0.1504 2.3111167610443055 30.645410760643767 6.735076397696749 0 0 0
506 76 4 -0.1504 6.735076284951771 30.645410760643845 2.3111168737893877 0 0 0
525 72 5 -0.0519 1.8677501104414809 32.07428580132324 8.293889239520237 0 0 0
526 76 5 -0.0519 8.293889126775193 32.07428580132339 1.8677502231865575 0 0 0
529 83 4 -0.1504 3.2966251511209643 27.206959626812875 2.311116873789386 0 0 0
538 76 4 -0.1504 6.735076284951755 31.630919150720572 3.296625263866089 0 0 0
546 83 4 -0.1504 2.3111167610442296 27.206959626812864 3.2966252638660833 0 0 0
551 72 4 -0.1504 3.296625151121009 31.630919150720498 6.735076397696776 0 0 0
553 83 5 -0.0519 1.867750110441438 25.648146784989446 1.8677502231865244 0 0 0
573 72 6 -0.1532 1.332175766633073 30.994709014095097 7.656411633599821 0 0 0
578 76 6 -0.1532 7.656411520854829 30.994709014095214 1.3321758793781533 0 0 0
589 83 6 -0.1532 2.9473268976696074 26.285624390909835 1.3321758793781344 0 0 0
598 76 6 -0.1532 7.656411520854798 32.60986014513182 2.947327010414704 0 0 0
606 83 6 -0.1532 1.3321757666329979 26.285624390909817 2.9473270104146767 0 0 0
611 72 6 -0.1532 2.947326897669629 32.6098601451317 7.656411633599867 0 0 0
609 24 6 -0.1532 9.817684766632999 33.11293886399222 5.538181783702967 0 0 0
423 24 2 0.142 12.656859243765133 31.541920872070378 6.297584413275917 0 0 0
425 68 2 0.142 10.673433268096641 29.62787758690237 2.4001151524395863 0 0 0
435 77 2 0.142 14.570902528933027 29.62787758690241 6.297584413276035 0 0 0
437 68 2 0.142 12.656859243765208 27.64445161123372 2.400115152439479 0 0 0
446 70 3 0.1145 15.633806647367724 32.6048249905049 7.875400018362945 0 0 0
451 76 3 0.1145 9.09561766300955 32.60482499050509 1.3372110340048704 0 0 0
464 77 2 0.142 14.570902528932965 27.644451611233826 4.3141584376074045 0 0 0
477 24 2 0.142 10.6734332680965 31.541920872070474 4.31415843760733 0 0 0
490 66 3 0.1145 15.633806647367711 26.0666360061468 1.3372110340048202 0 0 0
495 24 4 -0.1504 11.782134151120939 32.19160362808911 6.174391920328259 0 0 0
497 68 4 -0.1504 10.796625761044302 28.753152494258188 1.7504323964208313 0 0 0
507 77 4 -0.1504 15.220585284951728 28.7531524942582 6.174391920328327 0 0 0
509 68 4 -0.1504 11.782134151120998 27.767644104181453 1.750432396420777 0 0 0
519 24 5 -0.0519 10.353259110441437 33.75041646991256 6.617758570931139 0 0 0
521 68 5 -0.0519 10.35325911044143 27.32427745357872 0.19161955459734514 0 0 0
536 77 4 -0.1504 15.220585284951696 27.767644104181493 5.1888835302516005 0 0 0
549 24 4 -0.1504 10.796625761044211 32.19160362808916 5.188883530251554 0 0 0
560 77 5 -0.0519 16.77939812677515 27.324277453578635 6.617758570931106 0 0 0
567 24 6 -0.1532 11.432835897669587 33.112938863992134 7.153332914739528 0 0 0
569 68 6 -0.1532 9.817684766633043 28.40385424080687 0.829097160517782 0 0 0
579 77 6 -0.1532 16.1419205208548 28.403854240806805 7.153332914739539 0 0 0
581 68 6 -0.1532 11.432835897669595 26.78870310977026 0.8290971605176828 0 0 0
596 77 6 -0.1532 16.14192052085474 26.78870310977024 5.538181783702953 0 0 0
617 1 1 0.5212 16.97101778431376 29.699281627450947 8.485508897058798 0 0 0
1226 1 1 0.5212 12.728263284313732 25.45652712745101 16.971017897058754 0 0 0
588 67 6 -0.1532 15.638841801994491 26.285624390909934 14.023690783702948 0 0 0
426 69 2 0.142 2.4001150396945716 27.644451611233894 12.656859356510187 0 0 0
431 74 2 0.142 6.2975843005309455 29.62787758690244 14.570902641678233 0 0 0
433 69 2 0.142 2.4001150396945206 29.62787758690245 10.673433380841528 0 0 0
442 23 2 0.142 6.297584300530931 31.541920872070204 12.656859356510218 0 0 0
447 72 3 0.1145 1.3372109212598047 32.604824990504866 9.095617775754643 0 0 0
453 75 3 0.1145 7.87539990561793 32.60482499050503 15.633806760112835 0 0 0
458 23 2 0.142 4.314158324862347 31.541920872070236 10.673433380841585 0 0 0
476 74 2 0.142 4.314158324862345 27.64445161123383 14.570902641678208 0 0 0
492 79 3 0.1145 1.3372109212598304 26.06663600614683 15.633806760112819 0 0 0
498 69 4 -0.1504 1.7504322836758444 27.76764410418155 11.782134263865988 0 0 0
503 74 4 -0.1504 6.174391807583255 28.753152494258234 15.220585397696947 0 0 0
505 69 4 -0.1504 1.7504322836758184 28.75315249425824 10.796625873789248 0 0 0
514 23 4 -0.1504 6.174391807583248 32.19160362808894 11.78213426386603 0 0 0
518 23 5 -0.0519 6.617758458186083 33.7504164699124 10.35325922318653 0 0 0
522 69 5 -0.0519 0.19161944185240518 27.324277453578674 10.353259223186477 0 0 0
530 23 4 -0.1504 5.188883417506546 32.191603628088956 10.7966258737893 0 0 0
548 74 4 -0.1504 5.188883417506541 27.767644104181514 15.220585397696933 0 0 0
563 74 5 -0.0519 6.617758458186063 27.324277453578702 16.779398239520383 0 0 0
570 69 6 -0.1532 0.8290970477728008 26.788703109770292 11.432836010414645 0 0 0
575 74 6 -0.1532 7.153332801994479 28.40385424080687 16.141920633600012 0 0 0
577 69 6 -0.1532 0.8290970477727609 28.403854240806833 9.817684879378032 0 0 0
586 23 6 -0.1532 7.153332801994487 33.112938863992 11.432836010414684 0 0 0
590 23 6 -0.1532 5.5381816709579255 33.112938863992035 9.817684879378088 0 0 0
608 74 6 -0.1532 5.538181670957914 26.78870310977028 16.141920633599987 0 0 0
424 67 2 0.142 12.799667324862348 27.856642382831737 14.78309341327595 0 0 0
427 70 2 0.142 14.783093300530945 29.77068566799953 10.885624152439517 0 0 0
432 75 2 0.142 10.885624039694468 31.754111643668097 12.79966743760747 0 0 0
436 75 2 0.142 10.885624039694441 29.77068566799956 14.783093413276145 0 0 0
439 70 2 0.142 12.799667324862341 31.754111643668143 10.885624152439517 0 0 0
444 67 2 0.142 14.78309330053098 27.856642382831716 12.79966743760736 0 0 0
445 81 3 0.1145 9.822719921259717 26.793738264397092 16.360909018363003 0 0 0
449 82 3 0.1145 16.360908905617947 26.793738264396968 9.82272003400485 0 0 0
450 2 3 0.1145 9.82271992125982 33.331927248755086 9.822720034004853 0 0 0
496 67 4 -0.1504 13.674392417506544 27.206959626813013 14.659900920328269 0 0 0
499 70 4 -0.1504 14.65990080758325 30.645410760643728 10.235941396420788 0 0 0
504 75 4 -0.1504 10.235941283675741 31.63091915072044 13.674392530251671 0 0 0
508 75 4 -0.1504 10.235941283675725 30.64541076064376 14.659900920328418 0 0 0
511 70 4 -0.1504 13.674392417506537 31.630919150720445 10.23594139642079 0 0 0
516 67 4 -0.1504 14.65990080758327 27.206959626813 13.674392530251565 0 0 0
520 67 5 -0.0519 15.103267458186053 25.648146784989557 15.1032675709311 0 0 0
523 70 5 -0.0519 15.103267458186059 32.07428580132325 8.67712855459734 0 0 0
528 75 5 -0.0519 8.677128441852297 32.07428580132332 15.103267570931177 0 0 0
568 67 6 -0.1532 14.023690670957892 26.285624390909945 15.638841914739503 0 0 0
571 70 6 -0.1532 15.638841801994479 30.994709014095093 9.314606160517725 0 0 0
576 75 6 -0.1532 9.314606047772692 32.6098601451317 14.023690783703005 0 0 0
580 75 6 -0.1532 9.314606047772664 30.99470901409517 15.638841914739633 0 0 0
583 70 6 -0.1532 14.023690670957906 32.60986014513168 9.314606160517727 0 0 0
616 1 1 0.5212 16.97101778431378 25.456527127450993 12.728263397058827 0 0 0
1231 1 1 0.5212 4.2427542843137696 25.45652712745098 16.97101789705888 0 0 0
1227 1 1 0.5212 8.485508784313739 29.69928162745104 16.971017897058925 0 0 0
1440 1 1 0.5212 16.971017784313684 25.456527127450904 21.2137723970588 0 0 0
1245 167 2 0.142 2.187924268096647 29.770685667999576 23.056411641678103 0 0 0
1250 170 2 0.142 6.085393528933038 29.77068566799961 19.15894238084174 0 0 0
1273 175 2 0.142 4.171350243765155 27.856642382831605 19.15894238084177 0 0 0
1282 170 2 0.142 6.08539352893299 31.754111643668235 21.14236835651032 0 0 0
1290 175 2 0.142 2.1879242680964794 27.856642382831573 21.142368356510314 0 0 0
1295 167 2 0.142 4.171350243765233 31.75411164366821 23.05641164167822 0 0 0
1300 74 3 0.1145 7.148297647367733 26.793738264397028 17.58112677575476 0 0 0
1304 134 3 0.1145 7.148297647367759 33.33192724875524 24.11931576011286 0 0 0
1307 181 3 0.1145 0.6101086630095235 26.793738264396907 24.119315760112766 0 0 0
1317 167 4 -0.1504 2.3111167610443117 30.64541076064376 23.706094397696855 0 0 0
1322 170 4 -0.1504 6.735076284951739 30.64541076064383 19.282134873789417 0 0 0
1341 167 5 -0.0519 1.8677501104414436 32.074285801323235 25.264907239520326 0 0 0
1342 170 5 -0.0519 8.293889126775145 32.07428580132339 18.83876822318659 0 0 0
1345 175 4 -0.1504 3.2966251511209412 27.206959626812896 19.282134873789417 0 0 0
1354 170 4 -0.1504 6.7350762849517105 31.630919150720555 20.267643263866123 0 0 0
1362 175 4 -0.1504 2.3111167610441963 27.206959626812875 20.267643263866102 0 0 0
1367 167 4 -0.1504 3.296625151121014 31.63091915072049 23.70609439769691 0 0 0
1369 175 5 -0.0519 1.8677501104414242 25.64814678498946 18.838768223186527 0 0 0
1389 167 6 -0.1532 1.332175766633053 30.99470901409509 24.627429633599895 0 0 0
1394 170 6 -0.1532 7.656411520854793 30.994709014095204 18.303193879378185 0 0 0
1405 175 6 -0.1532 2.9473268976695945 26.285624390909863 18.303193879378153 0 0 0
1414 170 6 -0.1532 7.656411520854745 32.609860145131805 19.918345010414743 0 0 0
1422 175 6 -0.1532 1.3321757666329745 26.28562439090982 19.918345010414686 0 0 0
1427 167 6 -0.1532 2.9473268976696088 32.60986014513169 24.627429633599988 0 0 0
1425 132 6 -0.1532 9.81768476663297 33.11293886399216 22.50919978370299 0 0 0
1239 132 2 0.142 12.656859243765119 31.541920872070325 23.268602413275893 0 0 0
1241 81 2 0.142 10.673433268096629 29.62787758690238 19.371133152439615 0 0 0
1251 171 2 0.142 14.57090252893304 29.627877586902386 23.26860241327597 0 0 0
1253 81 2 0.142 12.656859243765208 27.644451611233734 19.371133152439498 0 0 0
1262 165 3 0.1145 15.63380664736773 32.604824990504895 24.84641801836294 0 0 0
1267 170 3 0.1145 9.09561766300951 32.60482499050509 18.308229034004913 0 0 0
1280 171 2 0.142 14.570902528932997 27.644451611233777 21.285176437607372 0 0 0
1293 132 2 0.142 10.673433268096447 31.541920872070403 21.285176437607355 0 0 0
1306 162 3 0.1145 15.633806647367718 26.066636006146794 18.30822903400484 0 0 0
1311 132 4 -0.1504 11.78213415112092 32.191603628089055 23.145409920328255 0 0 0
1313 81 4 -0.1504 10.796625761044293 28.753152494258202 18.721450396420863 0 0 0
1323 171 4 -0.1504 15.220585284951742 28.75315249425817 23.145409920328287 0 0 0
1325 81 4 -0.1504 11.78213415112099 27.76764410418146 18.721450396420806 0 0 0
1335 132 5 -0.0519 10.353259110441428 33.75041646991251 23.58877657093115 0 0 0
1337 81 5 -0.0519 10.35325911044142 27.32427745357873 17.162637554597385 0 0 0
1352 171 4 -0.1504 15.220585284951722 27.767644104181453 22.15990153025157 0 0 0
1365 132 4 -0.1504 10.796625761044176 32.1916036280891 22.159901530251567 0 0 0
1376 171 5 -0.0519 16.779398126775167 27.324277453578624 23.588776570931092 0 0 0
1383 132 6 -0.1532 11.43283589766959 33.11293886399209 24.12435091473952 0 0 0
1385 81 6 -0.1532 9.817684766633034 28.40385424080688 17.800115160517816 0 0 0
1395 171 6 -0.1532 16.141920520854804 28.40385424080679 24.124350914739512 0 0 0
1397 81 6 -0.1532 11.432835897669586 26.788703109770275 17.80011516051772 0 0 0
1412 171 6 -0.1532 16.141920520854764 26.78870310977021 22.509199783702936 0 0 0
1433 1 1 0.5212 16.97101778431375 29.69928162745094 25.456526897058787 0 0 0
1404 163 6 -0.1532 15.638841801994497 26.285624390909952 30.994708783702922 0 0 0
1399 165 6 -0.1532 14.023690670957901 32.60986014513166 26.285624160517706 0 0 0
1242 164 2 0.142 2.4001150396945437 27.64445161123389 29.627877356510222 0 0 0
1247 90 2 0.142 6.297584300530924 29.627877586902443 31.54192064167824 0 0 0
1249 164 2 0.142 2.4001150396944655 29.627877586902457 27.644451380841573 0 0 0
1258 131 2 0.142 6.29758430053097 31.541920872070225 29.627877356510336 0 0 0
1263 167 3 0.1145 1.3372109212597492 32.60482499050486 26.066635775754726 0 0 0
1269 169 3 0.1145 7.87539990561799 32.60482499050505 32.60482476011284 0 0 0
1274 131 2 0.142 4.314158324862328 31.541920872070243 27.644451380841762 0 0 0
1292 90 2 0.142 4.31415832486233 27.644451611233823 31.541920641678228 0 0 0
1308 173 3 0.1145 1.3372109212598287 26.06663600614678 32.60482476011287 0 0 0
1314 164 4 -0.1504 1.7504322836758202 27.76764410418154 28.753152263866017 0 0 0
1319 90 4 -0.1504 6.174391807583243 28.75315249425823 32.19160339769695 0 0 0
1321 164 4 -0.1504 1.7504322836757782 28.753152494258234 27.76764387378928 0 0 0
1330 131 4 -0.1504 6.174391807583266 32.19160362808895 28.75315226386614 0 0 0
1334 131 5 -0.0519 6.617758458186069 33.75041646991239 27.32427722318661 0 0 0
1338 164 5 -0.0519 0.19161944185238552 27.32427745357864 27.324277223186506 0 0 0
1346 131 4 -0.1504 5.188883417506538 32.191603628088956 27.76764387378944 0 0 0
1364 90 4 -0.1504 5.188883417506535 27.767644104181507 32.191603397696944 0 0 0
1379 90 5 -0.0519 6.617758458186073 27.324277453578695 33.750416239520376 0 0 0
1386 164 6 -0.1532 0.829097047772793 26.788703109770267 28.40385401041467 0 0 0
1391 90 6 -0.1532 7.153332801994481 28.403854240806865 33.1129386336 0 0 0
1393 164 6 -0.1532 0.829097047772723 28.40385424080682 26.78870287937806 0 0 0
1402 131 6 -0.1532 7.153332801994501 33.112938863992 28.403854010414758 0 0 0
1406 131 6 -0.1532 5.538181670957902 33.112938863992014 26.7887028793782 0 0 0
1424 90 6 -0.1532 5.538181670957922 26.788703109770264 33.11293863359999 0 0 0
410 1 1 0.5212 12.728263284313751 25.456527127451004 33.94203589705873 0 0 -1
1240 163 2 0.142 12.799667324862336 27.856642382831726 31.754111413275915 0 0 0
1243 165 2 0.142 14.783093300530917 29.770685667999505 27.856642152439477 0 0 0
1248 169 2 0.142 10.885624039694514 31.754111643668086 29.770685437607465 0 0 0
1252 169 2 0.142 10.885624039694468 29.770685667999548 31.75411141327615 0 0 0
1255 165 2 0.142 12.799667324862313 31.754111643668118 27.85664215243947 0 0 0
1260 163 2 0.142 14.783093300530979 27.856642382831733 29.77068543760734 0 0 0
1261 68 3 0.1145 9.822719921259747 26.7937382643971 33.33192701836294 0 0 0
1265 174 3 0.1145 16.360908905617958 26.79373826439696 26.79373803400485 0 0 0
1266 114 3 0.1145 9.822719921259825 33.33192724875511 26.793738034004843 0 0 0
1312 163 4 -0.1504 13.67439241750654 27.20695962681301 31.63091892032824 0 0 0
1315 165 4 -0.1504 14.65990080758323 30.645410760643706 27.20695939642076 0 0 0
1320 169 4 -0.1504 10.235941283675787 31.630919150720437 30.645410530251667 0 0 0
1324 169 4 -0.1504 10.235941283675762 30.64541076064375 31.630918920328416 0 0 0
1327 165 4 -0.1504 13.67439241750652 31.63091915072043 27.20695939642076 0 0 0
1332 163 4 -0.1504 14.659900807583268 27.206959626813013 30.64541053025154 0 0 0
1336 163 5 -0.0519 15.103267458186064 25.648146784989567 32.07428557093107 0 0 0
1339 165 5 -0.0519 15.103267458186057 32.074285801323235 25.648146554597325 0 0 0
1344 169 5 -0.0519 8.677128441852345 32.07428580132333 32.07428557093118 0 0 0
1384 163 6 -0.1532 14.0236906709579 26.285624390909945 32.609859914739474 0 0 0
1387 165 6 -0.1532 15.638841801994467 30.994709014095072 26.28562416051771 0 0 0
1392 169 6 -0.1532 9.314606047772747 32.6098601451317 30.994708783703008 0 0 0
1396 169 6 -0.1532 9.314606047772697 30.994709014095168 32.60985991473963 0 0 0
1432 1 1 0.5212 16.97101778431379 25.456527127451 29.69928139705882 0 0 0
415 1 1 0.5212 4.242754284313779 25.456527127450947 33.94203589705887 0 0 -1
411 1 1 0.5212 8.485508784313758 29.699281627451036 33.9420358970589 0 0 -1
214 1 1 0.5212 25.456526784313628 1.2745116015734698e-07 4.242754397058808 0 0 0
256 58 2 0.142 21.285176324862178 2.4001153828317703 6.297584413276095 0 0 0
259 61 2 0.142 23.268602300531136 4.314158667999594 2.4001151524394575 0 0 0
264 36 2 0.142 19.37113303969438 6.2975846436681975 4.314158437607375 0 0 0
268 36 2 0.142 19.371133039694424 4.31415866799958 6.29758441327598 0 0 0
271 61 2 0.142 21.285176324862444 6.297584643668135 2.4001151524395707 0 0 0
276 58 2 0.142 23.26860230053073 2.4001153828318724 4.314158437607432 0 0 0
277 59 3 0.1145 18.30822892125977 1.3372112643970042 7.875400018363023 0 0 0
281 60 3 0.1145 24.846417905617855 1.3372112643971497 1.3372110340047618 0 0 0
282 57 3 0.1145 18.308228921259744 7.875400248755145 1.3372110340048682 0 0 0
328 58 4 -0.1504 22.1599014175064 1.7504326268130848 6.174391920328369 0 0 0
331 61 4 -0.1504 23.14540980758337 5.188883760643795 1.750432396420751 0 0 0
336 36 4 -0.1504 18.721450283675676 6.174392150720497 5.1888835302515846 0 0 0
340 36 4 -0.1504 18.721450283675694 5.188883760643776 6.174391920328298 0 0 0
343 61 4 -0.1504 22.159901417506624 6.174392150720478 1.75043239642081 0 0 0
348 58 4 -0.1504 23.145409807583093 1.7504326268131358 5.188883530251626 0 0 0
352 58 5 -0.0519 23.588776458185986 0.1916197849896801 6.617758570931116 0 0 0
355 61 5 -0.0519 23.588776458186075 6.617758801323369 0.191619554597318 0 0 0
360 36 5 -0.0519 17.16263744185224 6.617758801323281 6.6177585709311275 0 0 0
388 58 6 -0.1532 22.509199670957823 0.8290973909100121 7.153332914739571 0 0 0
391 61 6 -0.1532 24.12435080199455 5.5381820140952085 0.8290971605176503 0 0 0
396 36 6 -0.1532 17.800115047772607 7.153333145131714 5.538181783702965 0 0 0
400 36 6 -0.1532 17.800115047772643 5.538182014095131 7.153332914739538 0 0 0
403 61 6 -0.1532 22.509199670957923 7.153333145131738 0.8290971605177572 0 0 0
408 58 6 -0.1532 24.12435080199436 0.8290973909100978 5.538181783702954 0 0 0
9 1 1 0.5212 33.942035784313795 4.242754627450959 8.48550889705882 -1 0 0
406 39 6 -0.1532 32.6098598019944 7.656411863992041 2.9473270104146203 0 0 0
397 60 6 -0.1532 26.285624047772668 2.9473272408069384 1.3321758793780156 0 0 0
218 39 2 0.142 29.770685324862267 6.08539387207029 2.187924380841455 0 0 0
236 49 2 0.142 29.770685324862402 2.1879246112338264 6.085393641678034 0 0 0
252 56 3 0.1145 26.79373792125977 0.6101090061469385 7.148297760112818 0 0 0
258 60 2 0.142 27.85664203969434 2.1879246112339197 4.171350356510224 0 0 0
263 49 2 0.142 31.754111300531054 4.171350586902399 6.0853936416780865 0 0 0
265 60 2 0.142 27.856642039694453 4.171350586902487 2.18792438084157 0 0 0
274 39 2 0.142 31.754111300530802 6.0853938720702425 4.171350356510135 0 0 0
279 63 3 0.1145 26.79373792125982 7.148297990505011 0.610108775754474 0 0 0
285 30 3 0.1145 33.331926905617834 7.148297990504889 7.148297760112789 0 0 0
290 39 4 -0.1504 30.645410417506465 6.735076628089005 2.3111168737891927 0 0 0
308 49 4 -0.1504 30.645410417506593 2.3111171041814966 6.735076397696768 0 0 0
323 49 5 -0.0519 32.0742854581861 1.8677504535786311 8.29388923952022 0 0 0
330 60 4 -0.1504 27.206959283675655 2.3111171041816094 3.2966252638660003 0 0 0
335 49 4 -0.1504 31.63091880758333 3.296625494258196 6.735076397696797 0 0 0
337 60 4 -0.1504 27.206959283675705 3.2966254942583064 2.311116873789265 0 0 0
346 39 4 -0.1504 31.630918807583154 6.735076628088979 3.2966252638659403 0 0 0
350 39 5 -0.0519 32.07428545818602 8.293889469912447 1.8677502231864587 0 0 0
354 60 5 -0.0519 25.648146441852237 1.8677504535788105 1.8677502231864425 0 0 0
362 39 6 -0.1532 30.994708670957877 7.65641186399208 1.332175879377991 0 0 0
380 49 6 -0.1532 30.994708670957937 1.332176109770244 7.656411633599815 0 0 0
390 60 6 -0.1532 26.28562404777258 1.3321761097703957 2.9473270104146265 0 0 0
395 49 6 -0.1532 32.60985980199454 2.9473272408068003 7.656411633599871 0 0 0
212 1 1 0.5212 21.213772284313738 1.274510005112357e-07 8.485508897058851 0 0 0
205 1 1 0.5212 29.699281284313773 1.2745097109888522e-07 8.485508897058738 0 0 0
398 34 6 -0.1532 33.1129385208549 5.53818201409512 9.817684879378099 0 0 0
224 44 2 0.142 23.056411528933157 2.1879246112337993 12.799667437607313 0 0 0
237 50 2 0.142 19.15894226809662 6.0853938720702825 12.799667437607381 0 0 0
250 55 3 0.1145 24.119315647367763 0.6101090061468094 9.822720034004849 0 0 0
255 50 2 0.142 21.14236824376521 6.085393872070279 14.783093413276003 0 0 0
257 59 2 0.142 19.15894226809656 4.171350586902424 10.885624152439556 0 0 0
267 44 2 0.142 23.05641152893316 4.171350586902445 14.783093413275889 0 0 0
269 59 2 0.142 21.142368243765162 2.1879246112338113 10.88562415243957 0 0 0
278 62 3 0.1145 24.119315647367724 7.148297990505043 16.36090901836294 0 0 0
283 11 3 0.1145 17.581126663009602 7.148297990504948 9.822720034004822 0 0 0
296 44 4 -0.1504 23.70609428495187 2.311117104181501 13.674392530251518 0 0 0
309 50 4 -0.1504 19.282134761044297 6.735076628088996 13.674392530251586 0 0 0
320 44 5 -0.0519 25.26490712677529 1.8677504535786937 15.103267570931072 0 0 0
327 50 4 -0.1504 20.267643151121007 6.735076628088997 14.659900920328308 0 0 0
329 59 4 -0.1504 19.282134761044247 3.296625494258219 10.23594139642084 0 0 0
339 44 4 -0.1504 23.70609428495187 3.2966254942582336 14.659900920328216 0 0 0
341 59 4 -0.1504 20.26764315112096 2.311117104181503 10.235941396420847 0 0 0
351 50 5 -0.0519 18.83876811044147 8.293889469912433 15.103267570931118 0 0 0
353 59 5 -0.0519 18.83876811044144 1.8677504535786813 8.677128554597404 0 0 0
368 44 6 -0.1532 24.627429520854914 1.3321761097702636 14.023690783702918 0 0 0
381 50 6 -0.1532 18.303193766633058 7.656411863992054 14.023690783702953 0 0 0
387 50 6 -0.1532 19.918344897669627 7.65641186399205 15.63884191473954 0 0 0
389 59 6 -0.1532 18.30319376663302 2.9473272408068443 9.314606160517776 0 0 0
399 44 6 -0.1532 24.627429520854914 2.947327240806868 15.638841914739466 0 0 0
401 59 6 -0.1532 19.918344897669595 1.332176109770267 9.314606160517794 0 0 0
393 52 6 -0.1532 26.78870276663309 5.538182014095165 16.141920633599764 0 0 0
210 1 1 0.5212 25.456526784313805 1.274509517573128e-07 12.728263397058795 0 0 0
217 38 2 0.142 29.627877243765234 2.400115382831643 10.673433380841594 0 0 0
226 34 2 0.142 31.54192052893318 6.297584643668204 12.656859356510266 0 0 0
234 38 2 0.142 27.644451268096653 2.400115382831631 12.656859356510216 0 0 0
239 52 2 0.142 29.62787724376523 6.297584643668238 14.570902641677984 0 0 0
244 49 3 0.1145 32.60482464736775 1.3372112643969374 9.095617775754599 0 0 0
248 41 3 0.1145 32.60482464736779 7.875400248755212 15.63380676011276 0 0 0
251 44 3 0.1145 26.066635663009652 1.3372112643970195 15.633806760112765 0 0 0
261 52 2 0.142 27.64445126809666 4.31415866799959 14.570902641678 0 0 0
266 34 2 0.142 31.541920528933137 4.314158667999565 10.673433380841686 0 0 0
289 38 4 -0.1504 28.753152151121032 1.750432626812924 10.796625873789287 0 0 0
298 34 4 -0.1504 32.19160328495188 6.174392150720499 11.782134263866054 0 0 0
306 38 4 -0.1504 27.767643761044322 1.7504326268129187 11.78213426386601 0 0 0
311 52 4 -0.1504 28.753152151121025 6.174392150720537 15.220585397696702 0 0 0
313 38 5 -0.0519 27.324277110441496 0.19161978498948826 10.353259223186472 0 0 0
333 52 4 -0.1504 27.76764376104433 5.188883760643802 15.22058539769671 0 0 0
338 34 4 -0.1504 32.19160328495186 5.188883760643766 10.796625873789353 0 0 0
357 52 5 -0.0519 27.32427711044149 6.617758801323338 16.779398239520138 0 0 0
358 34 5 -0.0519 33.7504161267753 6.617758801323277 10.353259223186495 0 0 0
361 38 6 -0.1532 28.403853897669652 0.8290973909098786 9.817684879378048 0 0 0
370 34 6 -0.1532 33.11293852085494 7.15333314513172 11.432836010414652 0 0 0
378 38 6 -0.1532 26.78870276663309 0.8290973909098648 11.432836010414638 0 0 0
383 52 6 -0.1532 28.40385389766964 7.153333145131763 16.141920633599756 0 0 0
1031 1 1 0.5212 25.456526784313812 4.242754627451036 16.97101789705873 0 0 0
1030 1 1 0.5212 25.45652678431362 1.2745112464372915e-07 21.213772397058836 0 0 0
1072 158 2 0.142 21.285176324862196 2.4001153828317423 23.268602413276202 0 0 0
1075 62 2 0.142 23.26860230053108 4.3141586679995525 19.37113315243943 0 0 0
1080 140 2 0.142 19.37113303969438 6.297584643668146 21.28517643760736 0 0 0
1084 140 2 0.142 19.371133039694413 4.314158667999535 23.268602413275957 0 0 0
1087 62 2 0.142 21.285176324862405 6.2975846436681095 19.37113315243952 0 0 0
1092 158 2 0.142 23.268602300530723 2.4001153828318396 21.285176437607507 0 0 0
1093 159 3 0.1145 18.308228921259772 1.3372112643969953 24.846418018363075 0 0 0
1097 160 3 0.1145 24.84641790561788 1.3372112643971164 18.308229034004786 0 0 0
1098 157 3 0.1145 18.308228921259758 7.875400248755109 18.30822903400481 0 0 0
1144 158 4 -0.1504 22.159901417506404 1.7504326268130448 23.145409920328447 0 0 0
1147 62 4 -0.1504 23.14540980758334 5.188883760643765 18.72145039642074 0 0 0
1152 140 4 -0.1504 18.721450283675672 6.174392150720448 22.159901530251567 0 0 0
1156 140 4 -0.1504 18.72145028367569 5.188883760643732 23.145409920328284 0 0 0
1159 62 4 -0.1504 22.159901417506592 6.174392150720451 18.721450396420774 0 0 0
1164 158 4 -0.1504 23.145409807583086 1.7504326268130925 22.159901530251695 0 0 0
1168 158 5 -0.0519 23.588776458185986 0.1916197849896272 23.58877657093117 0 0 0
1171 62 5 -0.0519 23.588776458186082 6.6177588013233395 17.162637554597318 0 0 0
1176 140 5 -0.0519 17.16263744185224 6.617758801323246 23.588776570931113 0 0 0
1204 158 6 -0.1532 22.50919967095783 0.8290973909099615 24.124350914739637 0 0 0
1207 62 6 -0.1532 24.12435080199454 5.538182014095179 17.800115160517663 0 0 0
1212 140 6 -0.1532 17.800115047772607 7.153333145131668 22.50919978370294 0 0 0
1216 140 6 -0.1532 17.800115047772646 5.5381820140951 24.124350914739527 0 0 0
1219 62 6 -0.1532 22.50919967095792 7.153333145131714 17.800115160517734 0 0 0
1224 158 6 -0.1532 24.124350801994353 0.829097390910051 22.509199783703004 0 0 0
825 1 1 0.5212 33.942035784313795 4.2427546274509425 25.45652689705887 -1 0 0
1222 143 6 -0.1532 32.6098598019944 7.656411863992006 19.918345010414622 0 0 0
1213 160 6 -0.1532 26.28562404777268 2.9473272408069144 18.303193879378068 0 0 0
1034 143 2 0.142 29.770685324862274 6.085393872070263 19.15894238084143 0 0 0
1052 151 2 0.142 29.77068532486237 2.187924611233857 23.056411641678093 0 0 0
1068 156 3 0.1145 26.793737921259748 0.6101090061469122 24.11931576011284 0 0 0
1074 160 2 0.142 27.856642039694336 2.1879246112338784 21.14236835651029 0 0 0
1079 151 2 0.142 31.754111300531033 4.171350586902422 23.056411641678167 0 0 0
1081 160 2 0.142 27.856642039694446 4.17135058690247 19.158942380841665 0 0 0
1090 143 2 0.142 31.754111300530806 6.085393872070195 21.14236835651012 0 0 0
1095 52 3 0.1145 26.793737921259808 7.148297990505009 17.581126775754512 0 0 0
1101 137 3 0.1145 33.331926905617856 7.148297990504863 24.119315760112805 0 0 0
1106 143 4 -0.1504 30.64541041750647 6.735076628088978 19.282134873789182 0 0 0
1124 151 4 -0.1504 30.645410417506564 2.3111171041815166 23.706094397696827 0 0 0
1139 151 5 -0.0519 32.07428545818606 1.8677504535786364 25.264907239520284 0 0 0
1146 160 4 -0.1504 27.20695928367565 2.311117104181575 20.267643263866063 0 0 0
1151 151 4 -0.1504 31.630918807583303 3.296625494258209 23.70609439769687 0 0 0
1153 160 4 -0.1504 27.206959283675705 3.2966254942582784 19.28213487378933 0 0 0
1162 143 4 -0.1504 31.630918807583154 6.735076628088943 20.267643263865935 0 0 0
1166 143 5 -0.0519 32.07428545818602 8.293889469912429 18.838768223186467 0 0 0
1170 160 5 -0.0519 25.64814644185225 1.867750453578781 18.838768223186484 0 0 0
1178 143 6 -0.1532 30.99470867095787 7.656411863992071 18.303193879377996 0 0 0
1196 151 6 -0.1532 30.994708670957902 1.332176109770257 24.62742963359987 0 0 0
1206 160 6 -0.1532 26.285624047772583 1.332176109770361 19.918345010414672 0 0 0
1211 151 6 -0.1532 32.60985980199452 2.9473272408067963 24.627429633599935 0 0 0
1028 1 1 0.5212 21.213772284313727 1.2745097375963813e-07 25.45652689705892 0 0 0
1021 1 1 0.5212 29.699281284313745 1.2745097230394028e-07 25.456526897058772 0 0 0
1214 138 6 -0.1532 33.112938520854904 5.5381820140951135 26.788702879378143 0 0 0
1040 147 2 0.142 23.056411528933097 2.1879246112337616 29.770685437607323 0 0 0
1053 152 2 0.142 19.15894226809662 6.085393872070335 29.770685437607394 0 0 0
1066 155 3 0.1145 24.119315647367724 0.6101090061467761 26.793738034004903 0 0 0
1071 152 2 0.142 21.14236824376521 6.0853938720703145 31.75411141327601 0 0 0
1073 159 2 0.142 19.15894226809656 4.171350586902414 27.8566421524396 0 0 0
1083 147 2 0.142 23.056411528933115 4.1713505869024505 31.75411141327585 0 0 0
1085 159 2 0.142 21.14236824376514 2.1879246112337847 27.856642152439655 0 0 0
1094 61 3 0.1145 24.119315647367692 7.148297990505065 33.33192701836292 0 0 0
1099 122 3 0.1145 17.58112666300962 7.148297990504928 26.79373803400483 0 0 0
1112 147 4 -0.1504 23.70609428495182 2.3111171041814838 30.64541053025152 0 0 0
1125 152 4 -0.1504 19.28213476104429 6.735076628089039 30.64541053025161 0 0 0
1136 147 5 -0.0519 25.264907126775256 1.867750453578718 32.07428557093107 0 0 0
1143 152 4 -0.1504 20.267643151121003 6.735076628089033 31.63091892032833 0 0 0
1145 159 4 -0.1504 19.282134761044247 3.296625494258208 27.20695939642089 0 0 0
1155 147 4 -0.1504 23.706094284951824 3.2966254942582376 31.63091892032819 0 0 0
1157 159 4 -0.1504 20.267643151120954 2.311117104181482 27.206959396420917 0 0 0
1167 152 5 -0.0519 18.83876811044146 8.293889469912454 32.07428557093117 0 0 0
1169 159 5 -0.0519 18.83876811044144 1.8677504535786698 25.648146554597453 0 0 0
1184 147 6 -0.1532 24.627429520854875 1.3321761097702627 30.99470878370293 0 0 0
1197 152 6 -0.1532 18.30319376663305 7.656411863992089 30.99470878370299 0 0 0
1203 152 6 -0.1532 19.91834489766962 7.656411863992069 32.60985991473958 0 0 0
1205 159 6 -0.1532 18.303193766633026 2.9473272408068376 26.28562416051782 0 0 0
1215 147 6 -0.1532 24.627429520854875 2.9473272408068953 32.609859914739445 0 0 0
1217 159 6 -0.1532 19.91834489766959 1.332176109770251 26.285624160517855 0 0 0
1209 63 6 -0.1532 26.788702766633072 5.5381820140951925 33.1129386335997 0 0 0
1026 1 1 0.5212 25.456526784313787 1.2745095080334595e-07 29.699281397058826 0 0 0
1033 142 2 0.142 29.62787724376521 2.400115382831639 27.64445138084166 0 0 0
1042 138 2 0.142 31.541920528933176 6.297584643668248 29.627877356510297 0 0 0
1050 142 2 0.142 27.644451268096606 2.4001153828316175 29.627877356510258 0 0 0
1055 63 2 0.142 29.627877243765198 6.297584643668275 31.541920641677894 0 0 0
1060 151 3 0.1145 32.6048246473677 1.3372112643969336 26.066635775754666 0 0 0
1064 145 3 0.1145 32.60482464736779 7.875400248755216 32.60482476011272 0 0 0
1067 147 3 0.1145 26.066635663009635 1.3372112643970622 32.60482476011276 0 0 0
1077 63 2 0.142 27.64445126809661 4.314158667999643 31.541920641677898 0 0 0
1082 138 2 0.142 31.54192052893314 4.314158667999571 27.644451380841755 0 0 0
1105 142 4 -0.1504 28.753152151121004 1.7504326268129204 27.767643873789332 0 0 0
1114 138 4 -0.1504 32.19160328495188 6.174392150720525 28.753152263866088 0 0 0
1122 142 4 -0.1504 27.767643761044283 1.7504326268129096 28.753152263866046 0 0 0
1127 63 4 -0.1504 28.753152151121007 6.174392150720563 32.191603397696625 0 0 0
1129 142 5 -0.0519 27.32427711044147 0.19161978498948587 27.324277223186503 0 0 0
1149 63 4 -0.1504 27.767643761044297 5.18888376064384 32.191603397696625 0 0 0
1154 138 4 -0.1504 32.19160328495186 5.188883760643777 27.7676438737894 0 0 0
1173 63 5 -0.0519 27.32427711044149 6.617758801323349 33.750416239520085 0 0 0
1174 138 5 -0.0519 33.750416126775306 6.617758801323277 27.32427722318652 0 0 0
1177 142 6 -0.1532 28.403853897669627 0.8290973909098809 26.78870287937809 0 0 0
1186 138 6 -0.1532 33.11293852085495 7.153333145131735 28.403854010414676 0 0 0
1194 142 6 -0.1532 26.78870276663305 0.8290973909098556 28.40385401041467 0 0 0
1199 63 6 -0.1532 28.403853897669638 7.153333145131778 33.112938633599704 0 0 0
215 1 1 0.5212 25.456526784313795 4.2427546274510695 33.94203589705869 0 0 -1
12 1 1 0.5212 33.94203578431367 8.485509127450962 4.2427543970588 -1 0 0
225 45 2 0.142 19.1589422680966 12.799667667999612 6.085393641678078 0 0 0
230 48 2 0.142 23.05641152893299 12.799667667999627 2.187924380841715 0 0 0
253 57 2 0.142 21.142368243765112 10.885624382831717 2.187924380841679 0 0 0
262 48 2 0.142 23.05641152893291 14.783093643668293 4.171350356510269 0 0 0
270 57 2 0.142 19.15894226809647 10.88562438283172 4.171350356510255 0 0 0
275 45 2 0.142 21.14236824376517 14.783093643668257 6.085393641678128 0 0 0
280 64 3 0.1145 24.119315647367717 9.822720264397027 0.6101087757547456 0 0 0
284 65 3 0.1145 24.11931564736769 16.360909248755252 7.148297760112788 0 0 0
287 15 3 0.1145 17.58112666300953 9.822720264396994 7.148297760112773 0 0 0
297 45 4 -0.1504 19.28213476104427 13.674392760643803 6.735076397696819 0 0 0
302 48 4 -0.1504 23.706094284951696 13.674392760643837 2.311116873789402 0 0 0
321 45 5 -0.0519 18.838768110441425 15.103267801323288 8.293889239520292 0 0 0
322 48 5 -0.0519 25.26490712677513 15.103267801323371 1.8677502231865848 0 0 0
325 57 4 -0.1504 20.267643151120918 10.235941626812984 2.311116873789366 0 0 0
334 48 4 -0.1504 23.706094284951664 14.659901150720577 3.296625263866094 0 0 0
342 57 4 -0.1504 19.282134761044187 10.235941626812986 3.2966252638660665 0 0 0
347 45 4 -0.1504 20.267643151120964 14.659901150720534 6.735076397696844 0 0 0
349 57 5 -0.0519 18.838768110441407 8.67712878498953 1.8677502231865406 0 0 0
369 45 6 -0.1532 18.303193766633026 14.023691014095137 7.656411633599881 0 0 0
374 48 6 -0.1532 24.627429520854765 14.023691014095194 1.3321758793781795 0 0 0
385 57 6 -0.1532 19.91834489766957 9.314606390909917 1.332175879378136 0 0 0
394 48 6 -0.1532 24.627429520854722 15.63884214513181 2.947327010414719 0 0 0
402 57 6 -0.1532 18.30319376663297 9.314606390909919 2.9473270104146874 0 0 0
407 45 6 -0.1532 19.918344897669577 15.638842145131736 7.6564116335999275 0 0 0
405 40 6 -0.1532 26.788702766632923 16.141920863992173 5.538181783702984 0 0 0
219 40 2 0.142 29.627877243765035 14.57090287207028 6.29758441327593 0 0 0
221 42 2 0.142 27.644451268096674 12.656859586902373 2.400115152439594 0 0 0
231 37 2 0.142 31.54192052893302 12.65685958690242 6.297584413276032 0 0 0
233 42 2 0.142 29.627877243765237 10.67343361123373 2.400115152439445 0 0 0
242 43 3 0.1145 32.604824647367714 15.633806990504931 7.875400018362933 0 0 0
247 48 3 0.1145 26.066635663009514 15.63380699050504 1.3372110340049115 0 0 0
260 37 2 0.142 31.541920528932952 10.673433611233815 4.314158437607414 0 0 0
273 40 2 0.142 27.644451268096358 14.570902872070363 4.314158437607384 0 0 0
286 39 3 0.1145 32.60482464736771 9.095618006146841 1.33721103400482 0 0 0
291 40 4 -0.1504 28.753152151120858 15.220585628089033 6.174391920328269 0 0 0
293 42 4 -0.1504 27.76764376104432 11.782134494258198 1.7504323964208313 0 0 0
303 37 4 -0.1504 32.191603284951725 11.782134494258209 6.174391920328324 0 0 0
305 42 4 -0.1504 28.753152151121018 10.796626104181467 1.7504323964207587 0 0 0
315 40 5 -0.0519 27.324277110441397 16.779398469912522 6.617758570931134 0 0 0
317 42 5 -0.0519 27.32427711044144 10.353259453578753 0.19161955459733593 0 0 0
332 37 4 -0.1504 32.19160328495169 10.796626104181495 5.188883530251604 0 0 0
345 40 4 -0.1504 27.767643761044113 15.220585628089077 5.18888353025158 0 0 0
356 37 5 -0.0519 33.75041612677515 10.353259453578653 6.617758570931101 0 0 0
363 40 6 -0.1532 28.403853897669546 16.141920863992095 7.1533329147395195 0 0 0
365 42 6 -0.1532 26.788702766633048 11.432836240806884 0.829097160517792 0 0 0
375 37 6 -0.1532 33.1129385208548 11.432836240806822 7.153332914739537 0 0 0
377 42 6 -0.1532 28.403853897669613 9.817685109770288 0.8290971605176591 0 0 0
392 37 6 -0.1532 33.11293852085474 9.817685109770247 5.53818178370295 0 0 0
5 1 1 0.5212 33.94203578431376 12.728263627450973 8.485508897058798 -1 0 0
1022 1 1 0.5212 29.699281284313756 8.485509127451039 16.971017897058715 0 0 0
384 41 6 -0.1532 32.60985980199456 9.314606390909962 14.023690783702925 0 0 0
222 21 2 0.142 19.371133039694513 10.673433611233824 12.656859356510209 0 0 0
227 46 2 0.142 23.268602300530866 12.65685958690246 14.570902641678176 0 0 0
229 21 2 0.142 19.371133039694477 12.656859586902423 10.673433380841589 0 0 0
238 51 2 0.142 23.268602300530915 14.570902872070254 12.656859356510255 0 0 0
243 45 3 0.1145 18.30822892125974 15.633806990504938 9.095617775754679 0 0 0
249 47 3 0.1145 24.8464179056179 15.633806990505018 15.633806760112812 0 0 0
254 51 2 0.142 21.285176324862313 14.57090287207028 10.673433380841647 0 0 0
272 46 2 0.142 21.285176324862295 10.67343361123382 14.570902641678154 0 0 0
288 50 3 0.1145 18.308228921259797 9.095618006146811 15.63380676011279 0 0 0
294 21 4 -0.1504 18.721450283675782 10.796626104181506 11.782134263866014 0 0 0
299 46 4 -0.1504 23.145409807583192 11.78213449425825 15.220585397696887 0 0 0
301 21 4 -0.1504 18.72145028367577 11.78213449425822 10.79662587378929 0 0 0
310 51 4 -0.1504 23.14540980758323 15.220585628088982 11.782134263866059 0 0 0
314 51 5 -0.0519 23.588776458186054 16.77939846991243 10.35325922318654 0 0 0
318 21 5 -0.0519 17.162637441852322 10.35325945357868 10.353259223186505 0 0 0
326 51 4 -0.1504 22.159901417506514 15.220585628088996 10.796625873789344 0 0 0
344 46 4 -0.1504 22.159901417506493 10.79662610418152 15.220585397696878 0 0 0
359 46 5 -0.0519 23.58877645818602 10.353259453578719 16.779398239520322 0 0 0
366 21 6 -0.1532 17.800115047772724 9.81768510977027 11.43283601041466 0 0 0
371 46 6 -0.1532 24.12435080199443 11.432836240806887 16.141920633599945 0 0 0
373 21 6 -0.1532 17.8001150477727 11.432836240806841 9.817684879378076 0 0 0
382 51 6 -0.1532 24.12435080199447 16.141920863992034 11.432836010414695 0 0 0
386 51 6 -0.1532 22.50919967095789 16.141920863992063 9.81768487937812 0 0 0
404 46 6 -0.1532 22.509199670957877 9.817685109770288 16.14192063359993 0 0 0
220 41 2 0.142 29.77068532486242 10.885624382831775 14.783093413275918 0 0 0
223 43 2 0.142 31.754111300530916 12.799667667999563 10.885624152439508 0 0 0
228 47 2 0.142 27.856642039694446 14.783093643668108 12.799667437607443 0 0 0
232 47 2 0.142 27.856642039694396 12.799667667999545 14.783093413276104 0 0 0
235 43 2 0.142 29.770685324862317 14.78309364366818 10.885624152439494 0 0 0
240 41 2 0.142 31.754111300531065 10.885624382831756 12.799667437607345 0 0 0
241 53 3 0.1145 26.793737921259723 9.822720264397104 16.360909018362943 0 0 0
245 7 3 0.1145 33.33192690561803 9.82272026439697 9.822720034004824 0 0 0
246 54 3 0.1145 26.793737921259773 16.36090924875514 9.822720034004814 0 0 0
292 41 4 -0.1504 30.645410417506614 10.235941626813043 14.659900920328239 0 0 0
295 43 4 -0.1504 31.63091880758323 13.674392760643757 10.235941396420781 0 0 0
300 47 4 -0.1504 27.20695928367572 14.659901150720444 13.674392530251643 0 0 0
304 47 4 -0.1504 27.20695928367569 13.674392760643755 14.659900920328383 0 0 0
307 43 4 -0.1504 30.64541041750652 14.659901150720474 10.23594139642077 0 0 0
312 41 4 -0.1504 31.630918807583345 10.23594162681303 13.674392530251538 0 0 0
316 41 5 -0.0519 32.07428545818612 8.677128784989582 15.103267570931076 0 0 0
319 43 5 -0.0519 32.07428545818605 15.103267801323272 8.677128554597324 0 0 0
324 47 5 -0.0519 25.648146441852273 15.103267801323318 15.10326757093115 0 0 0
364 41 6 -0.1532 30.99470867095795 9.314606390909976 15.638841914739473 0 0 0
367 43 6 -0.1532 32.60985980199447 14.02369101409512 9.314606160517723 0 0 0
372 47 6 -0.1532 26.28562404777267 15.6388421451317 14.023690783702984 0 0 0
376 47 6 -0.1532 26.285624047772632 14.023691014095164 15.638841914739597 0 0 0
379 43 6 -0.1532 30.994708670957888 15.638842145131697 9.314606160517702 0 0 0
4 1 1 0.5212 33.942035784313845 8.485509127451007 12.7282633970588 -1 0 0
1027 1 1 0.5212 21.213772284313748 8.485509127450985 16.97101789705883 0 0 0
1023 1 1 0.5212 25.456526784313702 12.728263627451037 16.971017897058886 0 0 0
828 1 1 0.5212 33.94203578431367 8.485509127450925 21.213772397058793 -1 0 0
1041 148 2 0.142 19.158942268096652 12.799667667999577 23.056411641678107 0 0 0
1046 150 2 0.142 23.056411528932973 12.799667667999605 19.158942380841708 0 0 0
1069 157 2 0.142 21.142368243765112 10.885624382831681 19.158942380841683 0 0 0
1078 150 2 0.142 23.05641152893292 14.783093643668247 21.14236835651028 0 0 0
1086 157 2 0.142 19.158942268096457 10.88562438283165 21.14236835651024 0 0 0
1091 148 2 0.142 21.142368243765215 14.783093643668222 23.0564116416782 0 0 0
1096 46 3 0.1145 24.119315647367696 9.822720264397047 17.5811267757547 0 0 0
1100 161 3 0.1145 24.119315647367706 16.360909248755195 24.11931576011281 0 0 0
1103 125 3 0.1145 17.58112666300953 9.82272026439696 24.119315760112745 0 0 0
1113 148 4 -0.1504 19.282134761044304 13.674392760643771 23.706094397696848 0 0 0
1118 150 4 -0.1504 23.70609428495168 13.674392760643817 19.28213487378939 0 0 0
1137 148 5 -0.0519 18.83876811044143 15.103267801323252 25.264907239520312 0 0 0
1138 150 5 -0.0519 25.26490712677511 15.103267801323357 18.838768223186573 0 0 0
1141 157 4 -0.1504 20.267643151120918 10.235941626812947 19.28213487378934 0 0 0
1150 150 4 -0.1504 23.706094284951657 14.659901150720549 20.26764326386609 0 0 0
1158 157 4 -0.1504 19.282134761044183 10.23594162681293 20.26764326386604 0 0 0
1163 148 4 -0.1504 20.267643151121003 14.659901150720502 23.706094397696898 0 0 0
1165 157 5 -0.0519 18.838768110441414 8.677128784989494 18.83876822318649 0 0 0
1185 148 6 -0.1532 18.30319376663304 14.023691014095105 24.627429633599885 0 0 0
1190 150 6 -0.1532 24.627429520854747 14.023691014095183 18.30319387937816 0 0 0
1201 157 6 -0.1532 19.918344897669574 9.314606390909892 18.3031938793781 0 0 0
1210 150 6 -0.1532 24.627429520854708 15.638842145131783 19.918345010414715 0 0 0
1218 157 6 -0.1532 18.30319376663297 9.314606390909864 19.918345010414647 0 0 0
1223 148 6 -0.1532 19.918344897669595 15.638842145131704 24.62742963359997 0 0 0
1221 144 6 -0.1532 26.788702766632912 16.141920863992123 22.50919978370297 0 0 0
1035 144 2 0.142 29.627877243765038 14.570902872070247 23.268602413275893 0 0 0
1037 53 2 0.142 27.644451268096617 12.656859586902394 19.371133152439565 0 0 0
1047 141 2 0.142 31.54192052893301 12.656859586902378 23.26860241327599 0 0 0
1049 53 2 0.142 29.627877243765194 10.673433611233762 19.371133152439455 0 0 0
1058 146 3 0.1145 32.6048246473677 15.633806990504892 24.846418018362936 0 0 0
1063 150 3 0.1145 26.066635663009492 15.633806990505033 18.308229034004903 0 0 0
1076 141 2 0.142 31.54192052893295 10.673433611233762 21.285176437607394 0 0 0
1089 144 2 0.142 27.64445126809635 14.57090287207032 21.285176437607365 0 0 0
1102 143 3 0.1145 32.6048246473677 9.095618006146829 18.30822903400484 0 0 0
1107 144 4 -0.1504 28.753152151120847 15.220585628088994 23.145409920328248 0 0 0
1109 53 4 -0.1504 27.767643761044276 11.782134494258212 18.721450396420813 0 0 0
1119 141 4 -0.1504 32.19160328495172 11.782134494258171 23.145409920328298 0 0 0
1121 53 4 -0.1504 28.753152151120982 10.796626104181485 18.721450396420757 0 0 0
1131 144 5 -0.0519 27.324277110441376 16.779398469912472 23.588776570931127 0 0 0
1133 53 5 -0.0519 27.324277110441418 10.353259453578744 17.162637554597328 0 0 0
1148 141 4 -0.1504 32.19160328495169 10.796626104181449 22.159901530251584 0 0 0
1161 144 4 -0.1504 27.767643761044102 15.220585628089033 22.159901530251563 0 0 0
1172 141 5 -0.0519 33.75041612677515 10.353259453578627 23.58877657093109 0 0 0
1179 144 6 -0.1532 28.403853897669535 16.14192086399205 24.124350914739505 0 0 0
1181 53 6 -0.1532 26.78870276663302 11.432836240806882 17.800115160517766 0 0 0
1191 141 6 -0.1532 33.11293852085479 11.432836240806793 24.124350914739516 0 0 0
1193 53 6 -0.1532 28.40385389766959 9.817685109770293 17.800115160517663 0 0 0
1208 141 6 -0.1532 33.11293852085475 9.817685109770213 22.509199783702936 0 0 0
821 1 1 0.5212 33.94203578431374 12.728263627450943 25.456526897058797 -1 0 0
1200 145 6 -0.1532 32.609859801994574 9.31460639090999 30.99470878370291 0 0 0
1195 146 6 -0.1532 30.994708670957856 15.638842145131644 26.28562416051768 0 0 0
1038 129 2 0.142 19.371133039694488 10.673433611233861 29.627877356510208 0 0 0
1043 64 2 0.142 23.268602300530887 12.656859586902492 31.541920641678274 0 0 0
1045 129 2 0.142 19.37113303969443 12.65685958690244 27.64445138084157 0 0 0
1054 153 2 0.142 23.268602300530922 14.57090287207023 29.627877356510325 0 0 0
1059 148 3 0.1145 18.308228921259722 15.633806990504901 26.066635775754683 0 0 0
1065 149 3 0.1145 24.846417905617944 15.633806990505018 32.60482476011287 0 0 0
1070 153 2 0.142 21.285176324862306 14.570902872070242 27.64445138084174 0 0 0
1088 64 2 0.142 21.285176324862306 10.67343361123386 31.541920641678225 0 0 0
1104 152 3 0.1145 18.30822892125978 9.095618006146815 32.60482476011286 0 0 0
1110 129 4 -0.1504 18.721450283675754 10.796626104181529 28.75315226386601 0 0 0
1115 64 4 -0.1504 23.14540980758321 11.782134494258274 32.19160339769697 0 0 0
1117 129 4 -0.1504 18.721450283675733 11.782134494258226 27.767643873789275 0 0 0
1126 153 4 -0.1504 23.145409807583235 15.220585628088951 28.753152263866127 0 0 0
1130 153 5 -0.0519 23.58877645818605 16.77939846991239 27.32427722318659 0 0 0
1134 129 5 -0.0519 17.162637441852315 10.353259453578666 27.324277223186495 0 0 0
1142 153 4 -0.1504 22.159901417506514 15.220585628088955 27.767643873789414 0 0 0
1160 64 4 -0.1504 22.159901417506504 10.796626104181547 32.19160339769695 0 0 0
1175 64 5 -0.0519 23.588776458186036 10.353259453578717 33.75041623952038 0 0 0
1182 129 6 -0.1532 17.800115047772714 9.817685109770277 28.403854010414655 0 0 0
1187 64 6 -0.1532 24.124350801994446 11.432836240806887 33.11293863360002 0 0 0
1189 129 6 -0.1532 17.80011504777267 11.432836240806827 26.788702879378057 0 0 0
1198 153 6 -0.1532 24.12435080199447 16.141920863992 28.403854010414747 0 0 0
1202 153 6 -0.1532 22.509199670957884 16.141920863992016 26.78870287937818 0 0 0
1220 64 6 -0.1532 22.509199670957884 9.817685109770302 33.11293863359999 0 0 0
206 1 1 0.5212 29.69928128431377 8.48550912745104 33.942035897058695 0 0 -1
1036 145 2 0.142 29.770685324862427 10.885624382831793 31.75411141327589 0 0 0
1039 146 2 0.142 31.754111300530862 12.799667667999492 27.85664215243947 0 0 0
1044 149 2 0.142 27.856642039694474 14.7830936436681 29.770685437607494 0 0 0
1048 149 2 0.142 27.85664203969444 12.799667667999548 31.754111413276167 0 0 0
1051 146 2 0.142 29.770685324862274 14.783093643668122 27.85664215243946 0 0 0
1056 145 2 0.142 31.75411130053109 10.885624382831791 29.770685437607337 0 0 0
1057 42 3 0.1145 26.793737921259748 9.822720264397127 33.33192701836294 0 0 0
1061 118 3 0.1145 33.33192690561803 9.82272026439695 26.79373803400484 0 0 0
1062 154 3 0.1145 26.79373792125976 16.360909248755103 26.79373803400483 0 0 0
1108 145 4 -0.1504 30.64541041750662 10.235941626813062 31.63091892032822 0 0 0
1111 146 4 -0.1504 31.630918807583186 13.674392760643697 27.206959396420753 0 0 0
1116 149 4 -0.1504 27.206959283675747 14.659901150720442 30.645410530251695 0 0 0
1120 149 4 -0.1504 27.20695928367573 13.674392760643753 31.630918920328437 0 0 0
1123 146 4 -0.1504 30.645410417506472 14.659901150720419 27.206959396420743 0 0 0
1128 145 4 -0.1504 31.63091880758336 10.235941626813062 30.645410530251528 0 0 0
1132 145 5 -0.0519 32.074285458186125 8.677128784989604 32.07428557093105 0 0 0
1135 146 5 -0.0519 32.07428545818602 15.103267801323218 25.64814655459731 0 0 0
1140 149 5 -0.0519 25.648146441852308 15.103267801323316 32.0742855709312 0 0 0
1180 145 6 -0.1532 30.99470867095796 9.31460639090999 32.60985991473945 0 0 0
1183 146 6 -0.1532 32.60985980199443 14.023691014095068 26.285624160517706 0 0 0
1188 149 6 -0.1532 26.285624047772703 15.638842145131695 30.994708783703032 0 0 0
1192 149 6 -0.1532 26.285624047772668 14.023691014095162 32.60985991473965 0 0 0
820 1 1 0.5212 33.942035784313866 8.485509127451026 29.699281397058815 -1 0 0
211 1 1 0.5212 21.213772284313745 8.485509127451 33.94203589705888 0 0 -1
207 1 1 0.5212 25.456526784313734 12.72826362745103 33.94203589705893 0 0 -1
622 1 1 0.5212 25.456526784313652 16.97101812745112 4.2427543970588415 0 0 0
664 65 2 0.142 21.28517632486223 19.371133382831776 6.297584413276131 0 0 0
667 110 2 0.142 23.2686023005311 21.285176667999558 2.400115152439461 0 0 0
672 92 2 0.142 19.371133039694346 23.268602643668128 4.314158437607385 0 0 0
676 92 2 0.142 19.371133039694406 21.285176667999554 6.297584413276026 0 0 0
679 110 2 0.142 21.285176324862412 23.268602643668093 2.4001151524395596 0 0 0
684 65 2 0.142 23.26860230053078 19.371133382831847 4.31415843760747 0 0 0
685 108 3 0.1145 18.308228921259765 18.308229264397006 7.875400018363065 0 0 0
689 109 3 0.1145 24.846417905617887 18.308229264397117 1.3372110340048098 0 0 0
690 107 3 0.1145 18.308228921259744 24.846418248755114 1.3372110340048422 0 0 0
736 65 4 -0.1504 22.159901417506436 18.72145062681307 6.174391920328399 0 0 0
739 110 4 -0.1504 23.145409807583352 22.15990176064377 1.7504323964207635 0 0 0
744 92 4 -0.1504 18.72145028367565 23.145410150720448 5.188883530251604 0 0 0
748 92 4 -0.1504 18.721450283675676 22.15990176064374 6.17439192032833 0 0 0
751 110 4 -0.1504 22.1599014175066 23.145410150720448 1.7504323964208128 0 0 0
756 65 4 -0.1504 23.145409807583125 18.721450626813105 5.188883530251659 0 0 0
760 65 5 -0.0519 23.588776458185993 17.162637784989638 6.6177585709311435 0 0 0
763 110 5 -0.0519 23.58877645818607 23.58877680132335 0.19161955459734184 0 0 0
768 92 5 -0.0519 17.162637441852223 23.588776801323256 6.6177585709311435 0 0 0
796 65 6 -0.1532 22.509199670957837 17.800115390909987 7.1533329147395985 0 0 0
799 110 6 -0.1532 24.12435080199454 22.50920001409519 0.8290971605176822 0 0 0
804 92 6 -0.1532 17.800115047772586 24.124351145131673 5.538181783702975 0 0 0
808 92 6 -0.1532 17.80011504777262 22.50920001409511 7.1533329147395674 0 0 0
811 110 6 -0.1532 22.509199670957916 24.124351145131715 0.8290971605177686 0 0 0
816 65 6 -0.1532 24.124350801994378 17.800115390910054 5.538181783702987 0 0 0
417 1 1 0.5212 33.94203578431379 21.21377262745095 8.485508897058857 -1 0 0
814 94 6 -0.1532 32.6098598019944 24.62742986399202 2.947327010414614 0 0 0
805 109 6 -0.1532 26.285624047772682 19.918345240806907 1.332175879378058 0 0 0
626 94 2 0.142 29.770685324862242 23.056411872070306 2.1879243808414808 0 0 0
644 103 2 0.142 29.770685324862367 19.15894261123386 6.085393641678097 0 0 0
660 40 3 0.1145 26.79373792125976 17.58112700614691 7.148297760112829 0 0 0
666 109 2 0.142 27.85664203969438 19.158942611233908 4.171350356510263 0 0 0
671 103 2 0.142 31.754111300531036 21.14236858690241 6.085393641678144 0 0 0
673 109 2 0.142 27.856642039694474 21.142368586902464 2.1879243808416016 0 0 0
682 94 2 0.142 31.754111300530784 23.056411872070246 4.171350356510149 0 0 0
687 112 3 0.1145 26.793737921259815 24.119315990505005 0.6101087757545116 0 0 0
693 87 3 0.1145 33.33192690561784 24.119315990504866 7.148297760112786 0 0 0
698 94 4 -0.1504 30.645410417506454 23.706094628089005 2.311116873789205 0 0 0
716 103 4 -0.1504 30.645410417506568 19.28213510418151 6.735076397696824 0 0 0
731 103 5 -0.0519 32.074285458186075 18.838768453578634 8.293889239520269 0 0 0
738 109 4 -0.1504 27.206959283675687 19.282135104181584 3.29662526386604 0 0 0
743 103 4 -0.1504 31.630918807583306 20.267643494258202 6.735076397696848 0 0 0
745 109 4 -0.1504 27.206959283675733 20.267643494258284 2.3111168737893 0 0 0
754 94 4 -0.1504 31.630918807583143 23.70609462808898 3.2966252638659497 0 0 0
758 94 5 -0.0519 32.074285458186026 25.264907469912426 1.8677502231864496 0 0 0
762 109 5 -0.0519 25.648146441852262 18.83876845357878 1.86775022318649 0 0 0
770 94 6 -0.1532 30.994708670957866 24.62742986399207 1.3321758793779945 0 0 0
788 103 6 -0.1532 30.99470867095791 18.303194109770253 7.656411633599868 0 0 0
798 109 6 -0.1532 26.28562404777261 18.303194109770367 2.947327010414672 0 0 0
803 103 6 -0.1532 32.609859801994524 19.918345240806797 7.656411633599917 0 0 0
620 1 1 0.5212 21.213772284313727 16.97101812745101 8.485508897058873 0 0 0
613 1 1 0.5212 29.699281284313738 16.971018127450982 8.48550889705878 0 0 0
806 91 6 -0.1532 33.1129385208549 22.509200014095114 9.817684879378128 0 0 0
632 98 2 0.142 23.05641152893308 19.15894261123376 12.799667437607377 0 0 0
645 104 2 0.142 19.15894226809662 23.056411872070303 12.799667437607388 0 0 0
658 51 3 0.1145 24.119315647367735 17.581127006146804 9.822720034004874 0 0 0
663 104 2 0.142 21.142368243765212 23.05641187207029 14.783093413276008 0 0 0
665 108 2 0.142 19.15894226809655 21.142368586902432 10.885624152439592 0 0 0
675 98 2 0.142 23.056411528933086 21.142368586902418 14.78309341327595 0 0 0
677 108 2 0.142 21.142368243765162 19.15894261123383 10.885624152439608 0 0 0
686 111 3 0.1145 24.119315647367728 24.11931599050502 16.360909018362978 0 0 0
691 73 3 0.1145 17.581126663009588 24.119315990504933 9.82272003400485 0 0 0
704 98 4 -0.1504 23.7060942849518 19.282135104181478 13.67439253025157 0 0 0
717 104 4 -0.1504 19.2821347610443 23.706094628089012 13.674392530251598 0 0 0
728 98 5 -0.0519 25.264907126775245 18.838768453578687 15.103267570931106 0 0 0
735 104 4 -0.1504 20.26764315112101 23.706094628089005 14.65990092032832 0 0 0
737 108 4 -0.1504 19.282134761044244 20.26764349425823 10.235941396420873 0 0 0
747 98 4 -0.1504 23.706094284951803 20.267643494258213 14.659900920328269 0 0 0
749 108 4 -0.1504 20.26764315112096 19.282135104181517 10.23594139642088 0 0 0
759 104 5 -0.0519 18.838768110441475 25.26490746991244 15.103267570931143 0 0 0
761 108 5 -0.0519 18.83876811044144 18.838768453578687 8.67712855459744 0 0 0
776 98 6 -0.1532 24.62742952085486 18.303194109770253 14.023690783702957 0 0 0
789 104 6 -0.1532 18.303193766633058 24.627429863992067 14.023690783702977 0 0 0
795 104 6 -0.1532 19.91834489766963 24.627429863992052 15.638841914739562 0 0 0
797 108 6 -0.1532 18.303193766633015 19.918345240806843 9.314606160517815 0 0 0
807 98 6 -0.1532 24.627429520854864 19.918345240806854 15.638841914739508 0 0 0
809 108 6 -0.1532 19.9183448976696 18.303194109770278 9.314606160517826 0 0 0
801 105 6 -0.1532 26.788702766633076 22.50920001409513 16.1419206335998 0 0 0
618 1 1 0.5212 25.456526784313763 16.97101812745096 12.72826339705882 0 0 0
625 54 2 0.142 29.627877243765187 19.371133382831662 10.673433380841626 0 0 0
634 91 2 0.142 31.541920528933183 23.2686026436682 12.656859356510294 0 0 0
642 54 2 0.142 27.644451268096603 19.371133382831637 12.65685935651025 0 0 0
647 105 2 0.142 29.627877243765216 23.26860264366815 14.570902641678 0 0 0
652 103 3 0.1145 32.604824647367735 18.30822926439693 9.095617775754636 0 0 0
656 95 3 0.1145 32.60482464736781 24.8464182487552 15.63380676011276 0 0 0
659 98 3 0.1145 26.066635663009624 18.30822926439702 15.633806760112787 0 0 0
669 105 2 0.142 27.644451268096617 21.285176667999536 14.570902641678035 0 0 0
674 91 2 0.142 31.541920528933122 21.28517666799957 10.673433380841711 0 0 0
697 54 4 -0.1504 28.75315215112099 18.721450626812942 10.796625873789317 0 0 0
706 91 4 -0.1504 32.19160328495188 23.1454101507205 11.782134263866078 0 0 0
714 54 4 -0.1504 27.767643761044276 18.721450626812935 11.782134263866036 0 0 0
719 105 4 -0.1504 28.753152151121018 23.145410150720473 15.220585397696725 0 0 0
721 54 5 -0.0519 27.32427711044145 17.16263778498951 10.353259223186493 0 0 0
741 105 4 -0.1504 27.767643761044305 22.15990176064375 15.220585397696741 0 0 0
746 91 4 -0.1504 32.19160328495185 22.159901760643766 10.79662587378938 0 0 0
765 105 5 -0.0519 27.324277110441493 23.588776801323302 16.779398239520162 0 0 0
766 91 5 -0.0519 33.7504161267753 23.588776801323277 10.353259223186512 0 0 0
769 54 6 -0.1532 28.40385389766961 17.800115390909898 9.817684879378078 0 0 0
778 91 6 -0.1532 33.11293852085494 24.12435114513172 11.432836010414672 0 0 0
786 54 6 -0.1532 26.78870276663304 17.80011539090988 11.43283601041466 0 0 0
791 105 6 -0.1532 28.403853897669645 24.124351145131712 16.14192063359977 0 0 0
1439 1 1 0.5212 25.456526784313795 21.21377262745101 16.971017897058765 0 0 0
1438 1 1 0.5212 25.456526784313642 16.971018127451078 21.213772397058847 0 0 0
1480 161 2 0.142 21.285176324862253 19.371133382831736 23.26860241327622 0 0 0
1483 111 2 0.142 23.268602300531057 21.285176667999544 19.37113315243948 0 0 0
1488 180 2 0.142 19.37113303969438 23.268602643668086 21.285176437607376 0 0 0
1492 180 2 0.142 19.371133039694428 21.28517666799951 23.268602413276003 0 0 0
1495 111 2 0.142 21.28517632486238 23.268602643668086 19.37113315243954 0 0 0
1500 161 2 0.142 23.26860230053078 19.371133382831818 21.285176437607525 0 0 0
1501 192 3 0.1145 18.308228921259794 18.30822926439698 24.846418018363092 0 0 0
1505 193 3 0.1145 24.846417905617873 18.308229264397095 18.30822903400482 0 0 0
1506 191 3 0.1145 18.30822892125976 24.8464182487551 18.308229034004817 0 0 0
1552 161 4 -0.1504 22.15990141750645 18.721450626813024 23.14540992032846 0 0 0
1555 111 4 -0.1504 23.145409807583324 22.159901760643745 18.72145039642077 0 0 0
1560 180 4 -0.1504 18.72145028367568 23.145410150720412 22.15990153025159 0 0 0
1564 180 4 -0.1504 18.7214502836757 22.15990176064371 23.14540992032832 0 0 0
1567 111 4 -0.1504 22.15990141750658 23.145410150720437 18.721450396420806 0 0 0
1572 161 4 -0.1504 23.14540980758313 18.721450626813066 22.159901530251712 0 0 0
1576 161 5 -0.0519 23.588776458186008 17.162637784989585 23.588776570931177 0 0 0
1579 111 5 -0.0519 23.58877645818608 23.58877680132332 17.162637554597353 0 0 0
1584 180 5 -0.0519 17.162637441852258 23.58877680132323 23.588776570931138 0 0 0
1612 161 6 -0.1532 22.509199670957855 17.800115390909937 24.124350914739647 0 0 0
1615 111 6 -0.1532 24.12435080199453 22.509200014095157 17.8001151605177 0 0 0
1620 180 6 -0.1532 17.800115047772618 24.124351145131644 22.509199783702964 0 0 0
1624 180 6 -0.1532 17.80011504777266 22.509200014095086 24.124350914739566 0 0 0
1627 111 6 -0.1532 22.509199670957916 24.124351145131698 17.800115160517766 0 0 0
1632 161 6 -0.1532 24.12435080199438 17.800115390910005 22.50919978370302 0 0 0
1233 1 1 0.5212 33.942035784313774 21.213772627450915 25.456526897058872 -1 0 0
1630 182 6 -0.1532 32.6098598019944 24.627429863991985 19.918345010414633 0 0 0
1621 193 6 -0.1532 26.285624047772675 19.918345240806886 18.303193879378092 0 0 0
1442 182 2 0.142 29.77068532486226 23.05641187207026 19.15894238084145 0 0 0
1460 189 2 0.142 29.770685324862352 19.15894261123384 23.0564116416781 0 0 0
1476 144 3 0.1145 26.79373792125974 17.581127006146854 24.11931576011283 0 0 0
1482 193 2 0.142 27.85664203969437 19.15894261123384 21.142368356510286 0 0 0
1487 189 2 0.142 31.754111300531033 21.142368586902382 23.056411641678164 0 0 0
1489 193 2 0.142 27.856642039694467 21.14236858690243 19.158942380841662 0 0 0
1498 182 2 0.142 31.754111300530795 23.056411872070182 21.142368356510133 0 0 0
1503 105 3 0.1145 26.79373792125982 24.11931599050499 17.581126775754534 0 0 0
1509 178 3 0.1145 33.331926905617856 24.119315990504848 24.119315760112805 0 0 0
1514 182 4 -0.1504 30.64541041750646 23.706094628088973 19.282134873789197 0 0 0
1532 189 4 -0.1504 30.64541041750655 19.282135104181485 23.706094397696834 0 0 0
1547 189 5 -0.0519 32.07428545818605 18.83876845357859 25.264907239520284 0 0 0
1554 193 4 -0.1504 27.206959283675673 19.28213510418154 20.26764326386607 0 0 0
1559 189 4 -0.1504 31.630918807583296 20.26764349425817 23.70609439769687 0 0 0
1561 193 4 -0.1504 27.206959283675722 20.26764349425824 19.28213487378934 0 0 0
1570 182 4 -0.1504 31.630918807583146 23.70609462808893 20.267643263865946 0 0 0
1574 182 5 -0.0519 32.074285458186026 25.26490746991241 18.83876822318648 0 0 0
1578 193 5 -0.0519 25.64814644185225 18.838768453578755 18.83876822318651 0 0 0
1586 182 6 -0.1532 30.994708670957877 24.627429863992056 18.303193879378 0 0 0
1604 189 6 -0.1532 30.994708670957884 18.303194109770217 24.62742963359987 0 0 0
1614 193 6 -0.1532 26.285624047772597 18.303194109770324 19.918345010414686 0 0 0
1619 189 6 -0.1532 32.6098598019945 19.918345240806758 24.627429633599938 0 0 0
1436 1 1 0.5212 21.213772284313745 16.97101812745097 25.45652689705893 0 0 0
1429 1 1 0.5212 29.699281284313727 16.97101812745094 25.45652689705877 0 0 0
1622 179 6 -0.1532 33.11293852085487 22.50920001409508 26.788702879378135 0 0 0
1448 185 2 0.142 23.05641152893307 19.158942611233737 29.77068543760738 0 0 0
1461 190 2 0.142 19.15894226809662 23.056411872070328 29.7706854376074 0 0 0
1474 153 3 0.1145 24.119315647367728 17.581127006146758 26.79373803400491 0 0 0
1479 190 2 0.142 21.142368243765212 23.056411872070306 31.754111413276014 0 0 0
1481 192 2 0.142 19.15894226809656 21.142368586902407 27.856642152439626 0 0 0
1491 185 2 0.142 23.056411528933076 21.14236858690242 31.75411141327591 0 0 0
1493 192 2 0.142 21.14236824376516 19.158942611233794 27.85664215243966 0 0 0
1502 110 3 0.1145 24.119315647367706 24.119315990505058 33.33192701836296 0 0 0
1507 168 3 0.1145 17.581126663009616 24.11931599050492 26.793738034004846 0 0 0
1520 185 4 -0.1504 23.706094284951796 19.282135104181464 30.64541053025157 0 0 0
1533 190 4 -0.1504 19.282134761044293 23.706094628089033 30.645410530251613 0 0 0
1544 185 5 -0.0519 25.264907126775242 18.838768453578705 32.07428557093111 0 0 0
1551 190 4 -0.1504 20.267643151121007 23.706094628089026 31.63091892032833 0 0 0
1553 192 4 -0.1504 19.28213476104425 20.267643494258202 27.206959396420906 0 0 0
1563 185 4 -0.1504 23.706094284951796 20.267643494258216 31.63091892032825 0 0 0
1565 192 4 -0.1504 20.267643151120968 19.282135104181485 27.206959396420928 0 0 0
1575 190 5 -0.0519 18.838768110441464 25.264907469912444 32.07428557093117 0 0 0
1577 192 5 -0.0519 18.838768110441457 18.838768453578666 25.648146554597467 0 0 0
1592 185 6 -0.1532 24.62742952085486 18.303194109770253 30.99470878370297 0 0 0
1605 190 6 -0.1532 18.30319376663305 24.62742986399208 30.994708783702993 0 0 0
1611 190 6 -0.1532 19.918344897669623 24.627429863992067 32.60985991473958 0 0 0
1613 192 6 -0.1532 18.303193766633033 19.91834524080683 26.28562416051784 0 0 0
1623 185 6 -0.1532 24.627429520854857 19.918345240806875 32.609859914739495 0 0 0
1625 192 6 -0.1532 19.91834489766961 18.30319410977025 26.28562416051787 0 0 0
1617 112 6 -0.1532 26.788702766633065 22.509200014095168 33.11293863359976 0 0 0
1434 1 1 0.5212 25.456526784313777 16.971018127450943 29.69928139705885 0 0 0
1441 154 2 0.142 29.627877243765187 19.371133382831612 27.644451380841637 0 0 0
1450 179 2 0.142 31.541920528933158 23.2686026436682 29.627877356510304 0 0 0
1458 154 2 0.142 27.644451268096606 19.37113338283161 29.627877356510254 0 0 0
1463 112 2 0.142 29.627877243765194 23.268602643668206 31.54192064167795 0 0 0
1468 189 3 0.1145 32.60482464736769 18.30822926439689 26.06663577575466 0 0 0
1472 183 3 0.1145 32.60482464736778 24.84641824875519 32.60482476011273 0 0 0
1475 185 3 0.1145 26.066635663009624 18.30822926439705 32.6048247601128 0 0 0
1485 112 2 0.142 27.644451268096596 21.285176667999597 31.54192064167797 0 0 0
1490 179 2 0.142 31.541920528933087 21.285176667999554 27.644451380841744 0 0 0
1513 154 4 -0.1504 28.753152151120986 18.7214506268129 27.76764387378932 0 0 0
1522 179 4 -0.1504 32.19160328495186 23.14541015072049 28.753152263866088 0 0 0
1530 154 4 -0.1504 27.767643761044276 18.7214506268129 28.753152263866042 0 0 0
1535 112 4 -0.1504 28.753152151121004 23.14541015072051 32.19160339769668 0 0 0
1537 154 5 -0.0519 27.32427711044144 17.16263778498947 27.324277223186506 0 0 0
1557 112 4 -0.1504 27.767643761044287 22.1599017606438 32.19160339769669 0 0 0
1562 179 4 -0.1504 32.191603284951825 22.159901760643745 27.767643873789392 0 0 0
1581 112 5 -0.0519 27.324277110441486 23.588776801323327 33.750416239520135 0 0 0
1582 179 5 -0.0519 33.75041612677528 23.588776801323245 27.324277223186517 0 0 0
1585 154 6 -0.1532 28.4038538976696 17.80011539090986 26.788702879378082 0 0 0
1594 179 6 -0.1532 33.112938520854925 24.1243511451317 28.403854010414676 0 0 0
1602 154 6 -0.1532 26.788702766633037 17.80011539090985 28.403854010414676 0 0 0
1607 112 6 -0.1532 28.403853897669634 24.124351145131747 33.11293863359974 0 0 0
623 1 1 0.5212 25.456526784313795 21.21377262745104 33.94203589705874 0 0 -1
420 1 1 0.5212 33.94203578431368 25.45652712745092 4.242754397058787 -1 0 0
633 99 2 0.142 19.15894226809663 29.77068566799957 6.085393641678077 0 0 0
638 102 2 0.142 23.056411528933 29.77068566799964 2.1879243808416726 0 0 0
661 107 2 0.142 21.142368243765112 27.856642382831666 2.1879243808417224 0 0 0
670 102 2 0.142 23.056411528932905 31.75411164366827 4.171350356510249 0 0 0
678 107 2 0.142 19.15894226809645 27.85664238283163 4.171350356510292 0 0 0
683 99 2 0.142 21.142368243765187 31.75411164366822 6.085393641678124 0 0 0
688 113 3 0.1145 24.11931564736772 26.793738264397042 0.6101087757547343 0 0 0
692 58 3 0.1145 24.119315647367706 33.33192724875532 7.14829776011277 0 0 0
695 77 3 0.1145 17.58112666300952 26.79373826439694 7.148297760112766 0 0 0
705 99 4 -0.1504 19.282134761044297 30.64541076064376 6.735076397696816 0 0 0
710 102 4 -0.1504 23.706094284951696 30.645410760643855 2.311116873789364 0 0 0
729 99 5 -0.0519 18.838768110441446 32.07428580132324 8.293889239520288 0 0 0
730 102 5 -0.0519 25.26490712677511 32.07428580132342 1.867750223186561 0 0 0
733 107 4 -0.1504 20.267643151120907 27.206959626812942 2.3111168737893886 0 0 0
742 102 4 -0.1504 23.706094284951654 31.630919150720587 3.296625263866065 0 0 0
750 107 4 -0.1504 19.282134761044173 27.206959626812925 3.2966252638660842 0 0 0
755 99 4 -0.1504 20.26764315112099 31.6309191507205 6.735076397696839 0 0 0
757 107 5 -0.0519 18.8387681104414 25.648146784989496 1.86775022318653 0 0 0
777 99 6 -0.1532 18.303193766633047 30.99470901409509 7.656411633599876 0 0 0
782 102 6 -0.1532 24.62742952085477 30.994709014095232 1.3321758793781473 0 0 0
793 107 6 -0.1532 19.918344897669567 26.285624390909888 1.3321758793781406 0 0 0
802 102 6 -0.1532 24.627429520854694 32.60986014513184 2.9473270104146976 0 0 0
810 107 6 -0.1532 18.303193766632955 26.285624390909867 2.947327010414684 0 0 0
815 99 6 -0.1532 19.9183448976696 32.609860145131705 7.65641163359992 0 0 0
813 56 6 -0.1532 26.788702766632923 33.112938863992234 5.538181783702943 0 0 0
627 56 2 0.142 29.62787724376505 31.54192087207034 6.297584413275833 0 0 0
629 96 2 0.142 27.644451268096663 29.627877586902393 2.4001151524395663 0 0 0
639 93 2 0.142 31.541920528933062 29.627877586902404 6.297584413275992 0 0 0
641 96 2 0.142 29.62787724376523 27.644451611233755 2.4001151524394335 0 0 0
650 97 3 0.1145 32.60482464736776 32.60482499050491 7.875400018362883 0 0 0
655 102 3 0.1145 26.066635663009475 32.604824990505115 1.337211034004887 0 0 0
668 93 2 0.142 31.541920528932987 27.64445161123381 4.314158437607376 0 0 0
681 56 2 0.142 27.64445126809636 31.541920872070467 4.314158437607297 0 0 0
694 94 3 0.1145 32.60482464736772 26.0666360061468 1.337211034004798 0 0 0
699 56 4 -0.1504 28.75315215112087 32.19160362808909 6.174391920328191 0 0 0
701 96 4 -0.1504 27.76764376104431 28.753152494258217 1.7504323964208068 0 0 0
711 93 4 -0.1504 32.19160328495176 28.753152494258188 6.174391920328288 0 0 0
713 96 4 -0.1504 28.753152151121014 27.767644104181485 1.7504323964207413 0 0 0
723 56 5 -0.0519 27.324277110441408 33.750416469912565 6.617758570931101 0 0 0
725 96 5 -0.0519 27.324277110441436 27.32427745357876 0.1916195545973227 0 0 0
740 93 4 -0.1504 32.191603284951725 27.76764410418148 5.188883530251565 0 0 0
753 56 4 -0.1504 27.767643761044116 32.191603628089155 5.188883530251512 0 0 0
764 93 5 -0.0519 33.75041612677518 27.324277453578624 6.617758570931069 0 0 0
771 56 6 -0.1532 28.403853897669563 33.11293886399213 7.1533329147394635 0 0 0
773 96 6 -0.1532 26.788702766633044 28.403854240806897 0.8290971605177686 0 0 0
783 93 6 -0.1532 33.11293852085483 28.403854240806798 7.1533329147395 0 0 0
785 96 6 -0.1532 28.403853897669606 26.788703109770296 0.8290971605176506 0 0 0
800 93 6 -0.1532 33.11293852085476 26.78870310977022 5.53818178370292 0 0 0
413 1 1 0.5212 33.942035784313795 29.699281627450947 8.48550889705875 -1 0 0
1430 1 1 0.5212 29.699281284313766 25.45652712745101 16.97101789705872 0 0 0
792 95 6 -0.1532 32.60985980199457 26.28562439090995 14.023690783702927 0 0 0
630 82 2 0.142 19.371133039694502 27.64445161123383 12.656859356510223 0 0 0
635 100 2 0.142 23.26860230053089 29.62787758690245 14.570902641678195 0 0 0
637 82 2 0.142 19.371133039694477 29.6278775869024 10.673433380841582 0 0 0
646 55 2 0.142 23.26860230053095 31.54192087207024 12.656859356510218 0 0 0
651 99 3 0.1145 18.30822892125976 32.604824990504866 9.09561777575469 0 0 0
657 101 3 0.1145 24.84641790561795 32.60482499050504 15.63380676011279 0 0 0
662 55 2 0.142 21.28517632486234 31.54192087207028 10.673433380841612 0 0 0
680 100 2 0.142 21.285176324862306 27.644451611233826 14.570902641678181 0 0 0
696 104 3 0.1145 18.308228921259794 26.0666360061468 15.633806760112828 0 0 0
702 82 4 -0.1504 18.721450283675775 27.7676441041815 11.782134263866023 0 0 0
707 100 4 -0.1504 23.145409807583214 28.75315249425824 15.220585397696912 0 0 0
709 82 4 -0.1504 18.72145028367576 28.7531524942582 10.796625873789289 0 0 0
718 55 4 -0.1504 23.145409807583263 32.19160362808898 11.782134263866029 0 0 0
722 55 5 -0.0519 23.588776458186086 33.75041646991243 10.353259223186514 0 0 0
726 82 5 -0.0519 17.162637441852322 27.324277453578652 10.35325922318651 0 0 0
734 55 4 -0.1504 22.159901417506546 32.19160362808899 10.796625873789312 0 0 0
752 100 4 -0.1504 22.159901417506507 27.767644104181517 15.220585397696901 0 0 0
767 100 5 -0.0519 23.588776458186036 27.324277453578706 16.779398239520344 0 0 0
774 82 6 -0.1532 17.80011504777272 26.788703109770253 11.432836010414672 0 0 0
779 100 6 -0.1532 24.124350801994446 28.403854240806876 16.141920633599966 0 0 0
781 82 6 -0.1532 17.800115047772696 28.40385424080681 9.817684879378074 0 0 0
790 55 6 -0.1532 24.124350801994503 33.11293886399203 11.432836010414665 0 0 0
794 55 6 -0.1532 22.50919967095792 33.11293886399206 9.817684879378094 0 0 0
812 100 6 -0.1532 22.509199670957887 26.788703109770285 16.141920633599952 0 0 0
628 95 2 0.142 29.770685324862402 27.856642382831723 14.783093413275909 0 0 0
631 97 2 0.142 31.75411130053096 29.770685667999548 10.885624152439462 0 0 0
636 101 2 0.142 27.856642039694467 31.754111643668054 12.799667437607418 0 0 0
640 101 2 0.142 27.85664203969441 29.77068566799952 14.7830934132761 0 0 0
643 97 2 0.142 29.77068532486236 31.75411164366816 10.885624152439444 0 0 0
648 95 2 0.142 31.754111300531054 27.856642382831726 12.79966743760734 0 0 0
649 106 3 0.1145 26.793737921259723 26.793738264397085 16.36090901836295 0 0 0
653 69 3 0.1145 33.331926905618054 26.79373826439696 9.822720034004805 0 0 0
654 38 3 0.1145 26.793737921259822 33.33192724875511 9.8227200340048 0 0 0
700 95 4 -0.1504 30.645410417506604 27.206959626813006 14.659900920328239 0 0 0
703 97 4 -0.1504 31.63091880758327 30.64541076064374 10.23594139642073 0 0 0
708 101 4 -0.1504 27.206959283675747 31.630919150720416 13.674392530251625 0 0 0
712 101 4 -0.1504 27.206959283675715 30.64541076064373 14.659900920328372 0 0 0
715 97 4 -0.1504 30.645410417506557 31.63091915072046 10.23594139642072 0 0 0
720 95 4 -0.1504 31.630918807583342 27.206959626813006 13.674392530251536 0 0 0
724 95 5 -0.0519 32.07428545818613 25.64814678498957 15.103267570931079 0 0 0
727 97 5 -0.0519 32.07428545818608 32.07428580132325 8.677128554597267 0 0 0
732 101 5 -0.0519 25.64814644185231 32.07428580132332 15.103267570931134 0 0 0
772 95 6 -0.1532 30.99470867095796 26.28562439090994 15.638841914739476 0 0 0
775 97 6 -0.1532 32.6098598019945 30.9947090140951 9.314606160517668 0 0 0
780 101 6 -0.1532 26.285624047772718 32.609860145131684 14.02369078370296 0 0 0
784 101 6 -0.1532 26.28562404777266 30.994709014095157 15.63884191473959 0 0 0
787 97 6 -0.1532 30.994708670957927 32.609860145131684 9.314606160517648 0 0 0
412 1 1 0.5212 33.942035784313866 25.456527127451018 12.7282633970588 -1 0 0
1435 1 1 0.5212 21.21377228431375 25.456527127450975 16.971017897058857 0 0 0
1431 1 1 0.5212 25.456526784313727 29.69928162745103 16.971017897058886 0 0 0
1236 1 1 0.5212 33.942035784313674 25.45652712745089 21.2137723970588 -1 0 0
1449 186 2 0.142 19.158942268096645 29.770685667999565 23.056411641678096 0 0 0
1454 188 2 0.142 23.056411528933022 29.770685667999597 19.1589423808417 0 0 0
1477 191 2 0.142 21.142368243765116 27.856642382831655 19.15894238084173 0 0 0
1486 188 2 0.142 23.05641152893294 31.75411164366823 21.14236835651027 0 0 0
1494 191 2 0.142 19.15894226809645 27.856642382831605 21.142368356510282 0 0 0
1499 186 2 0.142 21.142368243765205 31.75411164366821 23.056411641678178 0 0 0
1504 100 3 0.1145 24.11931564736771 26.79373826439703 17.58112677575472 0 0 0
1508 158 3 0.1145 24.119315647367706 33.331927248755264 24.119315760112816 0 0 0
1511 171 3 0.1145 17.581126663009535 26.79373826439694 24.11931576011276 0 0 0
1521 186 4 -0.1504 19.282134761044304 30.64541076064375 23.70609439769684 0 0 0
1526 188 4 -0.1504 23.70609428495172 30.64541076064382 19.28213487378938 0 0 0
1545 186 5 -0.0519 18.83876811044144 32.07428580132323 25.264907239520312 0 0 0
1546 188 5 -0.0519 25.264907126775118 32.07428580132339 18.838768223186566 0 0 0
1549 191 4 -0.1504 20.26764315112092 27.206959626812925 19.28213487378939 0 0 0
1558 188 4 -0.1504 23.706094284951675 31.63091915072055 20.267643263866084 0 0 0
1566 191 4 -0.1504 19.28213476104418 27.206959626812896 20.267643263866077 0 0 0
1571 186 4 -0.1504 20.267643151120996 31.630919150720494 23.70609439769688 0 0 0
1573 191 5 -0.0519 18.838768110441425 25.648146784989468 18.838768223186516 0 0 0
1593 186 6 -0.1532 18.303193766633047 30.99470901409508 24.62742963359989 0 0 0
1598 188 6 -0.1532 24.62742952085478 30.9947090140952 18.30319387937815 0 0 0
1609 191 6 -0.1532 19.91834489766958 26.285624390909874 18.303193879378128 0 0 0
1618 188 6 -0.1532 24.627429520854708 32.609860145131805 19.91834501041471 0 0 0
1626 191 6 -0.1532 18.30319376663297 26.285624390909827 19.918345010414672 0 0 0
1631 186 6 -0.1532 19.918344897669595 32.60986014513169 24.627429633599963 0 0 0
1629 156 6 -0.1532 26.788702766632912 33.1129388639922 22.50919978370297 0 0 0
1443 156 2 0.142 29.627877243765052 31.541920872070335 23.268602413275854 0 0 0
1445 106 2 0.142 27.64445126809665 29.627877586902375 19.371133152439555 0 0 0
1455 181 2 0.142 31.541920528933048 29.62787758690238 23.268602413275982 0 0 0
1457 106 2 0.142 29.627877243765216 27.644451611233738 19.371133152439445 0 0 0
1466 184 3 0.1145 32.60482464736772 32.60482499050489 24.846418018362915 0 0 0
1471 188 3 0.1145 26.066635663009475 32.6048249905051 18.30822903400489 0 0 0
1484 181 2 0.142 31.541920528932987 27.644451611233766 21.285176437607383 0 0 0
1497 156 2 0.142 27.64445126809636 31.541920872070424 21.285176437607333 0 0 0
1510 182 3 0.1145 32.60482464736772 26.066636006146798 18.30822903400484 0 0 0
1515 156 4 -0.1504 28.75315215112086 32.19160362808908 23.145409920328223 0 0 0
1517 106 4 -0.1504 27.767643761044305 28.7531524942582 18.721450396420806 0 0 0
1527 181 4 -0.1504 32.191603284951746 28.753152494258163 23.14540992032829 0 0 0
1529 106 4 -0.1504 28.753152151121004 27.76764410418146 18.721450396420746 0 0 0
1539 156 5 -0.0519 27.324277110441383 33.75041646991254 23.588776570931127 0 0 0
1541 106 5 -0.0519 27.32427711044142 27.32427745357872 17.16263755459733 0 0 0
1556 181 4 -0.1504 32.19160328495172 27.767644104181446 22.159901530251577 0 0 0
1569 156 4 -0.1504 27.76764376104411 32.191603628089126 22.159901530251542 0 0 0
1580 181 5 -0.0519 33.75041612677516 27.324277453578606 23.588776570931095 0 0 0
1587 156 6 -0.1532 28.403853897669546 33.11293886399211 24.124350914739495 0 0 0
1589 106 6 -0.1532 26.788702766633037 28.40385424080687 17.80011516051777 0 0 0
1599 181 6 -0.1532 33.112938520854804 28.403854240806776 24.124350914739516 0 0 0
1601 106 6 -0.1532 28.403853897669595 26.788703109770264 17.800115160517663 0 0 0
1616 181 6 -0.1532 33.112938520854755 26.788703109770193 22.50919978370294 0 0 0
1229 1 1 0.5212 33.94203578431376 29.699281627450937 25.456526897058783 -1 0 0
1608 183 6 -0.1532 32.60985980199456 26.28562439090995 30.994708783702908 0 0 0
1603 184 6 -0.1532 30.994708670957884 32.60986014513166 26.28562416051768 0 0 0
1446 174 2 0.142 19.371133039694488 27.644451611233876 29.627877356510236 0 0 0
1451 113 2 0.142 23.268602300530876 29.627877586902482 31.541920641678235 0 0 0
1453 174 2 0.142 19.371133039694445 29.627877586902436 27.644451380841573 0 0 0
1462 155 2 0.142 23.26860230053092 31.541920872070246 29.627877356510318 0 0 0
1467 186 3 0.1145 18.30822892125974 32.60482499050486 26.066635775754705 0 0 0
1473 187 3 0.1145 24.846417905617958 32.604824990505065 32.60482476011285 0 0 0
1478 155 2 0.142 21.285176324862306 31.541920872070257 27.64445138084173 0 0 0
1496 113 2 0.142 21.2851763248623 27.644451611233855 31.541920641678217 0 0 0
1512 190 3 0.1145 18.308228921259772 26.066636006146798 32.60482476011287 0 0 0
1518 174 4 -0.1504 18.721450283675757 27.767644104181528 28.753152263866035 0 0 0
1523 113 4 -0.1504 23.145409807583206 28.75315249425827 32.191603397696944 0 0 0
1525 174 4 -0.1504 18.72145028367574 28.753152494258227 27.767643873789297 0 0 0
1534 155 4 -0.1504 23.145409807583235 32.19160362808897 28.75315226386612 0 0 0
1538 155 5 -0.0519 23.58877645818605 33.7504164699124 27.32427722318658 0 0 0
1542 174 5 -0.0519 17.162637441852322 27.324277453578656 27.324277223186513 0 0 0
1550 155 4 -0.1504 22.159901417506514 32.19160362808897 27.767643873789403 0 0 0
1568 113 4 -0.1504 22.1599014175065 27.767644104181542 32.19160339769694 0 0 0
1583 113 5 -0.0519 23.58877645818604 27.324277453578727 33.75041623952037 0 0 0
1590 174 6 -0.1532 17.80011504777272 26.788703109770275 28.403854010414683 0 0 0
1595 113 6 -0.1532 24.124350801994442 28.403854240806897 33.112938633599995 0 0 0
1597 174 6 -0.1532 17.80011504777268 28.40385424080682 26.78870287937807 0 0 0
1606 155 6 -0.1532 24.124350801994474 33.112938863992014 28.403854010414737 0 0 0
1610 155 6 -0.1532 22.509199670957884 33.11293886399203 26.788702879378175 0 0 0
1628 113 6 -0.1532 22.509199670957884 26.788703109770303 33.11293863359998 0 0 0
614 1 1 0.5212 29.699281284313756 25.45652712745102 33.942035897058695 0 0 -1
1444 183 2 0.142 29.770685324862402 27.856642382831744 31.754111413275876 0 0 0
1447 184 2 0.142 31.754111300530884 29.770685667999505 27.856642152439463 0 0 0
1452 187 2 0.142 27.856642039694474 31.754111643668082 29.770685437607465 0 0 0
1456 187 2 0.142 27.856642039694428 29.770685667999555 31.754111413276163 0 0 0
1459 184 2 0.142 29.7706853248623 31.75411164366813 27.85664215243945 0 0 0
1464 183 2 0.142 31.754111300531065 27.856642382831744 29.770685437607327 0 0 0
1465 96 3 0.1145 26.79373792125974 26.793738264397135 33.331927018362926 0 0 0
1469 164 3 0.1145 33.33192690561804 26.793738264396925 26.793738034004832 0 0 0
1470 142 3 0.1145 26.7937379212598 33.33192724875511 26.79373803400482 0 0 0
1516 183 4 -0.1504 30.6454104175066 27.20695962681302 31.630918920328206 0 0 0
1519 184 4 -0.1504 31.630918807583214 30.645410760643706 27.206959396420743 0 0 0
1524 187 4 -0.1504 27.20695928367575 31.63091915072044 30.64541053025167 0 0 0
1528 187 4 -0.1504 27.206959283675726 30.645410760643763 31.630918920328426 0 0 0
1531 184 4 -0.1504 30.645410417506504 31.63091915072043 27.206959396420736 0 0 0
1536 183 4 -0.1504 31.630918807583345 27.20695962681302 30.645410530251517 0 0 0
1540 183 5 -0.0519 32.07428545818611 25.64814678498957 32.07428557093105 0 0 0
1543 184 5 -0.0519 32.07428545818604 32.07428580132323 25.6481465545973 0 0 0
1548 187 5 -0.0519 25.64814644185231 32.07428580132334 32.07428557093118 0 0 0
1588 183 6 -0.1532 30.994708670957944 26.28562439090996 32.609859914739445 0 0 0
1591 184 6 -0.1532 32.60985980199445 30.99470901409507 26.28562416051769 0 0 0
1596 187 6 -0.1532 26.28562404777271 32.609860145131705 30.994708783703 0 0 0
1600 187 6 -0.1532 26.285624047772668 30.994709014095182 32.60985991473964 0 0 0
1228 1 1 0.5212 33.94203578431386 25.456527127451 29.699281397058808 -1 0 0
619 1 1 0.5212 21.213772284313745 25.456527127450997 33.94203589705887 0 0 -1
615 1 1 0.5212 25.45652678431373 29.699281627451057 33.94203589705891 0 0 -1

Velocities

10 0 0 0
52 0 0 0
55 0 0 0
60 0 0 0
64 0 0 0
67 0 0 0
72 0 0 0
73 0 0 0
77 0 0 0
78 0 0 0
124 0 0 0
127 0 0 0
132 0 0 0
136 0 0 0
139 0 0 0
144 0 0 0
148 0 0 0
151 0 0 0
156 0 0 0
184 0 0 0
187 0 0 0
192 0 0 0
196 0 0 0
199 0 0 0
204 0 0 0
213 0 0 0
14 0 0 0
32 0 0 0
48 0 0 0
54 0 0 0
59 0 0 0
61 0 0 0
70 0 0 0
75 0 0 0
81 0 0 0
86 0 0 0
104 0 0 0
119 0 0 0
126 0 0 0
131 0 0 0
133 0 0 0
142 0 0 0
146 0 0 0
150 0 0 0
158 0 0 0
176 0 0 0
186 0 0 0
191 0 0 0
193 0 0 0
202 0 0 0
8 0 0 0
1 0 0 0
194 0 0 0
20 0 0 0
33 0 0 0
46 0 0 0
51 0 0 0
53 0 0 0
63 0 0 0
65 0 0 0
74 0 0 0
79 0 0 0
92 0 0 0
105 0 0 0
116 0 0 0
123 0 0 0
125 0 0 0
135 0 0 0
137 0 0 0
147 0 0 0
149 0 0 0
164 0 0 0
177 0 0 0
183 0 0 0
185 0 0 0
195 0 0 0
197 0 0 0
189 0 0 0
6 0 0 0
13 0 0 0
22 0 0 0
30 0 0 0
35 0 0 0
40 0 0 0
44 0 0 0
47 0 0 0
57 0 0 0
62 0 0 0
85 0 0 0
94 0 0 0
102 0 0 0
107 0 0 0
109 0 0 0
129 0 0 0
134 0 0 0
153 0 0 0
154 0 0 0
157 0 0 0
166 0 0 0
174 0 0 0
179 0 0 0
827 0 0 0
826 0 0 0
868 0 0 0
871 0 0 0
876 0 0 0
880 0 0 0
883 0 0 0
888 0 0 0
889 0 0 0
893 0 0 0
894 0 0 0
940 0 0 0
943 0 0 0
948 0 0 0
952 0 0 0
955 0 0 0
960 0 0 0
964 0 0 0
967 0 0 0
972 0 0 0
1000 0 0 0
1003 0 0 0
1008 0 0 0
1012 0 0 0
1015 0 0 0
1020 0 0 0
1029 0 0 0
830 0 0 0
848 0 0 0
864 0 0 0
870 0 0 0
875 0 0 0
877 0 0 0
886 0 0 0
891 0 0 0
897 0 0 0
902 0 0 0
920 0 0 0
935 0 0 0
942 0 0 0
947 0 0 0
949 0 0 0
958 0 0 0
962 0 0 0
966 0 0 0
974 0 0 0
992 0 0 0
1002 0 0 0
1007 0 0 0
1009 0 0 0
1018 0 0 0
824 0 0 0
817 0 0 0
1010 0 0 0
836 0 0 0
849 0 0 0
862 0 0 0
867 0 0 0
869 0 0 0
879 0 0 0
881 0 0 0
890 0 0 0
895 0 0 0
908 0 0 0
921 0 0 0
932 0 0 0
939 0 0 0
941 0 0 0
951 0 0 0
953 0 0 0
963 0 0 0
965 0 0 0
980 0 0 0
993 0 0 0
999 0 0 0
1001 0 0 0
1011 0 0 0
1013 0 0 0
1005 0 0 0
822 0 0 0
829 0 0 0
838 0 0 0
846 0 0 0
851 0 0 0
856 0 0 0
860 0 0 0
863 0 0 0
873 0 0 0
878 0 0 0
901 0 0 0
910 0 0 0
918 0 0 0
923 0 0 0
925 0 0 0
945 0 0 0
950 0 0 0
969 0 0 0
970 0 0 0
973 0 0 0
982 0 0 0
990 0 0 0
995 0 0 0
11 0 0 0
216 0 0 0
21 0 0 0
26 0 0 0
49 0 0 0
58 0 0 0
66 0 0 0
71 0 0 0
76 0 0 0
80 0 0 0
83 0 0 0
93 0 0 0
98 0 0 0
117 0 0 0
118 0 0 0
121 0 0 0
130 0 0 0
138 0 0 0
143 0 0 0
145 0 0 0
165 0 0 0
170 0 0 0
181 0 0 0
190 0 0 0
198 0 0 0
203 0 0 0
201 0 0 0
15 0 0 0
17 0 0 0
27 0 0 0
29 0 0 0
38 0 0 0
43 0 0 0
56 0 0 0
69 0 0 0
82 0 0 0
87 0 0 0
89 0 0 0
99 0 0 0
101 0 0 0
111 0 0 0
113 0 0 0
128 0 0 0
141 0 0 0
152 0 0 0
159 0 0 0
161 0 0 0
171 0 0 0
173 0 0 0
188 0 0 0
209 0 0 0
818 0 0 0
180 0 0 0
18 0 0 0
23 0 0 0
25 0 0 0
34 0 0 0
39 0 0 0
45 0 0 0
50 0 0 0
68 0 0 0
84 0 0 0
90 0 0 0
95 0 0 0
97 0 0 0
106 0 0 0
110 0 0 0
114 0 0 0
122 0 0 0
140 0 0 0
155 0 0 0
162 0 0 0
167 0 0 0
169 0 0 0
178 0 0 0
182 0 0 0
200 0 0 0
16 0 0 0
19 0 0 0
24 0 0 0
28 0 0 0
31 0 0 0
36 0 0 0
37 0 0 0
41 0 0 0
42 0 0 0
88 0 0 0
91 0 0 0
96 0 0 0
100 0 0 0
103 0 0 0
108 0 0 0
112 0 0 0
115 0 0 0
120 0 0 0
160 0 0 0
163 0 0 0
168 0 0 0
172 0 0 0
175 0 0 0
208 0 0 0
823 0 0 0
819 0 0 0
1032 0 0 0
837 0 0 0
842 0 0 0
865 0 0 0
874 0 0 0
882 0 0 0
887 0 0 0
892 0 0 0
896 0 0 0
899 0 0 0
909 0 0 0
914 0 0 0
933 0 0 0
934 0 0 0
937 0 0 0
946 0 0 0
954 0 0 0
959 0 0 0
961 0 0 0
981 0 0 0
986 0 0 0
997 0 0 0
1006 0 0 0
1014 0 0 0
1019 0 0 0
1017 0 0 0
831 0 0 0
833 0 0 0
843 0 0 0
845 0 0 0
854 0 0 0
859 0 0 0
872 0 0 0
885 0 0 0
898 0 0 0
903 0 0 0
905 0 0 0
915 0 0 0
917 0 0 0
927 0 0 0
929 0 0 0
944 0 0 0
957 0 0 0
968 0 0 0
975 0 0 0
977 0 0 0
987 0 0 0
989 0 0 0
1004 0 0 0
1025 0 0 0
996 0 0 0
991 0 0 0
834 0 0 0
839 0 0 0
841 0 0 0
850 0 0 0
855 0 0 0
861 0 0 0
866 0 0 0
884 0 0 0
900 0 0 0
906 0 0 0
911 0 0 0
913 0 0 0
922 0 0 0
926 0 0 0
930 0 0 0
938 0 0 0
956 0 0 0
971 0 0 0
978 0 0 0
983 0 0 0
985 0 0 0
994 0 0 0
998 0 0 0
1016 0 0 0
2 0 0 0
832 0 0 0
835 0 0 0
840 0 0 0
844 0 0 0
847 0 0 0
852 0 0 0
853 0 0 0
857 0 0 0
858 0 0 0
904 0 0 0
907 0 0 0
912 0 0 0
916 0 0 0
919 0 0 0
924 0 0 0
928 0 0 0
931 0 0 0
936 0 0 0
976 0 0 0
979 0 0 0
984 0 0 0
988 0 0 0
1024 0 0 0
7 0 0 0
3 0 0 0
418 0 0 0
460 0 0 0
463 0 0 0
468 0 0 0
472 0 0 0
475 0 0 0
480 0 0 0
481 0 0 0
485 0 0 0
486 0 0 0
532 0 0 0
535 0 0 0
540 0 0 0
544 0 0 0
547 0 0 0
552 0 0 0
556 0 0 0
559 0 0 0
564 0 0 0
592 0 0 0
595 0 0 0
600 0 0 0
604 0 0 0
607 0 0 0
612 0 0 0
621 0 0 0
422 0 0 0
440 0 0 0
456 0 0 0
462 0 0 0
467 0 0 0
469 0 0 0
478 0 0 0
483 0 0 0
489 0 0 0
494 0 0 0
512 0 0 0
527 0 0 0
534 0 0 0
539 0 0 0
541 0 0 0
550 0 0 0
554 0 0 0
558 0 0 0
566 0 0 0
584 0 0 0
594 0 0 0
599 0 0 0
601 0 0 0
610 0 0 0
416 0 0 0
409 0 0 0
602 0 0 0
428 0 0 0
441 0 0 0
454 0 0 0
459 0 0 0
461 0 0 0
471 0 0 0
473 0 0 0
482 0 0 0
487 0 0 0
500 0 0 0
513 0 0 0
524 0 0 0
531 0 0 0
533 0 0 0
543 0 0 0
545 0 0 0
555 0 0 0
557 0 0 0
572 0 0 0
585 0 0 0
591 0 0 0
593 0 0 0
603 0 0 0
605 0 0 0
597 0 0 0
414 0 0 0
421 0 0 0
430 0 0 0
438 0 0 0
443 0 0 0
448 0 0 0
452 0 0 0
455 0 0 0
465 0 0 0
470 0 0 0
493 0 0 0
502 0 0 0
510 0 0 0
515 0 0 0
517 0 0 0
537 0 0 0
542 0 0 0
561 0 0 0
562 0 0 0
565 0 0 0
574 0 0 0
582 0 0 0
587 0 0 0
1235 0 0 0
1234 0 0 0
1276 0 0 0
1279 0 0 0
1284 0 0 0
1288 0 0 0
1291 0 0 0
1296 0 0 0
1297 0 0 0
1301 0 0 0
1302 0 0 0
1348 0 0 0
1351 0 0 0
1356 0 0 0
1360 0 0 0
1363 0 0 0
1368 0 0 0
1372 0 0 0
1375 0 0 0
1380 0 0 0
1408 0 0 0
1411 0 0 0
1416 0 0 0
1420 0 0 0
1423 0 0 0
1428 0 0 0
1437 0 0 0
1238 0 0 0
1256 0 0 0
1272 0 0 0
1278 0 0 0
1283 0 0 0
1285 0 0 0
1294 0 0 0
1299 0 0 0
1305 0 0 0
1310 0 0 0
1328 0 0 0
1343 0 0 0
1350 0 0 0
1355 0 0 0
1357 0 0 0
1366 0 0 0
1370 0 0 0
1374 0 0 0
1382 0 0 0
1400 0 0 0
1410 0 0 0
1415 0 0 0
1417 0 0 0
1426 0 0 0
1232 0 0 0
1225 0 0 0
1418 0 0 0
1244 0 0 0
1257 0 0 0
1270 0 0 0
1275 0 0 0
1277 0 0 0
1287 0 0 0
1289 0 0 0
1298 0 0 0
1303 0 0 0
1316 0 0 0
1329 0 0 0
1340 0 0 0
1347 0 0 0
1349 0 0 0
1359 0 0 0
1361 0 0 0
1371 0 0 0
1373 0 0 0
1388 0 0 0
1401 0 0 0
1407 0 0 0
1409 0 0 0
1419 0 0 0
1421 0 0 0
1413 0 0 0
1230 0 0 0
1237 0 0 0
1246 0 0 0
1254 0 0 0
1259 0 0 0
1264 0 0 0
1268 0 0 0
1271 0 0 0
1281 0 0 0
1286 0 0 0
1309 0 0 0
1318 0 0 0
1326 0 0 0
1331 0 0 0
1333 0 0 0
1353 0 0 0
1358 0 0 0
1377 0 0 0
1378 0 0 0
1381 0 0 0
1390 0 0 0
1398 0 0 0
1403 0 0 0
419 0 0 0
624 0 0 0
429 0 0 0
434 0 0 0
457 0 0 0
466 0 0 0
474 0 0 0
479 0 0 0
484 0 0 0
488 0 0 0
491 0 0 0
501 0 0 0
506 0 0 0
525 0 0 0
526 0 0 0
529 0 0 0
538 0 0 0
546 0 0 0
551 0 0 0
553 0 0 0
573 0 0 0
578 0 0 0
589 0 0 0
598 0 0 0
606 0 0 0
611 0 0 0
609 0 0 0
423 0 0 0
425 0 0 0
435 0 0 0
437 0 0 0
446 0 0 0
451 0 0 0
464 0 0 0
477 0 0 0
490 0 0 0
495 0 0 0
497 0 0 0
507 0 0 0
509 0 0 0
519 0 0 0
521 0 0 0
536 0 0 0
549 0 0 0
560 0 0 0
567 0 0 0
569 0 0 0
579 0 0 0
581 0 0 0
596 0 0 0
617 0 0 0
1226 0 0 0
588 0 0 0
426 0 0 0
431 0 0 0
433 0 0 0
442 0 0 0
447 0 0 0
453 0 0 0
458 0 0 0
476 0 0 0
492 0 0 0
498 0 0 0
503 0 0 0
505 0 0 0
514 0 0 0
518 0 0 0
522 0 0 0
530 0 0 0
548 0 0 0
563 0 0 0
570 0 0 0
575 0 0 0
577 0 0 0
586 0 0 0
590 0 0 0
608 0 0 0
424 0 0 0
427 0 0 0
432 0 0 0
436 0 0 0
439 0 0 0
444 0 0 0
445 0 0 0
449 0 0 0
450 0 0 0
496 0 0 0
499 0 0 0
504 0 0 0
508 0 0 0
511 0 0 0
516 0 0 0
520 0 0 0
523 0 0 0
528 0 0 0
568 0 0 0
571 0 0 0
576 0 0 0
580 0 0 0
583 0 0 0
616 0 0 0
1231 0 0 0
1227 0 0 0
1440 0 0 0
1245 0 0 0
1250 0 0 0
1273 0 0 0
1282 0 0 0
1290 0 0 0
1295 0 0 0
1300 0 0 0
1304 0 0 0
1307 0 0 0
1317 0 0 0
1322 0 0 0
1341 0 0 0
1342 0 0 0
1345 0 0 0
1354 0 0 0
1362 0 0 0
1367 0 0 0
1369 0 0 0
1389 0 0 0
1394 0 0 0
1405 0 0 0
1414 0 0 0
1422 0 0 0
1427 0 0 0
1425 0 0 0
1239 0 0 0
1241 0 0 0
1251 0 0 0
1253 0 0 0
1262 0 0 0
1267 0 0 0
1280 0 0 0
1293 0 0 0
1306 0 0 0
1311 0 0 0
1313 0 0 0
1323 0 0 0
1325 0 0 0
1335 0 0 0
1337 0 0 0
1352 0 0 0
1365 0 0 0
1376 0 0 0
1383 0 0 0
1385 0 0 0
1395 0 0 0
1397 0 0 0
1412 0 0 0
1433 0 0 0
1404 0 0 0
1399 0 0 0
1242 0 0 0
1247 0 0 0
1249 0 0 0
1258 0 0 0
1263 0 0 0
1269 0 0 0
1274 0 0 0
1292 0 0 0
1308 0 0 0
1314 0 0 0
1319 0 0 0
1321 0 0 0
1330 0 0 0
1334 0 0 0
1338 0 0 0
1346 0 0 0
1364 0 0 0
1379 0 0 0
1386 0 0 0
1391 0 0 0
1393 0 0 0
1402 0 0 0
1406 0 0 0
1424 0 0 0
410 0 0 0
1240 0 0 0
1243 0 0 0
1248 0 0 0
1252 0 0 0
1255 0 0 0
1260 0 0 0
1261 0 0 0
1265 0 0 0
1266 0 0 0
1312 0 0 0
1315 0 0 0
1320 0 0 0
1324 0 0 0
1327 0 0 0
1332 0 0 0
1336 0 0 0
1339 0 0 0
1344 0 0 0
1384 0 0 0
1387 0 0 0
1392 0 0 0
1396 0 0 0
1432 0 0 0
415 0 0 0
411 0 0 0
214 0 0 0
256 0 0 0
259 0 0 0
264 0 0 0
268 0 0 0
271 0 0 0
276 0 0 0
277 0 0 0
281 0 0 0
282 0 0 0
328 0 0 0
331 0 0 0
336 0 0 0
340 0 0 0
343 0 0 0
348 0 0 0
352 0 0 0
355 0 0 0
360 0 0 0
388 0 0 0
391 0 0 0
396 0 0 0
400 0 0 0
403 0 0 0
408 0 0 0
9 0 0 0
406 0 0 0
397 0 0 0
218 0 0 0
236 0 0 0
252 0 0 0
258 0 0 0
263 0 0 0
265 0 0 0
274 0 0 0
279 0 0 0
285 0 0 0
290 0 0 0
308 0 0 0
323 0 0 0
330 0 0 0
335 0 0 0
337 0 0 0
346 0 0 0
350 0 0 0
354 0 0 0
362 0 0 0
380 0 0 0
390 0 0 0
395 0 0 0
212 0 0 0
205 0 0 0
398 0 0 0
224 0 0 0
237 0 0 0
250 0 0 0
255 0 0 0
257 0 0 0
267 0 0 0
269 0 0 0
278 0 0 0
283 0 0 0
296 0 0 0
309 0 0 0
320 0 0 0
327 0 0 0
329 0 0 0
339 0 0 0
341 0 0 0
351 0 0 0
353 0 0 0
368 0 0 0
381 0 0 0
387 0 0 0
389 0 0 0
399 0 0 0
401 0 0 0
393 0 0 0
210 0 0 0
217 0 0 0
226 0 0 0
234 0 0 0
239 0 0 0
244 0 0 0
248 0 0 0
251 0 0 0
261 0 0 0
266 0 0 0
289 0 0 0
298 0 0 0
306 0 0 0
311 0 0 0
313 0 0 0
333 0 0 0
338 0 0 0
357 0 0 0
358 0 0 0
361 0 0 0
370 0 0 0
378 0 0 0
383 0 0 0
1031 0 0 0
1030 0 0 0
1072 0 0 0
1075 0 0 0
1080 0 0 0
1084 0 0 0
1087 0 0 0
1092 0 0 0
1093 0 0 0
1097 0 0 0
1098 0 0 0
1144 0 0 0
1147 0 0 0
1152 0 0 0
1156 0 0 0
1159 0 0 0
1164 0 0 0
1168 0 0 0
1171 0 0 0
1176 0 0 0
1204 0 0 0
1207 0 0 0
1212 0 0 0
1216 0 0 0
1219 0 0 0
1224 0 0 0
825 0 0 0
1222 0 0 0
1213 0 0 0
1034 0 0 0
1052 0 0 0
1068 0 0 0
1074 0 0 0
1079 0 0 0
1081 0 0 0
1090 0 0 0
1095 0 0 0
1101 0 0 0
1106 0 0 0
1124 0 0 0
1139 0 0 0
1146 0 0 0
1151 0 0 0
1153 0 0 0
1162 0 0 0
1166 0 0 0
1170 0 0 0
1178 0 0 0
1196 0 0 0
1206 0 0 0
1211 0 0 0
1028 0 0 0
1021 0 0 0
1214 0 0 0
1040 0 0 0
1053 0 0 0
1066 0 0 0
1071 0 0 0
1073 0 0 0
1083 0 0 0
1085 0 0 0
1094 0 0 0
1099 0 0 0
1112 0 0 0
1125 0 0 0
1136 0 0 0
1143 0 0 0
1145 0 0 0
1155 0 0 0
1157 0 0 0
1167 0 0 0
1169 0 0 0
1184 0 0 0
1197 0 0 0
1203 0 0 0
1205 0 0 0
1215 0 0 0
1217 0 0 0
1209 0 0 0
1026 0 0 0
1033 0 0 0
1042 0 0 0
1050 0 0 0
1055 0 0 0
1060 0 0 0
1064 0 0 0
1067 0 0 0
1077 0 0 0
1082 0 0 0
1105 0 0 0
1114 0 0 0
1122 0 0 0
1127 0 0 0
1129 0 0 0
1149 0 0 0
1154 0 0 0
1173 0 0 0
1174 0 0 0
1177 0 0 0
1186 0 0 0
1194 0 0 0
1199 0 0 0
215 0 0 0
12 0 0 0
225 0 0 0
230 0 0 0
253 0 0 0
262 0 0 0
270 0 0 0
275 0 0 0
280 0 0 0
284 0 0 0
287 0 0 0
297 0 0 0
302 0 0 0
321 0 0 0
322 0 0 0
325 0 0 0
334 0 0 0
342 0 0 0
347 0 0 0
349 0 0 0
369 0 0 0
374 0 0 0
385 0 0 0
394 0 0 0
402 0 0 0
407 0 0 0
405 0 0 0
219 0 0 0
221 0 0 0
231 0 0 0
233 0 0 0
242 0 0 0
247 0 0 0
260 0 0 0
273 0 0 0
286 0 0 0
291 0 0 0
293 0 0 0
303 0 0 0
305 0 0 0
315 0 0 0
317 0 0 0
332 0 0 0
345 0 0 0
356 0 0 0
363 0 0 0
365 0 0 0
375 0 0 0
377 0 0 0
392 0 0 0
5 0 0 0
1022 0 0 0
384 0 0 0
222 0 0 0
227 0 0 0
229 0 0 0
238 0 0 0
243 0 0 0
249 0 0 0
254 0 0 0
272 0 0 0
288 0 0 0
294 0 0 0
299 0 0 0
301 0 0 0
310 0 0 0
314 0 0 0
318 0 0 0
326 0 0 0
344 0 0 0
359 0 0 0
366 0 0 0
371 0 0 0
373 0 0 0
382 0 0 0
386 0 0 0
404 0 0 0
220 0 0 0
223 0 0 0
228 0 0 0
232 0 0 0
235 0 0 0
240 0 0 0
241 0 0 0
245 0 0 0
246 0 0 0
292 0 0 0
295 0 0 0
300 0 0 0
304 0 0 0
307 0 0 0
312 0 0 0
316 0 0 0
319 0 0 0
324 0 0 0
364 0 0 0
367 0 0 0
372 0 0 0
376 0 0 0
379 0 0 0
4 0 0 0
1027 0 0 0
1023 0 0 0
828 0 0 0
1041 0 0 0
1046 0 0 0
1069 0 0 0
1078 0 0 0
1086 0 0 0
1091 0 0 0
1096 0 0 0
1100 0 0 0
1103 0 0 0
1113 0 0 0
1118 0 0 0
1137 0 0 0
1138 0 0 0
1141 0 0 0
1150 0 0 0
1158 0 0 0
1163 0 0 0
1165 0 0 0
1185 0 0 0
1190 0 0 0
1201 0 0 0
1210 0 0 0
1218 0 0 0
1223 0 0 0
1221 0 0 0
1035 0 0 0
1037 0 0 0
1047 0 0 0
1049 0 0 0
1058 0 0 0
1063 0 0 0
1076 0 0 0
1089 0 0 0
1102 0 0 0
1107 0 0 0
1109 0 0 0
1119 0 0 0
1121 0 0 0
1131 0 0 0
1133 0 0 0
1148 0 0 0
1161 0 0 0
1172 0 0 0
1179 0 0 0
1181 0 0 0
1191 0 0 0
1193 0 0 0
1208 0 0 0
821 0 0 0
1200 0 0 0
1195 0 0 0
1038 0 0 0
1043 0 0 0
1045 0 0 0
1054 0 0 0
1059 0 0 0
1065 0 0 0
1070 0 0 0
1088 0 0 0
1104 0 0 0
1110 0 0 0
1115 0 0 0
1117 0 0 0
1126 0 0 0
1130 0 0 0
1134 0 0 0
1142 0 0 0
1160 0 0 0
1175 0 0 0
1182 0 0 0
1187 0 0 0
1189 0 0 0
1198 0 0 0
1202 0 0 0
1220 0 0 0
206 0 0 0
1036 0 0 0
1039 0 0 0
1044 0 0 0
1048 0 0 0
1051 0 0 0
1056 0 0 0
1057 0 0 0
1061 0 0 0
1062 0 0 0
1108 0 0 0
1111 0 0 0
1116 0 0 0
1120 0 0 0
1123 0 0 0
1128 0 0 0
1132 0 0 0
1135 0 0 0
1140 0 0 0
1180 0 0 0
1183 0 0 0
1188 0 0 0
1192 0 0 0
820 0 0 0
211 0 0 0
207 0 0 0
622 0 0 0
664 0 0 0
667 0 0 0
672 0 0 0
676 0 0 0
679 0 0 0
684 0 0 0
685 0 0 0
689 0 0 0
690 0 0 0
736 0 0 0
739 0 0 0
744 0 0 0
748 0 0 0
751 0 0 0
756 0 0 0
760 0 0 0
763 0 0 0
768 0 0 0
796 0 0 0
799 0 0 0
804 0 0 0
808 0 0 0
811 0 0 0
816 0 0 0
417 0 0 0
814 0 0 0
805 0 0 0
626 0 0 0
644 0 0 0
660 0 0 0
666 0 0 0
671 0 0 0
673 0 0 0
682 0 0 0
687 0 0 0
693 0 0 0
698 0 0 0
716 0 0 0
731 0 0 0
738 0 0 0
743 0 0 0
745 0 0 0
754 0 0 0
758 0 0 0
762 0 0 0
770 0 0 0
788 0 0 0
798 0 0 0
803 0 0 0
620 0 0 0
613 0 0 0
806 0 0 0
632 0 0 0
645 0 0 0
658 0 0 0
663 0 0 0
665 0 0 0
675 0 0 0
677 0 0 0
686 0 0 0
691 0 0 0
704 0 0 0
717 0 0 0
728 0 0 0
735 0 0 0
737 0 0 0
747 0 0 0
749 0 0 0
759 0 0 0
761 0 0 0
776 0 0 0
789 0 0 0
795 0 0 0
797 0 0 0
807 0 0 0
809 0 0 0
801 0 0 0
618 0 0 0
625 0 0 0
634 0 0 0
642 0 0 0
647 0 0 0
652 0 0 0
656 0 0 0
659 0 0 0
669 0 0 0
674 0 0 0
697 0 0 0
706 0 0 0
714 0 0 0
719 0 0 0
721 0 0 0
741 0 0 0
746 0 0 0
765 0 0 0
766 0 0 0
769 0 0 0
778 0 0 0
786 0 0 0
791 0 0 0
1439 0 0 0
1438 0 0 0
1480 0 0 0
1483 0 0 0
1488 0 0 0
1492 0 0 0
1495 0 0 0
1500 0 0 0
1501 0 0 0
1505 0 0 0
1506 0 0 0
1552 0 0 0
1555 0 0 0
1560 0 0 0
1564 0 0 0
1567 0 0 0
1572 0 0 0
1576 0 0 0
1579 0 0 0
1584 0 0 0
1612 0 0 0
1615 0 0 0
1620 0 0 0
1624 0 0 0
1627 0 0 0
1632 0 0 0
1233 0 0 0
1630 0 0 0
1621 0 0 0
1442 0 0 0
1460 0 0 0
1476 0 0 0
1482 0 0 0
1487 0 0 0
1489 0 0 0
1498 0 0 0
1503 0 0 0
1509 0 0 0
1514 0 0 0
1532 0 0 0
1547 0 0 0
1554 0 0 0
1559 0 0 0
1561 0 0 0
1570 0 0 0
1574 0 0 0
1578 0 0 0
1586 0 0 0
1604 0 0 0
1614 0 0 0
1619 0 0 0
1436 0 0 0
1429 0 0 0
1622 0 0 0
1448 0 0 0
1461 0 0 0
1474 0 0 0
1479 0 0 0
1481 0 0 0
1491 0 0 0
1493 0 0 0
1502 0 0 0
1507 0 0 0
1520 0 0 0
1533 0 0 0
1544 0 0 0
1551 0 0 0
1553 0 0 0
1563 0 0 0
1565 0 0 0
1575 0 0 0
1577 0 0 0
1592 0 0 0
1605 0 0 0
1611 0 0 0
1613 0 0 0
1623 0 0 0
1625 0 0 0
1617 0 0 0
1434 0 0 0
1441 0 0 0
1450 0 0 0
1458 0 0 0
1463 0 0 0
1468 0 0 0
1472 0 0 0
1475 0 0 0
1485 0 0 0
1490 0 0 0
1513 0 0 0
1522 0 0 0
1530 0 0 0
1535 0 0 0
1537 0 0 0
1557 0 0 0
1562 0 0 0
1581 0 0 0
1582 0 0 0
1585 0 0 0
1594 0 0 0
1602 0 0 0
1607 0 0 0
623 0 0 0
420 0 0 0
633 0 0 0
638 0 0 0
661 0 0 0
670 0 0 0
678 0 0 0
683 0 0 0
688 0 0 0
692 0 0 0
695 0 0 0
705 0 0 0
710 0 0 0
729 0 0 0
730 0 0 0
733 0 0 0
742 0 0 0
750 0 0 0
755 0 0 0
757 0 0 0
777 0 0 0
782 0 0 0
793 0 0 0
802 0 0 0
810 0 0 0
815 0 0 0
813 0 0 0
627 0 0 0
629 0 0 0
639 0 0 0
641 0 0 0
650 0 0 0
655 0 0 0
668 0 0 0
681 0 0 0
694 0 0 0
699 0 0 0
701 0 0 0
711 0 0 0
713 0 0 0
723 0 0 0
725 0 0 0
740 0 0 0
753 0 0 0
764 0 0 0
771 0 0 0
773 0 0 0
783 0 0 0
785 0 0 0
800 0 0 0
413 0 0 0
1430 0 0 0
792 0 0 0
630 0 0 0
635 0 0 0
637 0 0 0
646 0 0 0
651 0 0 0
657 0 0 0
662 0 0 0
680 0 0 0
696 0 0 0
702 0 0 0
707 0 0 0
709 0 0 0
718 0 0 0
722 0 0 0
726 0 0 0
734 0 0 0
752 0 0 0
767 0 0 0
774 0 0 0
779 0 0 0
781 0 0 0
790 0 0 0
794 0 0 0
812 0 0 0
628 0 0 0
631 0 0 0
636 0 0 0
640 0 0 0
643 0 0 0
648 0 0 0
649 0 0 0
653 0 0 0
654 0 0 0
700 0 0 0
703 0 0 0
708 0 0 0
712 0 0 0
715 0 0 0
720 0 0 0
724 0 0 0
727 0 0 0
732 0 0 0
772 0 0 0
775 0 0 0
780 0 0 0
784 0 0 0
787 0 0 0
412 0 0 0
1435 0 0 0
1431 0 0 0
1236 0 0 0
1449 0 0 0
1454 0 0 0
1477 0 0 0
1486 0 0 0
1494 0 0 0
1499 0 0 0
1504 0 0 0
1508 0 0 0
1511 0 0 0
1521 0 0 0
1526 0 0 0
1545 0 0 0
1546 0 0 0
1549 0 0 0
1558 0 0 0
1566 0 0 0
1571 0 0 0
1573 0 0 0
1593 0 0 0
1598 0 0 0
1609 0 0 0
1618 0 0 0
1626 0 0 0
1631 0 0 0
1629 0 0 0
1443 0 0 0
1445 0 0 0
1455 0 0 0
1457 0 0 0
1466 0 0 0
1471 0 0 0
1484 0 0 0
1497 0 0 0
1510 0 0 0
1515 0 0 0
1517 0 0 0
1527 0 0 0
1529 0 0 0
1539 0 0 0
1541 0 0 0
1556 0 0 0
1569 0 0 0
1580 0 0 0
1587 0 0 0
1589 0 0 0
1599 0 0 0
1601 0 0 0
1616 0 0 0
1229 0 0 0
1608 0 0 0
1603 0 0 0
1446 0 0 0
1451 0 0 0
1453 0 0 0
1462 0 0 0
1467 0 0 0
1473 0 0 0
1478 0 0 0
1496 0 0 0
1512 0 0 0
1518 0 0 0
1523 0 0 0
1525 0 0 0
1534 0 0 0
1538 0 0 0
1542 0 0 0
1550 0 0 0
1568 0 0 0
1583 0 0 0
1590 0 0 0
1595 0 0 0
1597 0 0 0
1606 0 0 0
1610 0 0 0
1628 0 0 0
614 0 0 0
1444 0 0 0
1447 0 0 0
1452 0 0 0
1456 0 0 0
1459 0 0 0
1464 0 0 0
1465 0 0 0
1469 0 0 0
1470 0 0 0
1516 0 0 0
1519 0 0 0
1524 0 0 0
1528 0 0 0
1531 0 0 0
1536 0 0 0
1540 0 0 0
1543 0 0 0
1548 0 0 0
1588 0 0 0
1591 0 0 0
1596 0 0 0
1600 0 0 0
1228 0 0 0
619 0 0 0
615 0 0 0

Bonds

1 1 10 186
2 1 10 598
3 1 10 609
4 1 10 204
5 2 52 124
6 2 55 127
7 2 60 132
8 2 64 136
9 2 67 139
10 2 72 144
11 3 73 149
12 3 77 150
13 3 78 145
14 4 124 144
15 5 124 184
16 4 127 139
17 5 127 187
18 4 132 136
19 5 132 192
20 5 136 196
21 5 139 199
22 5 144 204
23 3 148 488
24 6 148 184
25 6 148 204
26 3 151 890
27 6 151 187
28 6 151 199
29 3 156 285
30 6 156 192
31 6 156 196
32 1 213 389
33 1 213 400
34 2 14 86
35 2 32 104
36 3 48 519
37 2 54 126
38 2 59 131
39 2 61 133
40 2 70 142
41 3 75 969
42 3 81 360
43 4 86 142
44 5 86 158
45 4 104 131
46 5 104 176
47 6 119 176
48 6 119 191
49 4 126 133
50 5 126 186
51 5 131 191
52 5 133 193
53 5 142 202
54 6 146 158
55 6 146 202
56 6 150 186
57 6 150 193
58 1 191 213
59 1 202 216
60 1 8 590
61 1 8 184
62 1 8 197
63 1 8 611
64 1 1 157
65 1 1 567
66 1 1 583
67 1 1 176
68 1 194 213
69 2 20 92
70 2 33 105
71 3 46 518
72 2 51 123
73 2 53 125
74 2 63 135
75 2 65 137
76 3 74 967
77 3 79 358
78 4 92 135
79 5 92 164
80 4 105 123
81 5 105 177
82 6 116 164
83 6 116 195
84 5 123 183
85 4 125 137
86 5 125 185
87 5 135 195
88 5 137 197
89 6 147 177
90 6 147 183
91 6 149 185
92 6 149 197
93 1 183 823
94 1 195 827
95 1 189 827
96 1 6 164
97 1 6 576
98 1 6 174
99 1 6 586
100 2 13 85
101 2 22 94
102 2 30 102
103 2 35 107
104 3 40 119
105 3 44 112
106 3 47 116
107 2 57 129
108 2 62 134
109 4 85 102
110 5 85 157
111 4 94 134
112 5 94 166
113 5 102 174
114 4 107 129
115 5 107 179
116 3 109 450
117 6 109 157
118 6 109 174
119 5 129 189
120 5 134 194
121 3 153 891
122 6 153 179
123 6 153 189
124 3 154 283
125 6 154 166
126 6 154 194
127 1 166 208
128 1 179 818
129 1 827 1003
130 1 827 1009
131 1 826 1002
132 1 826 1414
133 1 826 1425
134 1 826 1020
135 2 868 940
136 2 871 943
137 2 876 948
138 2 880 952
139 2 883 955
140 2 888 960
141 3 889 965
142 3 893 966
143 3 894 961
144 4 940 960
145 5 940 1000
146 4 943 955
147 5 943 1003
148 4 948 952
149 5 948 1008
150 5 952 1012
151 5 955 1015
152 5 960 1020
153 3 964 1304
154 6 964 1000
155 6 964 1020
156 6 967 1003
157 6 967 1015
158 3 972 1101
159 6 972 1008
160 6 972 1012
161 1 1029 1205
162 1 1029 1216
163 2 830 902
164 2 848 920
165 3 864 1335
166 2 870 942
167 2 875 947
168 2 877 949
169 2 886 958
170 3 897 1176
171 4 902 958
172 5 902 974
173 4 920 947
174 5 920 992
175 6 935 992
176 6 935 1007
177 4 942 949
178 5 942 1002
179 5 947 1007
180 5 949 1009
181 5 958 1018
182 6 962 974
183 6 962 1018
184 6 966 1002
185 6 966 1009
186 1 1007 1029
187 1 1018 1032
188 1 824 1406
189 1 824 1000
190 1 824 1013
191 1 824 1427
192 1 817 973
193 1 817 1383
194 1 817 1399
195 1 817 992
196 1 1010 1029
197 2 836 908
198 2 849 921
199 3 862 1334
200 2 867 939
201 2 869 941
202 2 879 951
203 2 881 953
204 3 895 1174
205 4 908 951
206 5 908 980
207 4 921 939
208 5 921 993
209 6 932 980
210 6 932 1011
211 5 939 999
212 4 941 953
213 5 941 1001
214 5 951 1011
215 5 953 1013
216 6 963 993
217 6 963 999
218 6 965 1001
219 6 965 1013
220 1 822 980
221 1 822 1392
222 1 822 990
223 1 822 1402
224 2 829 901
225 2 838 910
226 2 846 918
227 2 851 923
228 3 856 935
229 3 860 928
230 3 863 932
231 2 873 945
232 2 878 950
233 4 901 918
234 5 901 973
235 4 910 950
236 5 910 982
237 5 918 990
238 4 923 945
239 5 923 995
240 3 925 1266
241 6 925 973
242 6 925 990
243 5 945 1005
244 5 950 1010
245 6 969 995
246 6 969 1005
247 3 970 1099
248 6 970 982
249 6 970 1010
250 1 982 1024
251 1 11 187
252 1 11 1005
253 1 11 193
254 1 11 1011
255 1 216 396
256 1 216 402
257 2 21 93
258 2 26 98
259 2 49 121
260 2 58 130
261 2 66 138
262 2 71 143
263 3 76 971
264 3 80 556
265 3 83 356
266 4 93 143
267 5 93 165
268 4 98 130
269 5 98 170
270 6 117 165
271 6 117 203
272 6 118 170
273 6 118 190
274 4 121 138
275 5 121 181
276 5 130 190
277 5 138 198
278 5 143 203
279 6 145 181
280 6 145 198
281 1 190 418
282 1 203 416
283 1 201 418
284 2 15 87
285 2 17 89
286 2 27 99
287 2 29 101
288 3 38 115
289 3 43 118
290 2 56 128
291 2 69 141
292 3 82 146
293 4 87 141
294 5 87 159
295 4 89 101
296 5 89 161
297 4 99 128
298 5 99 171
299 5 101 173
300 3 111 456
301 6 111 159
302 6 111 201
303 3 113 853
304 6 113 161
305 6 113 173
306 5 128 188
307 5 141 201
308 3 152 287
309 6 152 171
310 6 152 188
311 1 159 409
312 1 171 209
313 1 188 216
314 1 209 369
315 1 209 373
316 1 818 974
317 1 818 989
318 1 180 208
319 2 18 90
320 2 23 95
321 2 25 97
322 2 34 106
323 3 39 117
324 3 45 120
325 2 50 122
326 2 68 140
327 3 84 147
328 4 90 97
329 5 90 162
330 4 95 140
331 5 95 167
332 5 97 169
333 4 106 122
334 5 106 178
335 3 110 454
336 6 110 178
337 6 110 182
338 3 114 245
339 6 114 162
340 6 114 169
341 5 122 182
342 5 140 200
343 3 155 892
344 6 155 167
345 6 155 200
346 1 167 819
347 1 178 414
348 1 182 416
349 1 200 823
350 2 16 88
351 2 19 91
352 2 24 96
353 2 28 100
354 2 31 103
355 2 36 108
356 3 37 929
357 3 41 318
358 3 42 517
359 4 88 108
360 5 88 160
361 4 91 103
362 5 91 163
363 4 96 100
364 5 96 168
365 5 100 172
366 5 103 175
367 5 108 180
368 6 112 160
369 6 112 180
370 6 115 163
371 6 115 175
372 6 120 168
373 6 120 172
374 1 160 818
375 1 163 209
376 1 168 414
377 1 172 819
378 1 175 409
379 1 208 366
380 1 208 381
381 1 823 997
382 1 823 1015
383 1 819 977
384 1 819 986
385 1 1032 1212
386 1 1032 1218
387 2 837 909
388 2 842 914
389 2 865 937
390 2 874 946
391 2 882 954
392 2 887 959
393 3 896 1372
394 3 899 1172
395 4 909 959
396 5 909 981
397 4 914 946
398 5 914 986
399 6 933 981
400 6 933 1019
401 6 934 986
402 6 934 1006
403 4 937 954
404 5 937 997
405 5 946 1006
406 5 954 1014
407 5 959 1019
408 6 961 997
409 6 961 1014
410 1 1006 1234
411 1 1019 1232
412 1 1017 1234
413 2 831 903
414 2 833 905
415 2 843 915
416 2 845 917
417 3 854 931
418 3 859 934
419 2 872 944
420 2 885 957
421 3 898 962
422 4 903 957
423 5 903 975
424 4 905 917
425 5 905 977
426 4 915 944
427 5 915 987
428 5 917 989
429 3 927 1272
430 6 927 975
431 6 927 1017
432 6 929 977
433 6 929 989
434 5 944 1004
435 5 957 1017
436 3 968 1103
437 6 968 987
438 6 968 1004
439 1 975 1225
440 1 987 1025
441 1 1004 1032
442 1 1025 1185
443 1 1025 1189
444 1 996 1024
445 1 991 1225
446 2 834 906
447 2 839 911
448 2 841 913
449 2 850 922
450 3 855 933
451 3 861 936
452 2 866 938
453 2 884 956
454 3 900 963
455 4 906 913
456 5 906 978
457 4 911 956
458 5 911 983
459 5 913 985
460 4 922 938
461 5 922 994
462 3 926 1270
463 6 926 994
464 6 926 998
465 3 930 1061
466 6 930 978
467 6 930 985
468 5 938 998
469 5 956 1016
470 6 971 983
471 6 971 1016
472 1 994 1230
473 1 998 1232
474 1 2 158
475 1 2 976
476 1 2 173
477 1 2 995
478 2 832 904
479 2 835 907
480 2 840 912
481 2 844 916
482 2 847 919
483 2 852 924
484 3 857 1134
485 3 858 1333
486 4 904 924
487 5 904 976
488 4 907 919
489 5 907 979
490 4 912 916
491 5 912 984
492 5 916 988
493 5 919 991
494 5 924 996
495 6 928 976
496 6 928 996
497 6 931 979
498 6 931 991
499 6 936 984
500 6 936 988
501 1 979 1025
502 1 984 1230
503 1 1024 1182
504 1 1024 1197
505 1 7 181
506 1 7 999
507 1 7 199
508 1 7 1016
509 1 3 161
510 1 3 983
511 1 3 170
512 1 3 988
513 1 418 594
514 1 418 612
515 2 460 532
516 2 463 535
517 2 468 540
518 2 472 544
519 2 475 547
520 2 480 552
521 3 481 557
522 3 485 558
523 3 486 553
524 4 532 552
525 5 532 592
526 4 535 547
527 5 535 595
528 4 540 544
529 5 540 600
530 5 544 604
531 5 547 607
532 5 552 612
533 6 556 592
534 6 556 612
535 3 559 1298
536 6 559 595
537 6 559 607
538 3 564 693
539 6 564 600
540 6 564 604
541 1 621 797
542 1 621 808
543 2 422 494
544 2 440 512
545 2 462 534
546 2 467 539
547 2 469 541
548 2 478 550
549 3 483 1377
550 3 489 768
551 4 494 550
552 5 494 566
553 4 512 539
554 5 512 584
555 6 527 584
556 6 527 599
557 4 534 541
558 5 534 594
559 5 539 599
560 5 541 601
561 5 550 610
562 6 554 566
563 6 554 610
564 6 558 594
565 6 558 601
566 1 599 621
567 1 610 624
568 1 416 592
569 1 416 605
570 1 409 565
571 1 409 584
572 1 602 621
573 2 428 500
574 2 441 513
575 2 459 531
576 2 461 533
577 2 471 543
578 2 473 545
579 3 482 1375
580 3 487 766
581 4 500 543
582 5 500 572
583 4 513 531
584 5 513 585
585 6 524 572
586 6 524 603
587 5 531 591
588 4 533 545
589 5 533 593
590 5 543 603
591 5 545 605
592 6 555 585
593 6 555 591
594 6 557 593
595 6 557 605
596 1 591 1231
597 1 603 1235
598 1 597 1235
599 1 414 572
600 1 414 582
601 2 421 493
602 2 430 502
603 2 438 510
604 2 443 515
605 3 448 527
606 3 452 520
607 3 455 524
608 2 465 537
609 2 470 542
610 4 493 510
611 5 493 565
612 4 502 542
613 5 502 574
614 5 510 582
615 4 515 537
616 5 515 587
617 6 517 565
618 6 517 582
619 5 537 597
620 5 542 602
621 3 561 1299
622 6 561 587
623 6 561 597
624 3 562 691
625 6 562 574
626 6 562 602
627 1 574 616
628 1 587 1226
629 1 1235 1411
630 1 1235 1417
631 1 1234 1410
632 1 1234 1428
633 2 1276 1348
634 2 1279 1351
635 2 1284 1356
636 2 1288 1360
637 2 1291 1363
638 2 1296 1368
639 3 1297 1373
640 3 1301 1374
641 3 1302 1369
642 4 1348 1368
643 5 1348 1408
644 4 1351 1363
645 5 1351 1411
646 4 1356 1360
647 5 1356 1416
648 5 1360 1420
649 5 1363 1423
650 5 1368 1428
651 6 1372 1408
652 6 1372 1428
653 6 1375 1411
654 6 1375 1423
655 3 1380 1509
656 6 1380 1416
657 6 1380 1420
658 1 1437 1613
659 1 1437 1624
660 2 1238 1310
661 2 1256 1328
662 2 1278 1350
663 2 1283 1355
664 2 1285 1357
665 2 1294 1366
666 3 1305 1584
667 4 1310 1366
668 5 1310 1382
669 4 1328 1355
670 5 1328 1400
671 6 1343 1400
672 6 1343 1415
673 4 1350 1357
674 5 1350 1410
675 5 1355 1415
676 5 1357 1417
677 5 1366 1426
678 6 1370 1382
679 6 1370 1426
680 6 1374 1410
681 6 1374 1417
682 1 1415 1437
683 1 1426 1440
684 1 1232 1408
685 1 1232 1421
686 1 1225 1381
687 1 1225 1400
688 1 1418 1437
689 2 1244 1316
690 2 1257 1329
691 2 1275 1347
692 2 1277 1349
693 2 1287 1359
694 2 1289 1361
695 3 1303 1582
696 4 1316 1359
697 5 1316 1388
698 4 1329 1347
699 5 1329 1401
700 6 1340 1388
701 6 1340 1419
702 5 1347 1407
703 4 1349 1361
704 5 1349 1409
705 5 1359 1419
706 5 1361 1421
707 6 1371 1401
708 6 1371 1407
709 6 1373 1409
710 6 1373 1421
711 1 1230 1388
712 1 1230 1398
713 2 1237 1309
714 2 1246 1318
715 2 1254 1326
716 2 1259 1331
717 3 1264 1343
718 3 1268 1336
719 3 1271 1340
720 2 1281 1353
721 2 1286 1358
722 4 1309 1326
723 5 1309 1381
724 4 1318 1358
725 5 1318 1390
726 5 1326 1398
727 4 1331 1353
728 5 1331 1403
729 6 1333 1381
730 6 1333 1398
731 5 1353 1413
732 5 1358 1418
733 6 1377 1403
734 6 1377 1413
735 3 1378 1507
736 6 1378 1390
737 6 1378 1418
738 1 1390 1432
739 1 419 595
740 1 419 1413
741 1 419 601
742 1 419 1419
743 1 624 804
744 1 624 810
745 2 429 501
746 2 434 506
747 2 457 529
748 2 466 538
749 2 474 546
750 2 479 551
751 3 484 1379
752 3 491 764
753 4 501 551
754 5 501 573
755 4 506 538
756 5 506 578
757 6 525 573
758 6 525 611
759 6 526 578
760 6 526 598
761 4 529 546
762 5 529 589
763 5 538 598
764 5 546 606
765 5 551 611
766 6 553 589
767 6 553 606
768 2 423 495
769 2 425 497
770 2 435 507
771 2 437 509
772 3 446 523
773 3 451 526
774 2 464 536
775 2 477 549
776 3 490 554
777 4 495 549
778 5 495 567
779 4 497 509
780 5 497 569
781 4 507 536
782 5 507 579
783 5 509 581
784 6 519 567
785 6 519 609
786 3 521 1261
787 6 521 569
788 6 521 581
789 5 536 596
790 5 549 609
791 3 560 695
792 6 560 579
793 6 560 596
794 1 579 617
795 1 596 624
796 1 617 777
797 1 617 781
798 1 1226 1382
799 1 1226 1397
800 1 588 616
801 2 426 498
802 2 431 503
803 2 433 505
804 2 442 514
805 3 447 525
806 3 453 528
807 2 458 530
808 2 476 548
809 3 492 555
810 4 498 505
811 5 498 570
812 4 503 548
813 5 503 575
814 5 505 577
815 4 514 530
816 5 514 586
817 6 518 586
818 6 518 590
819 3 522 653
820 6 522 570
821 6 522 577
822 5 530 590
823 5 548 608
824 3 563 1300
825 6 563 575
826 6 563 608
827 1 575 1227
828 1 608 1231
829 2 424 496
830 2 427 499
831 2 432 504
832 2 436 508
833 2 439 511
834 2 444 516
835 3 445 1337
836 3 449 726
837 4 496 516
838 5 496 568
839 4 499 511
840 5 499 571
841 4 504 508
842 5 504 576
843 5 508 580
844 5 511 583
845 5 516 588
846 6 520 568
847 6 520 588
848 6 523 571
849 6 523 583
850 6 528 576
851 6 528 580
852 1 568 1226
853 1 571 617
854 1 580 1227
855 1 616 774
856 1 616 789
857 1 1231 1405
858 1 1231 1423
859 1 1227 1385
860 1 1227 1394
861 1 1440 1620
862 1 1440 1626
863 2 1245 1317
864 2 1250 1322
865 2 1273 1345
866 2 1282 1354
867 2 1290 1362
868 2 1295 1367
869 3 1307 1580
870 4 1317 1367
871 5 1317 1389
872 4 1322 1354
873 5 1322 1394
874 6 1341 1389
875 6 1341 1427
876 6 1342 1394
877 6 1342 1414
878 4 1345 1362
879 5 1345 1405
880 5 1354 1414
881 5 1362 1422
882 5 1367 1427
883 6 1369 1405
884 6 1369 1422
885 2 1239 1311
886 2 1241 1313
887 2 1251 1323
888 2 1253 1325
889 3 1262 1339
890 3 1267 1342
891 2 1280 1352
892 2 1293 1365
893 3 1306 1370
894 4 1311 1365
895 5 1311 1383
896 4 1313 1325
897 5 1313 1385
898 4 1323 1352
899 5 1323 1395
900 5 1325 1397
901 6 1335 1383
902 6 1335 1425
903 6 1337 1385
904 6 1337 1397
905 5 1352 1412
906 5 1365 1425
907 3 1376 1511
908 6 1376 1395
909 6 1376 1412
910 1 1395 1433
911 1 1412 1440
912 1 1433 1593
913 1 1433 1597
914 1 1404 1432
915 2 1242 1314
916 2 1247 1319
917 2 1249 1321
918 2 1258 1330
919 3 1263 1341
920 3 1269 1344
921 2 1274 1346
922 2 1292 1364
923 3 1308 1371
924 4 1314 1321
925 5 1314 1386
926 4 1319 1364
927 5 1319 1391
928 5 1321 1393
929 4 1330 1346
930 5 1330 1402
931 6 1334 1402
932 6 1334 1406
933 3 1338 1469
934 6 1338 1386
935 6 1338 1393
936 5 1346 1406
937 5 1364 1424
938 6 1379 1391
939 6 1379 1424
940 1 410 566
941 1 410 1384
942 1 410 581
943 1 410 1403
944 2 1240 1312
945 2 1243 1315
946 2 1248 1320
947 2 1252 1324
948 2 1255 1327
949 2 1260 1332
950 3 1265 1542
951 4 1312 1332
952 5 1312 1384
953 4 1315 1327
954 5 1315 1387
955 4 1320 1324
956 5 1320 1392
957 5 1324 1396
958 5 1327 1399
959 5 1332 1404
960 6 1336 1384
961 6 1336 1404
962 6 1339 1387
963 6 1339 1399
964 6 1344 1392
965 6 1344 1396
966 1 1387 1433
967 1 1432 1590
968 1 1432 1605
969 1 415 589
970 1 415 1407
971 1 415 607
972 1 415 1424
973 1 411 569
974 1 411 1391
975 1 411 578
976 1 411 1396
977 1 214 390
978 1 214 802
979 1 214 813
980 1 214 408
981 2 256 328
982 2 259 331
983 2 264 336
984 2 268 340
985 2 271 343
986 2 276 348
987 3 277 353
988 3 281 354
989 3 282 349
990 4 328 348
991 5 328 388
992 4 331 343
993 5 331 391
994 4 336 340
995 5 336 396
996 5 340 400
997 5 343 403
998 5 348 408
999 3 352 692
1000 6 352 388
1001 6 352 408
1002 3 355 1094
1003 6 355 391
1004 6 355 403
1005 6 360 396
1006 6 360 400
1007 1 9 185
1008 1 9 395
1009 1 9 398
1010 1 9 196
1011 2 218 290
1012 2 236 308
1013 3 252 723
1014 2 258 330
1015 2 263 335
1016 2 265 337
1017 2 274 346
1018 3 279 1173
1019 4 290 346
1020 5 290 362
1021 4 308 335
1022 5 308 380
1023 6 323 380
1024 6 323 395
1025 4 330 337
1026 5 330 390
1027 5 335 395
1028 5 337 397
1029 5 346 406
1030 6 350 362
1031 6 350 406
1032 6 354 390
1033 6 354 397
1034 1 212 794
1035 1 212 388
1036 1 212 401
1037 1 212 815
1038 1 205 361
1039 1 205 771
1040 1 205 787
1041 1 205 380
1042 2 224 296
1043 2 237 309
1044 3 250 722
1045 2 255 327
1046 2 257 329
1047 2 267 339
1048 2 269 341
1049 3 278 1171
1050 4 296 339
1051 5 296 368
1052 4 309 327
1053 5 309 381
1054 6 320 368
1055 6 320 399
1056 5 327 387
1057 4 329 341
1058 5 329 389
1059 5 339 399
1060 5 341 401
1061 6 351 381
1062 6 351 387
1063 6 353 389
1064 6 353 401
1065 1 387 1027
1066 1 399 1031
1067 1 393 1031
1068 1 210 368
1069 1 210 780
1070 1 210 378
1071 1 210 790
1072 2 217 289
1073 2 226 298
1074 2 234 306
1075 2 239 311
1076 3 244 323
1077 3 248 316
1078 3 251 320
1079 2 261 333
1080 2 266 338
1081 4 289 306
1082 5 289 361
1083 4 298 338
1084 5 298 370
1085 5 306 378
1086 4 311 333
1087 5 311 383
1088 3 313 654
1089 6 313 361
1090 6 313 378
1091 5 333 393
1092 5 338 398
1093 3 357 1095
1094 6 357 383
1095 6 357 393
1096 6 358 370
1097 6 358 398
1098 1 383 1022
1099 1 1031 1207
1100 1 1031 1213
1101 1 1030 1206
1102 1 1030 1618
1103 1 1030 1629
1104 1 1030 1224
1105 2 1072 1144
1106 2 1075 1147
1107 2 1080 1152
1108 2 1084 1156
1109 2 1087 1159
1110 2 1092 1164
1111 3 1093 1169
1112 3 1097 1170
1113 3 1098 1165
1114 4 1144 1164
1115 5 1144 1204
1116 4 1147 1159
1117 5 1147 1207
1118 4 1152 1156
1119 5 1152 1212
1120 5 1156 1216
1121 5 1159 1219
1122 5 1164 1224
1123 3 1168 1508
1124 6 1168 1204
1125 6 1168 1224
1126 6 1171 1207
1127 6 1171 1219
1128 6 1176 1212
1129 6 1176 1216
1130 1 825 1001
1131 1 825 1211
1132 1 825 1214
1133 1 825 1012
1134 2 1034 1106
1135 2 1052 1124
1136 3 1068 1539
1137 2 1074 1146
1138 2 1079 1151
1139 2 1081 1153
1140 2 1090 1162
1141 4 1106 1162
1142 5 1106 1178
1143 4 1124 1151
1144 5 1124 1196
1145 6 1139 1196
1146 6 1139 1211
1147 4 1146 1153
1148 5 1146 1206
1149 5 1151 1211
1150 5 1153 1213
1151 5 1162 1222
1152 6 1166 1178
1153 6 1166 1222
1154 6 1170 1206
1155 6 1170 1213
1156 1 1028 1610
1157 1 1028 1204
1158 1 1028 1217
1159 1 1028 1631
1160 1 1021 1177
1161 1 1021 1587
1162 1 1021 1603
1163 1 1021 1196
1164 2 1040 1112
1165 2 1053 1125
1166 3 1066 1538
1167 2 1071 1143
1168 2 1073 1145
1169 2 1083 1155
1170 2 1085 1157
1171 4 1112 1155
1172 5 1112 1184
1173 4 1125 1143
1174 5 1125 1197
1175 6 1136 1184
1176 6 1136 1215
1177 5 1143 1203
1178 4 1145 1157
1179 5 1145 1205
1180 5 1155 1215
1181 5 1157 1217
1182 6 1167 1197
1183 6 1167 1203
1184 6 1169 1205
1185 6 1169 1217
1186 1 1026 1184
1187 1 1026 1596
1188 1 1026 1194
1189 1 1026 1606
1190 2 1033 1105
1191 2 1042 1114
1192 2 1050 1122
1193 2 1055 1127
1194 3 1060 1139
1195 3 1064 1132
1196 3 1067 1136
1197 2 1077 1149
1198 2 1082 1154
1199 4 1105 1122
1200 5 1105 1177
1201 4 1114 1154
1202 5 1114 1186
1203 5 1122 1194
1204 4 1127 1149
1205 5 1127 1199
1206 3 1129 1470
1207 6 1129 1177
1208 6 1129 1194
1209 5 1149 1209
1210 5 1154 1214
1211 6 1173 1199
1212 6 1173 1209
1213 6 1174 1186
1214 6 1174 1214
1215 1 215 391
1216 1 215 1209
1217 1 215 397
1218 1 215 1215
1219 1 12 392
1220 1 12 192
1221 1 12 198
1222 1 12 406
1223 2 225 297
1224 2 230 302
1225 2 253 325
1226 2 262 334
1227 2 270 342
1228 2 275 347
1229 3 280 1175
1230 3 284 760
1231 4 297 347
1232 5 297 369
1233 4 302 334
1234 5 302 374
1235 6 321 369
1236 6 321 407
1237 6 322 374
1238 6 322 394
1239 4 325 342
1240 5 325 385
1241 5 334 394
1242 5 342 402
1243 5 347 407
1244 6 349 385
1245 6 349 402
1246 1 394 622
1247 1 407 620
1248 1 405 622
1249 2 219 291
1250 2 221 293
1251 2 231 303
1252 2 233 305
1253 3 242 319
1254 3 247 322
1255 2 260 332
1256 2 273 345
1257 3 286 350
1258 4 291 345
1259 5 291 363
1260 4 293 305
1261 5 293 365
1262 4 303 332
1263 5 303 375
1264 5 305 377
1265 3 315 660
1266 6 315 363
1267 6 315 405
1268 3 317 1057
1269 6 317 365
1270 6 317 377
1271 5 332 392
1272 5 345 405
1273 6 356 375
1274 6 356 392
1275 1 363 613
1276 1 5 367
1277 1 5 165
1278 1 5 169
1279 1 5 375
1280 1 1022 1178
1281 1 1022 1193
1282 2 222 294
1283 2 227 299
1284 2 229 301
1285 2 238 310
1286 3 243 321
1287 3 249 324
1288 2 254 326
1289 2 272 344
1290 3 288 351
1291 4 294 301
1292 5 294 366
1293 4 299 344
1294 5 299 371
1295 5 301 373
1296 4 310 326
1297 5 310 382
1298 3 314 658
1299 6 314 382
1300 6 314 386
1301 6 318 366
1302 6 318 373
1303 5 326 386
1304 5 344 404
1305 3 359 1096
1306 6 359 371
1307 6 359 404
1308 1 371 1023
1309 1 382 618
1310 1 386 620
1311 1 404 1027
1312 2 220 292
1313 2 223 295
1314 2 228 300
1315 2 232 304
1316 2 235 307
1317 2 240 312
1318 3 241 1133
1319 3 246 721
1320 4 292 312
1321 5 292 364
1322 4 295 307
1323 5 295 367
1324 4 300 304
1325 5 300 372
1326 5 304 376
1327 5 307 379
1328 5 312 384
1329 6 316 364
1330 6 316 384
1331 6 319 367
1332 6 319 379
1333 6 324 372
1334 6 324 376
1335 1 364 1022
1336 1 372 618
1337 1 376 1023
1338 1 379 613
1339 1 4 162
1340 1 4 370
1341 1 4 177
1342 1 4 384
1343 1 1027 1201
1344 1 1027 1219
1345 1 1023 1181
1346 1 1023 1190
1347 1 828 1208
1348 1 828 1008
1349 1 828 1014
1350 1 828 1222
1351 2 1041 1113
1352 2 1046 1118
1353 2 1069 1141
1354 2 1078 1150
1355 2 1086 1158
1356 2 1091 1163
1357 3 1100 1576
1358 4 1113 1163
1359 5 1113 1185
1360 4 1118 1150
1361 5 1118 1190
1362 6 1137 1185
1363 6 1137 1223
1364 6 1138 1190
1365 6 1138 1210
1366 4 1141 1158
1367 5 1141 1201
1368 5 1150 1210
1369 5 1158 1218
1370 5 1163 1223
1371 6 1165 1201
1372 6 1165 1218
1373 1 1210 1438
1374 1 1223 1436
1375 1 1221 1438
1376 2 1035 1107
1377 2 1037 1109
1378 2 1047 1119
1379 2 1049 1121
1380 3 1058 1135
1381 3 1063 1138
1382 2 1076 1148
1383 2 1089 1161
1384 3 1102 1166
1385 4 1107 1161
1386 5 1107 1179
1387 4 1109 1121
1388 5 1109 1181
1389 4 1119 1148
1390 5 1119 1191
1391 5 1121 1193
1392 3 1131 1476
1393 6 1131 1179
1394 6 1131 1221
1395 6 1133 1181
1396 6 1133 1193
1397 5 1148 1208
1398 5 1161 1221
1399 6 1172 1191
1400 6 1172 1208
1401 1 1179 1429
1402 1 821 1183
1403 1 821 981
1404 1 821 985
1405 1 821 1191
1406 1 1195 1429
1407 2 1038 1110
1408 2 1043 1115
1409 2 1045 1117
1410 2 1054 1126
1411 3 1059 1137
1412 3 1065 1140
1413 2 1070 1142
1414 2 1088 1160
1415 3 1104 1167
1416 4 1110 1117
1417 5 1110 1182
1418 4 1115 1160
1419 5 1115 1187
1420 5 1117 1189
1421 4 1126 1142
1422 5 1126 1198
1423 3 1130 1474
1424 6 1130 1198
1425 6 1130 1202
1426 6 1134 1182
1427 6 1134 1189
1428 5 1142 1202
1429 5 1160 1220
1430 6 1175 1187
1431 6 1175 1220
1432 1 1198 1434
1433 1 1202 1436
1434 1 206 362
1435 1 206 1180
1436 1 206 377
1437 1 206 1199
1438 2 1036 1108
1439 2 1039 1111
1440 2 1044 1116
1441 2 1048 1120
1442 2 1051 1123
1443 2 1056 1128
1444 3 1062 1537
1445 4 1108 1128
1446 5 1108 1180
1447 4 1111 1123
1448 5 1111 1183
1449 4 1116 1120
1450 5 1116 1188
1451 5 1120 1192
1452 5 1123 1195
1453 5 1128 1200
1454 6 1132 1180
1455 6 1132 1200
1456 6 1135 1183
1457 6 1135 1195
1458 6 1140 1188
1459 6 1140 1192
1460 1 1188 1434
1461 1 820 978
1462 1 820 1186
1463 1 820 993
1464 1 820 1200
1465 1 211 385
1466 1 211 1203
1467 1 211 403
1468 1 211 1220
1469 1 207 365
1470 1 207 1187
1471 1 207 374
1472 1 207 1192
1473 1 622 798
1474 1 622 816
1475 2 664 736
1476 2 667 739
1477 2 672 744
1478 2 676 748
1479 2 679 751
1480 2 684 756
1481 3 685 761
1482 3 689 762
1483 3 690 757
1484 4 736 756
1485 5 736 796
1486 4 739 751
1487 5 739 799
1488 4 744 748
1489 5 744 804
1490 5 748 808
1491 5 751 811
1492 5 756 816
1493 6 760 796
1494 6 760 816
1495 3 763 1502
1496 6 763 799
1497 6 763 811
1498 6 768 804
1499 6 768 808
1500 1 417 593
1501 1 417 803
1502 1 417 806
1503 1 417 604
1504 2 626 698
1505 2 644 716
1506 2 666 738
1507 2 671 743
1508 2 673 745
1509 2 682 754
1510 3 687 1581
1511 4 698 754
1512 5 698 770
1513 4 716 743
1514 5 716 788
1515 6 731 788
1516 6 731 803
1517 4 738 745
1518 5 738 798
1519 5 743 803
1520 5 745 805
1521 5 754 814
1522 6 758 770
1523 6 758 814
1524 6 762 798
1525 6 762 805
1526 1 620 796
1527 1 620 809
1528 1 613 769
1529 1 613 788
1530 2 632 704
1531 2 645 717
1532 2 663 735
1533 2 665 737
1534 2 675 747
1535 2 677 749
1536 3 686 1579
1537 4 704 747
1538 5 704 776
1539 4 717 735
1540 5 717 789
1541 6 728 776
1542 6 728 807
1543 5 735 795
1544 4 737 749
1545 5 737 797
1546 5 747 807
1547 5 749 809
1548 6 759 789
1549 6 759 795
1550 6 761 797
1551 6 761 809
1552 1 795 1435
1553 1 807 1439
1554 1 801 1439
1555 1 618 776
1556 1 618 786
1557 2 625 697
1558 2 634 706
1559 2 642 714
1560 2 647 719
1561 3 652 731
1562 3 656 724
1563 3 659 728
1564 2 669 741
1565 2 674 746
1566 4 697 714
1567 5 697 769
1568 4 706 746
1569 5 706 778
1570 5 714 786
1571 4 719 741
1572 5 719 791
1573 6 721 769
1574 6 721 786
1575 5 741 801
1576 5 746 806
1577 3 765 1503
1578 6 765 791
1579 6 765 801
1580 6 766 778
1581 6 766 806
1582 1 791 1430
1583 1 1439 1615
1584 1 1439 1621
1585 1 1438 1614
1586 1 1438 1632
1587 2 1480 1552
1588 2 1483 1555
1589 2 1488 1560
1590 2 1492 1564
1591 2 1495 1567
1592 2 1500 1572
1593 3 1501 1577
1594 3 1505 1578
1595 3 1506 1573
1596 4 1552 1572
1597 5 1552 1612
1598 4 1555 1567
1599 5 1555 1615
1600 4 1560 1564
1601 5 1560 1620
1602 5 1564 1624
1603 5 1567 1627
1604 5 1572 1632
1605 6 1576 1612
1606 6 1576 1632
1607 6 1579 1615
1608 6 1579 1627
1609 6 1584 1620
1610 6 1584 1624
1611 1 1233 1409
1612 1 1233 1619
1613 1 1233 1622
1614 1 1233 1420
1615 2 1442 1514
1616 2 1460 1532
1617 2 1482 1554
1618 2 1487 1559
1619 2 1489 1561
1620 2 1498 1570
1621 4 1514 1570
1622 5 1514 1586
1623 4 1532 1559
1624 5 1532 1604
1625 6 1547 1604
1626 6 1547 1619
1627 4 1554 1561
1628 5 1554 1614
1629 5 1559 1619
1630 5 1561 1621
1631 5 1570 1630
1632 6 1574 1586
1633 6 1574 1630
1634 6 1578 1614
1635 6 1578 1621
1636 1 1436 1612
1637 1 1436 1625
1638 1 1429 1585
1639 1 1429 1604
1640 2 1448 1520
1641 2 1461 1533
1642 2 1479 1551
1643 2 1481 1553
1644 2 1491 1563
1645 2 1493 1565
1646 4 1520 1563
1647 5 1520 1592
1648 4 1533 1551
1649 5 1533 1605
1650 6 1544 1592
1651 6 1544 1623
1652 5 1551 1611
1653 4 1553 1565
1654 5 1553 1613
1655 5 1563 1623
1656 5 1565 1625
1657 6 1575 1605
1658 6 1575 1611
1659 6 1577 1613
1660 6 1577 1625
1661 1 1434 1592
1662 1 1434 1602
1663 2 1441 1513
1664 2 1450 1522
1665 2 1458 1530
1666 2 1463 1535
1667 3 1468 1547
1668 3 1472 1540
1669 3 1475 1544
1670 2 1485 1557
1671 2 1490 1562
1672 4 1513 1530
1673 5 1513 1585
1674 4 1522 1562
1675 5 1522 1594
1676 5 1530 1602
1677 4 1535 1557
1678 5 1535 1607
1679 6 1537 1585
1680 6 1537 1602
1681 5 1557 1617
1682 5 1562 1622
1683 6 1581 1607
1684 6 1581 1617
1685 6 1582 1594
1686 6 1582 1622
1687 1 623 799
1688 1 623 1617
1689 1 623 805
1690 1 623 1623
1691 1 420 800
1692 1 420 600
1693 1 420 606
1694 1 420 814
1695 2 633 705
1696 2 638 710
1697 2 661 733
1698 2 670 742
1699 2 678 750
1700 2 683 755
1701 3 688 1583
1702 4 705 755
1703 5 705 777
1704 4 710 742
1705 5 710 782
1706 6 729 777
1707 6 729 815
1708 6 730 782
1709 6 730 802
1710 4 733 750
1711 5 733 793
1712 5 742 802
1713 5 750 810
1714 5 755 815
1715 6 757 793
1716 6 757 810
1717 2 627 699
1718 2 629 701
1719 2 639 711
1720 2 641 713
1721 3 650 727
1722 3 655 730
1723 2 668 740
1724 2 681 753
1725 3 694 758
1726 4 699 753
1727 5 699 771
1728 4 701 713
1729 5 701 773
1730 4 711 740
1731 5 711 783
1732 5 713 785
1733 6 723 771
1734 6 723 813
1735 3 725 1465
1736 6 725 773
1737 6 725 785
1738 5 740 800
1739 5 753 813
1740 6 764 783
1741 6 764 800
1742 1 413 775
1743 1 413 573
1744 1 413 577
1745 1 413 783
1746 1 1430 1586
1747 1 1430 1601
1748 2 630 702
1749 2 635 707
1750 2 637 709
1751 2 646 718
1752 3 651 729
1753 3 657 732
1754 2 662 734
1755 2 680 752
1756 3 696 759
1757 4 702 709
1758 5 702 774
1759 4 707 752
1760 5 707 779
1761 5 709 781
1762 4 718 734
1763 5 718 790
1764 6 722 790
1765 6 722 794
1766 6 726 774
1767 6 726 781
1768 5 734 794
1769 5 752 812
1770 3 767 1504
1771 6 767 779
1772 6 767 812
1773 1 779 1431
1774 1 812 1435
1775 2 628 700
1776 2 631 703
1777 2 636 708
1778 2 640 712
1779 2 643 715
1780 2 648 720
1781 3 649 1541
1782 4 700 720
1783 5 700 772
1784 4 703 715
1785 5 703 775
1786 4 708 712
1787 5 708 780
1788 5 712 784
1789 5 715 787
1790 5 720 792
1791 6 724 772
1792 6 724 792
1793 6 727 775
1794 6 727 787
1795 6 732 780
1796 6 732 784
1797 1 772 1430
1798 1 784 1431
1799 1 412 570
1800 1 412 778
1801 1 412 585
1802 1 412 792
1803 1 1435 1609
1804 1 1435 1627
1805 1 1431 1589
1806 1 1431 1598
1807 1 1236 1616
1808 1 1236 1416
1809 1 1236 1422
1810 1 1236 1630
1811 2 1449 1521
1812 2 1454 1526
1813 2 1477 1549
1814 2 1486 1558
1815 2 1494 1566
1816 2 1499 1571
1817 4 1521 1571
1818 5 1521 1593
1819 4 1526 1558
1820 5 1526 1598
1821 6 1545 1593
1822 6 1545 1631
1823 6 1546 1598
1824 6 1546 1618
1825 4 1549 1566
1826 5 1549 1609
1827 5 1558 1618
1828 5 1566 1626
1829 5 1571 1631
1830 6 1573 1609
1831 6 1573 1626
1832 2 1443 1515
1833 2 1445 1517
1834 2 1455 1527
1835 2 1457 1529
1836 3 1466 1543
1837 3 1471 1546
1838 2 1484 1556
1839 2 1497 1569
1840 3 1510 1574
1841 4 1515 1569
1842 5 1515 1587
1843 4 1517 1529
1844 5 1517 1589
1845 4 1527 1556
1846 5 1527 1599
1847 5 1529 1601
1848 6 1539 1587
1849 6 1539 1629
1850 6 1541 1589
1851 6 1541 1601
1852 5 1556 1616
1853 5 1569 1629
1854 6 1580 1599
1855 6 1580 1616
1856 1 1229 1591
1857 1 1229 1389
1858 1 1229 1393
1859 1 1229 1599
1860 2 1446 1518
1861 2 1451 1523
1862 2 1453 1525
1863 2 1462 1534
1864 3 1467 1545
1865 3 1473 1548
1866 2 1478 1550
1867 2 1496 1568
1868 3 1512 1575
1869 4 1518 1525
1870 5 1518 1590
1871 4 1523 1568
1872 5 1523 1595
1873 5 1525 1597
1874 4 1534 1550
1875 5 1534 1606
1876 6 1538 1606
1877 6 1538 1610
1878 6 1542 1590
1879 6 1542 1597
1880 5 1550 1610
1881 5 1568 1628
1882 6 1583 1595
1883 6 1583 1628
1884 1 614 770
1885 1 614 1588
1886 1 614 785
1887 1 614 1607
1888 2 1444 1516
1889 2 1447 1519
1890 2 1452 1524
1891 2 1456 1528
1892 2 1459 1531
1893 2 1464 1536
1894 4 1516 1536
1895 5 1516 1588
1896 4 1519 1531
1897 5 1519 1591
1898 4 1524 1528
1899 5 1524 1596
1900 5 1528 1600
1901 5 1531 1603
1902 5 1536 1608
1903 6 1540 1588
1904 6 1540 1608
1905 6 1543 1591
1906 6 1543 1603
1907 6 1548 1596
1908 6 1548 1600
1909 1 1228 1386
1910 1 1228 1594
1911 1 1228 1401
1912 1 1228 1608
1913 1 619 793
1914 1 619 1611
1915 1 619 811
1916 1 619 1628
1917 1 615 773
1918 1 615 1595
1919 1 615 782
1920 1 615 1600

Angles

1 1 186 10 598
2 1 186 10 609
3 1 186 10 204
4 1 598 10 609
5 1 204 10 598
6 1 204 10 609
7 2 144 124 52
8 3 52 124 184
9 4 144 124 184
10 2 139 127 55
11 3 55 127 187
12 4 139 127 187
13 2 136 132 60
14 3 60 132 192
15 4 136 132 192
16 2 132 136 64
17 3 64 136 196
18 4 132 136 196
19 2 127 139 67
20 3 67 139 199
21 4 127 139 199
22 2 124 144 72
23 3 72 144 204
24 4 124 144 204
25 5 488 148 184
26 5 488 148 204
27 6 184 148 204
28 5 890 151 187
29 5 890 151 199
30 6 187 151 199
31 5 285 156 192
32 5 285 156 196
33 6 192 156 196
34 7 124 184 8
35 8 148 184 8
36 9 124 184 148
37 7 127 187 11
38 8 151 187 11
39 9 127 187 151
40 7 132 192 12
41 8 156 192 12
42 9 132 192 156
43 7 136 196 9
44 8 156 196 9
45 9 136 196 156
46 7 139 199 7
47 8 151 199 7
48 9 139 199 151
49 7 144 204 10
50 8 148 204 10
51 9 144 204 148
52 1 191 213 389
53 1 194 213 389
54 1 389 213 400
55 1 191 213 194
56 1 191 213 400
57 1 194 213 400
58 2 142 86 14
59 3 14 86 158
60 4 142 86 158
61 2 131 104 32
62 3 32 104 176
63 4 131 104 176
64 5 40 119 176
65 5 40 119 191
66 6 176 119 191
67 2 133 126 54
68 3 54 126 186
69 4 133 126 186
70 2 104 131 59
71 3 59 131 191
72 4 104 131 191
73 2 126 133 61
74 3 61 133 193
75 4 126 133 193
76 2 86 142 70
77 3 70 142 202
78 4 86 142 202
79 5 82 146 158
80 5 82 146 202
81 6 158 146 202
82 5 77 150 186
83 5 77 150 193
84 6 186 150 193
85 7 86 158 2
86 8 146 158 2
87 9 86 158 146
88 7 104 176 1
89 8 119 176 1
90 9 104 176 119
91 7 126 186 10
92 8 150 186 10
93 9 126 186 150
94 8 119 191 213
95 7 131 191 213
96 9 131 191 119
97 7 133 193 11
98 8 150 193 11
99 9 133 193 150
100 7 142 202 216
101 8 146 202 216
102 9 142 202 146
103 1 184 8 590
104 1 197 8 590
105 1 590 8 611
106 1 184 8 197
107 1 184 8 611
108 1 197 8 611
109 1 157 1 567
110 1 157 1 583
111 1 157 1 176
112 1 567 1 583
113 1 176 1 567
114 1 176 1 583
115 7 134 194 213
116 8 154 194 213
117 9 134 194 154
118 2 135 92 20
119 3 20 92 164
120 4 135 92 164
121 2 123 105 33
122 3 33 105 177
123 4 123 105 177
124 5 47 116 164
125 5 47 116 195
126 6 164 116 195
127 2 105 123 51
128 3 51 123 183
129 4 105 123 183
130 2 137 125 53
131 3 53 125 185
132 4 137 125 185
133 2 92 135 63
134 3 63 135 195
135 4 92 135 195
136 2 125 137 65
137 3 65 137 197
138 4 125 137 197
139 5 84 147 177
140 5 84 147 183
141 6 177 147 183
142 5 73 149 185
143 5 73 149 197
144 6 185 149 197
145 7 92 164 6
146 8 116 164 6
147 9 92 164 116
148 7 105 177 4
149 8 147 177 4
150 9 105 177 147
151 7 123 183 823
152 8 147 183 823
153 9 123 183 147
154 7 125 185 9
155 8 149 185 9
156 9 125 185 149
157 8 116 195 827
158 7 135 195 827
159 9 135 195 116
160 7 137 197 8
161 8 149 197 8
162 9 137 197 149
163 7 129 189 827
164 8 153 189 827
165 9 129 189 153
166 1 164 6 576
167 1 164 6 174
168 1 164 6 586
169 1 174 6 576
170 1 576 6 586
171 1 174 6 586
172 2 102 85 13
173 3 13 85 157
174 4 102 85 157
175 2 134 94 22
176 3 22 94 166
177 4 134 94 166
178 2 85 102 30
179 3 30 102 174
180 4 85 102 174
181 2 129 107 35
182 3 35 107 179
183 4 129 107 179
184 5 450 109 157
185 5 450 109 174
186 6 157 109 174
187 2 107 129 57
188 3 57 129 189
189 4 107 129 189
190 2 94 134 62
191 3 62 134 194
192 4 94 134 194
193 5 891 153 179
194 5 891 153 189
195 6 179 153 189
196 5 283 154 166
197 5 283 154 194
198 6 166 154 194
199 7 85 157 1
200 8 109 157 1
201 9 85 157 109
202 7 94 166 208
203 8 154 166 208
204 9 94 166 154
205 7 102 174 6
206 8 109 174 6
207 9 102 174 109
208 7 107 179 818
209 8 153 179 818
210 9 107 179 153
211 1 189 827 1003
212 1 1003 827 1009
213 1 195 827 1003
214 1 189 827 1009
215 1 189 827 195
216 1 195 827 1009
217 1 1002 826 1414
218 1 1002 826 1425
219 1 1002 826 1020
220 1 1414 826 1425
221 1 1020 826 1414
222 1 1020 826 1425
223 2 960 940 868
224 3 868 940 1000
225 4 960 940 1000
226 2 955 943 871
227 3 871 943 1003
228 4 955 943 1003
229 2 952 948 876
230 3 876 948 1008
231 4 952 948 1008
232 2 948 952 880
233 3 880 952 1012
234 4 948 952 1012
235 2 943 955 883
236 3 883 955 1015
237 4 943 955 1015
238 2 940 960 888
239 3 888 960 1020
240 4 940 960 1020
241 5 1304 964 1000
242 5 1304 964 1020
243 6 1000 964 1020
244 5 74 967 1003
245 5 74 967 1015
246 6 1003 967 1015
247 5 1101 972 1008
248 5 1101 972 1012
249 6 1008 972 1012
250 7 940 1000 824
251 8 964 1000 824
252 9 940 1000 964
253 7 943 1003 827
254 8 967 1003 827
255 9 943 1003 967
256 7 948 1008 828
257 8 972 1008 828
258 9 948 1008 972
259 7 952 1012 825
260 8 972 1012 825
261 9 952 1012 972
262 7 955 1015 823
263 8 967 1015 823
264 9 955 1015 967
265 7 960 1020 826
266 8 964 1020 826
267 9 960 1020 964
268 1 1007 1029 1205
269 1 1010 1029 1205
270 1 1205 1029 1216
271 1 1007 1029 1010
272 1 1007 1029 1216
273 1 1010 1029 1216
274 2 958 902 830
275 3 830 902 974
276 4 958 902 974
277 2 947 920 848
278 3 848 920 992
279 4 947 920 992
280 5 856 935 992
281 5 856 935 1007
282 6 992 935 1007
283 2 949 942 870
284 3 870 942 1002
285 4 949 942 1002
286 2 920 947 875
287 3 875 947 1007
288 4 920 947 1007
289 2 942 949 877
290 3 877 949 1009
291 4 942 949 1009
292 2 902 958 886
293 3 886 958 1018
294 4 902 958 1018
295 5 898 962 974
296 5 898 962 1018
297 6 974 962 1018
298 5 893 966 1002
299 5 893 966 1009
300 6 1002 966 1009
301 7 902 974 818
302 8 962 974 818
303 9 902 974 962
304 7 920 992 817
305 8 935 992 817
306 9 920 992 935
307 7 942 1002 826
308 8 966 1002 826
309 9 942 1002 966
310 8 935 1007 1029
311 7 947 1007 1029
312 9 947 1007 935
313 7 949 1009 827
314 8 966 1009 827
315 9 949 1009 966
316 7 958 1018 1032
317 8 962 1018 1032
318 9 958 1018 962
319 1 1000 824 1406
320 1 1013 824 1406
321 1 1406 824 1427
322 1 1000 824 1013
323 1 1000 824 1427
324 1 1013 824 1427
325 1 973 817 1383
326 1 973 817 1399
327 1 973 817 992
328 1 1383 817 1399
329 1 992 817 1383
330 1 992 817 1399
331 7 950 1010 1029
332 8 970 1010 1029
333 9 950 1010 970
334 2 951 908 836
335 3 836 908 980
336 4 951 908 980
337 2 939 921 849
338 3 849 921 993
339 4 939 921 993
340 5 863 932 980
341 5 863 932 1011
342 6 980 932 1011
343 2 921 939 867
344 3 867 939 999
345 4 921 939 999
346 2 953 941 869
347 3 869 941 1001
348 4 953 941 1001
349 2 908 951 879
350 3 879 951 1011
351 4 908 951 1011
352 2 941 953 881
353 3 881 953 1013
354 4 941 953 1013
355 5 900 963 993
356 5 900 963 999
357 6 993 963 999
358 5 889 965 1001
359 5 889 965 1013
360 6 1001 965 1013
361 7 908 980 822
362 8 932 980 822
363 9 908 980 932
364 7 921 993 820
365 8 963 993 820
366 9 921 993 963
367 7 939 999 7
368 8 963 999 7
369 9 939 999 963
370 7 941 1001 825
371 8 965 1001 825
372 9 941 1001 965
373 8 932 1011 11
374 7 951 1011 11
375 9 951 1011 932
376 7 953 1013 824
377 8 965 1013 824
378 9 953 1013 965
379 7 945 1005 11
380 8 969 1005 11
381 9 945 1005 969
382 1 980 822 1392
383 1 980 822 990
384 1 980 822 1402
385 1 990 822 1392
386 1 1392 822 1402
387 1 990 822 1402
388 2 918 901 829
389 3 829 901 973
390 4 918 901 973
391 2 950 910 838
392 3 838 910 982
393 4 950 910 982
394 2 901 918 846
395 3 846 918 990
396 4 901 918 990
397 2 945 923 851
398 3 851 923 995
399 4 945 923 995
400 5 1266 925 973
401 5 1266 925 990
402 6 973 925 990
403 2 923 945 873
404 3 873 945 1005
405 4 923 945 1005
406 2 910 950 878
407 3 878 950 1010
408 4 910 950 1010
409 5 75 969 995
410 5 75 969 1005
411 6 995 969 1005
412 5 1099 970 982
413 5 1099 970 1010
414 6 982 970 1010
415 7 901 973 817
416 8 925 973 817
417 9 901 973 925
418 7 910 982 1024
419 8 970 982 1024
420 9 910 982 970
421 7 918 990 822
422 8 925 990 822
423 9 918 990 925
424 7 923 995 2
425 8 969 995 2
426 9 923 995 969
427 1 187 11 1005
428 1 187 11 193
429 1 187 11 1011
430 1 193 11 1005
431 1 1005 11 1011
432 1 193 11 1011
433 1 188 216 396
434 1 188 216 402
435 1 188 216 202
436 1 396 216 402
437 1 202 216 396
438 1 202 216 402
439 2 143 93 21
440 3 21 93 165
441 4 143 93 165
442 2 130 98 26
443 3 26 98 170
444 4 130 98 170
445 5 39 117 165
446 5 39 117 203
447 6 165 117 203
448 5 43 118 170
449 5 43 118 190
450 6 170 118 190
451 2 138 121 49
452 3 49 121 181
453 4 138 121 181
454 2 98 130 58
455 3 58 130 190
456 4 98 130 190
457 2 121 138 66
458 3 66 138 198
459 4 121 138 198
460 2 93 143 71
461 3 71 143 203
462 4 93 143 203
463 5 78 145 181
464 5 78 145 198
465 6 181 145 198
466 7 93 165 5
467 8 117 165 5
468 9 93 165 117
469 7 98 170 3
470 8 118 170 3
471 9 98 170 118
472 7 121 181 7
473 8 145 181 7
474 9 121 181 145
475 8 118 190 418
476 7 130 190 418
477 9 130 190 118
478 7 138 198 12
479 8 145 198 12
480 9 138 198 145
481 8 117 203 416
482 7 143 203 416
483 9 143 203 117
484 8 111 201 418
485 7 141 201 418
486 9 141 201 111
487 2 141 87 15
488 3 15 87 159
489 4 141 87 159
490 2 101 89 17
491 3 17 89 161
492 4 101 89 161
493 2 128 99 27
494 3 27 99 171
495 4 128 99 171
496 2 89 101 29
497 3 29 101 173
498 4 89 101 173
499 5 456 111 159
500 5 456 111 201
501 6 159 111 201
502 5 853 113 161
503 5 853 113 173
504 6 161 113 173
505 2 99 128 56
506 3 56 128 188
507 4 99 128 188
508 2 87 141 69
509 3 69 141 201
510 4 87 141 201
511 5 287 152 171
512 5 287 152 188
513 6 171 152 188
514 7 87 159 409
515 8 111 159 409
516 9 87 159 111
517 7 89 161 3
518 8 113 161 3
519 9 89 161 113
520 7 99 171 209
521 8 152 171 209
522 9 99 171 152
523 7 101 173 2
524 8 113 173 2
525 9 101 173 113
526 7 128 188 216
527 8 152 188 216
528 9 128 188 152
529 1 163 209 369
530 1 163 209 373
531 1 163 209 171
532 1 369 209 373
533 1 171 209 369
534 1 171 209 373
535 1 160 818 974
536 1 974 818 989
537 1 179 818 974
538 1 160 818 989
539 1 160 818 179
540 1 179 818 989
541 7 108 180 208
542 8 112 180 208
543 9 108 180 112
544 2 97 90 18
545 3 18 90 162
546 4 97 90 162
547 2 140 95 23
548 3 23 95 167
549 4 140 95 167
550 2 90 97 25
551 3 25 97 169
552 4 90 97 169
553 2 122 106 34
554 3 34 106 178
555 4 122 106 178
556 5 454 110 178
557 5 454 110 182
558 6 178 110 182
559 5 245 114 162
560 5 245 114 169
561 6 162 114 169
562 2 106 122 50
563 3 50 122 182
564 4 106 122 182
565 2 95 140 68
566 3 68 140 200
567 4 95 140 200
568 5 892 155 167
569 5 892 155 200
570 6 167 155 200
571 7 90 162 4
572 8 114 162 4
573 9 90 162 114
574 7 95 167 819
575 8 155 167 819
576 9 95 167 155
577 7 97 169 5
578 8 114 169 5
579 9 97 169 114
580 7 106 178 414
581 8 110 178 414
582 9 106 178 110
583 8 110 182 416
584 7 122 182 416
585 9 122 182 110
586 7 140 200 823
587 8 155 200 823
588 9 140 200 155
589 2 108 88 16
590 3 16 88 160
591 4 108 88 160
592 2 103 91 19
593 3 19 91 163
594 4 103 91 163
595 2 100 96 24
596 3 24 96 168
597 4 100 96 168
598 2 96 100 28
599 3 28 100 172
600 4 96 100 172
601 2 91 103 31
602 3 31 103 175
603 4 91 103 175
604 2 88 108 36
605 3 36 108 180
606 4 88 108 180
607 5 44 112 160
608 5 44 112 180
609 6 160 112 180
610 5 38 115 163
611 5 38 115 175
612 6 163 115 175
613 5 45 120 168
614 5 45 120 172
615 6 168 120 172
616 7 88 160 818
617 8 112 160 818
618 9 88 160 112
619 7 91 163 209
620 8 115 163 209
621 9 91 163 115
622 7 96 168 414
623 8 120 168 414
624 9 96 168 120
625 7 100 172 819
626 8 120 172 819
627 9 100 172 120
628 7 103 175 409
629 8 115 175 409
630 9 103 175 115
631 1 166 208 366
632 1 366 208 381
633 1 180 208 366
634 1 166 208 381
635 1 166 208 180
636 1 180 208 381
637 1 183 823 997
638 1 997 823 1015
639 1 200 823 997
640 1 183 823 1015
641 1 183 823 200
642 1 200 823 1015
643 1 167 819 977
644 1 977 819 986
645 1 172 819 977
646 1 167 819 986
647 1 167 819 172
648 1 172 819 986
649 1 1004 1032 1212
650 1 1004 1032 1218
651 1 1004 1032 1018
652 1 1212 1032 1218
653 1 1018 1032 1212
654 1 1018 1032 1218
655 2 959 909 837
656 3 837 909 981
657 4 959 909 981
658 2 946 914 842
659 3 842 914 986
660 4 946 914 986
661 5 855 933 981
662 5 855 933 1019
663 6 981 933 1019
664 5 859 934 986
665 5 859 934 1006
666 6 986 934 1006
667 2 954 937 865
668 3 865 937 997
669 4 954 937 997
670 2 914 946 874
671 3 874 946 1006
672 4 914 946 1006
673 2 937 954 882
674 3 882 954 1014
675 4 937 954 1014
676 2 909 959 887
677 3 887 959 1019
678 4 909 959 1019
679 5 894 961 997
680 5 894 961 1014
681 6 997 961 1014
682 7 909 981 821
683 8 933 981 821
684 9 909 981 933
685 7 914 986 819
686 8 934 986 819
687 9 914 986 934
688 7 937 997 823
689 8 961 997 823
690 9 937 997 961
691 8 934 1006 1234
692 7 946 1006 1234
693 9 946 1006 934
694 7 954 1014 828
695 8 961 1014 828
696 9 954 1014 961
697 8 933 1019 1232
698 7 959 1019 1232
699 9 959 1019 933
700 8 927 1017 1234
701 7 957 1017 1234
702 9 957 1017 927
703 2 957 903 831
704 3 831 903 975
705 4 957 903 975
706 2 917 905 833
707 3 833 905 977
708 4 917 905 977
709 2 944 915 843
710 3 843 915 987
711 4 944 915 987
712 2 905 917 845
713 3 845 917 989
714 4 905 917 989
715 5 1272 927 975
716 5 1272 927 1017
717 6 975 927 1017
718 5 37 929 977
719 5 37 929 989
720 6 977 929 989
721 2 915 944 872
722 3 872 944 1004
723 4 915 944 1004
724 2 903 957 885
725 3 885 957 1017
726 4 903 957 1017
727 5 1103 968 987
728 5 1103 968 1004
729 6 987 968 1004
730 7 903 975 1225
731 8 927 975 1225
732 9 903 975 927
733 7 905 977 819
734 8 929 977 819
735 9 905 977 929
736 7 915 987 1025
737 8 968 987 1025
738 9 915 987 968
739 7 917 989 818
740 8 929 989 818
741 9 917 989 929
742 7 944 1004 1032
743 8 968 1004 1032
744 9 944 1004 968
745 1 979 1025 1185
746 1 979 1025 1189
747 1 979 1025 987
748 1 1185 1025 1189
749 1 987 1025 1185
750 1 987 1025 1189
751 7 924 996 1024
752 8 928 996 1024
753 9 924 996 928
754 7 919 991 1225
755 8 931 991 1225
756 9 919 991 931
757 2 913 906 834
758 3 834 906 978
759 4 913 906 978
760 2 956 911 839
761 3 839 911 983
762 4 956 911 983
763 2 906 913 841
764 3 841 913 985
765 4 906 913 985
766 2 938 922 850
767 3 850 922 994
768 4 938 922 994
769 5 1270 926 994
770 5 1270 926 998
771 6 994 926 998
772 5 1061 930 978
773 5 1061 930 985
774 6 978 930 985
775 2 922 938 866
776 3 866 938 998
777 4 922 938 998
778 2 911 956 884
779 3 884 956 1016
780 4 911 956 1016
781 5 76 971 983
782 5 76 971 1016
783 6 983 971 1016
784 7 906 978 820
785 8 930 978 820
786 9 906 978 930
787 7 911 983 3
788 8 971 983 3
789 9 911 983 971
790 7 913 985 821
791 8 930 985 821
792 9 913 985 930
793 7 922 994 1230
794 8 926 994 1230
795 9 922 994 926
796 8 926 998 1232
797 7 938 998 1232
798 9 938 998 926
799 7 956 1016 7
800 8 971 1016 7
801 9 956 1016 971
802 1 158 2 976
803 1 158 2 173
804 1 158 2 995
805 1 173 2 976
806 1 976 2 995
807 1 173 2 995
808 2 924 904 832
809 3 832 904 976
810 4 924 904 976
811 2 919 907 835
812 3 835 907 979
813 4 919 907 979
814 2 916 912 840
815 3 840 912 984
816 4 916 912 984
817 2 912 916 844
818 3 844 916 988
819 4 912 916 988
820 2 907 919 847
821 3 847 919 991
822 4 907 919 991
823 2 904 924 852
824 3 852 924 996
825 4 904 924 996
826 5 860 928 976
827 5 860 928 996
828 6 976 928 996
829 5 854 931 979
830 5 854 931 991
831 6 979 931 991
832 5 861 936 984
833 5 861 936 988
834 6 984 936 988
835 7 904 976 2
836 8 928 976 2
837 9 904 976 928
838 7 907 979 1025
839 8 931 979 1025
840 9 907 979 931
841 7 912 984 1230
842 8 936 984 1230
843 9 912 984 936
844 7 916 988 3
845 8 936 988 3
846 9 916 988 936
847 1 982 1024 1182
848 1 1182 1024 1197
849 1 996 1024 1182
850 1 982 1024 1197
851 1 982 1024 996
852 1 996 1024 1197
853 1 181 7 999
854 1 181 7 199
855 1 181 7 1016
856 1 199 7 999
857 1 999 7 1016
858 1 199 7 1016
859 1 161 3 983
860 1 161 3 170
861 1 161 3 988
862 1 170 3 983
863 1 983 3 988
864 1 170 3 988
865 1 190 418 594
866 1 201 418 594
867 1 594 418 612
868 1 190 418 201
869 1 190 418 612
870 1 201 418 612
871 2 552 532 460
872 3 460 532 592
873 4 552 532 592
874 2 547 535 463
875 3 463 535 595
876 4 547 535 595
877 2 544 540 468
878 3 468 540 600
879 4 544 540 600
880 2 540 544 472
881 3 472 544 604
882 4 540 544 604
883 2 535 547 475
884 3 475 547 607
885 4 535 547 607
886 2 532 552 480
887 3 480 552 612
888 4 532 552 612
889 5 80 556 592
890 5 80 556 612
891 6 592 556 612
892 5 1298 559 595
893 5 1298 559 607
894 6 595 559 607
895 5 693 564 600
896 5 693 564 604
897 6 600 564 604
898 7 532 592 416
899 8 556 592 416
900 9 532 592 556
901 7 535 595 419
902 8 559 595 419
903 9 535 595 559
904 7 540 600 420
905 8 564 600 420
906 9 540 600 564
907 7 544 604 417
908 8 564 604 417
909 9 544 604 564
910 7 547 607 415
911 8 559 607 415
912 9 547 607 559
913 7 552 612 418
914 8 556 612 418
915 9 552 612 556
916 1 599 621 797
917 1 602 621 797
918 1 797 621 808
919 1 599 621 602
920 1 599 621 808
921 1 602 621 808
922 2 550 494 422
923 3 422 494 566
924 4 550 494 566
925 2 539 512 440
926 3 440 512 584
927 4 539 512 584
928 5 448 527 584
929 5 448 527 599
930 6 584 527 599
931 2 541 534 462
932 3 462 534 594
933 4 541 534 594
934 2 512 539 467
935 3 467 539 599
936 4 512 539 599
937 2 534 541 469
938 3 469 541 601
939 4 534 541 601
940 2 494 550 478
941 3 478 550 610
942 4 494 550 610
943 5 490 554 566
944 5 490 554 610
945 6 566 554 610
946 5 485 558 594
947 5 485 558 601
948 6 594 558 601
949 7 494 566 410
950 8 554 566 410
951 9 494 566 554
952 7 512 584 409
953 8 527 584 409
954 9 512 584 527
955 7 534 594 418
956 8 558 594 418
957 9 534 594 558
958 8 527 599 621
959 7 539 599 621
960 9 539 599 527
961 7 541 601 419
962 8 558 601 419
963 9 541 601 558
964 7 550 610 624
965 8 554 610 624
966 9 550 610 554
967 1 182 416 592
968 1 182 416 605
969 1 182 416 203
970 1 592 416 605
971 1 203 416 592
972 1 203 416 605
973 1 159 409 565
974 1 175 409 565
975 1 565 409 584
976 1 159 409 175
977 1 159 409 584
978 1 175 409 584
979 7 542 602 621
980 8 562 602 621
981 9 542 602 562
982 2 543 500 428
983 3 428 500 572
984 4 543 500 572
985 2 531 513 441
986 3 441 513 585
987 4 531 513 585
988 5 455 524 572
989 5 455 524 603
990 6 572 524 603
991 2 513 531 459
992 3 459 531 591
993 4 513 531 591
994 2 545 533 461
995 3 461 533 593
996 4 545 533 593
997 2 500 543 471
998 3 471 543 603
999 4 500 543 603
1000 2 533 545 473
1001 3 473 545 605
1002 4 533 545 605
1003 5 492 555 585
1004 5 492 555 591
1005 6 585 555 591
1006 5 481 557 593
1007 5 481 557 605
1008 6 593 557 605
1009 7 500 572 414
1010 8 524 572 414
1011 9 500 572 524
1012 7 513 585 412
1013 8 555 585 412
1014 9 513 585 555
1015 7 531 591 1231
1016 8 555 591 1231
1017 9 531 591 555
1018 7 533 593 417
1019 8 557 593 417
1020 9 533 593 557
1021 8 524 603 1235
1022 7 543 603 1235
1023 9 543 603 524
1024 7 545 605 416
1025 8 557 605 416
1026 9 545 605 557
1027 7 537 597 1235
1028 8 561 597 1235
1029 9 537 597 561
1030 1 168 414 572
1031 1 572 414 582
1032 1 178 414 572
1033 1 168 414 582
1034 1 168 414 178
1035 1 178 414 582
1036 2 510 493 421
1037 3 421 493 565
1038 4 510 493 565
1039 2 542 502 430
1040 3 430 502 574
1041 4 542 502 574
1042 2 493 510 438
1043 3 438 510 582
1044 4 493 510 582
1045 2 537 515 443
1046 3 443 515 587
1047 4 537 515 587
1048 5 42 517 565
1049 5 42 517 582
1050 6 565 517 582
1051 2 515 537 465
1052 3 465 537 597
1053 4 515 537 597
1054 2 502 542 470
1055 3 470 542 602
1056 4 502 542 602
1057 5 1299 561 587
1058 5 1299 561 597
1059 6 587 561 597
1060 5 691 562 574
1061 5 691 562 602
1062 6 574 562 602
1063 7 493 565 409
1064 8 517 565 409
1065 9 493 565 517
1066 7 502 574 616
1067 8 562 574 616
1068 9 502 574 562
1069 7 510 582 414
1070 8 517 582 414
1071 9 510 582 517
1072 7 515 587 1226
1073 8 561 587 1226
1074 9 515 587 561
1075 1 597 1235 1411
1076 1 1411 1235 1417
1077 1 603 1235 1411
1078 1 597 1235 1417
1079 1 597 1235 603
1080 1 603 1235 1417
1081 1 1006 1234 1410
1082 1 1017 1234 1410
1083 1 1410 1234 1428
1084 1 1006 1234 1017
1085 1 1006 1234 1428
1086 1 1017 1234 1428
1087 2 1368 1348 1276
1088 3 1276 1348 1408
1089 4 1368 1348 1408
1090 2 1363 1351 1279
1091 3 1279 1351 1411
1092 4 1363 1351 1411
1093 2 1360 1356 1284
1094 3 1284 1356 1416
1095 4 1360 1356 1416
1096 2 1356 1360 1288
1097 3 1288 1360 1420
1098 4 1356 1360 1420
1099 2 1351 1363 1291
1100 3 1291 1363 1423
1101 4 1351 1363 1423
1102 2 1348 1368 1296
1103 3 1296 1368 1428
1104 4 1348 1368 1428
1105 5 896 1372 1408
1106 5 896 1372 1428
1107 6 1408 1372 1428
1108 5 482 1375 1411
1109 5 482 1375 1423
1110 6 1411 1375 1423
1111 5 1509 1380 1416
1112 5 1509 1380 1420
1113 6 1416 1380 1420
1114 7 1348 1408 1232
1115 8 1372 1408 1232
1116 9 1348 1408 1372
1117 7 1351 1411 1235
1118 8 1375 1411 1235
1119 9 1351 1411 1375
1120 7 1356 1416 1236
1121 8 1380 1416 1236
1122 9 1356 1416 1380
1123 7 1360 1420 1233
1124 8 1380 1420 1233
1125 9 1360 1420 1380
1126 7 1363 1423 1231
1127 8 1375 1423 1231
1128 9 1363 1423 1375
1129 7 1368 1428 1234
1130 8 1372 1428 1234
1131 9 1368 1428 1372
1132 1 1415 1437 1613
1133 1 1418 1437 1613
1134 1 1613 1437 1624
1135 1 1415 1437 1418
1136 1 1415 1437 1624
1137 1 1418 1437 1624
1138 2 1366 1310 1238
1139 3 1238 1310 1382
1140 4 1366 1310 1382
1141 2 1355 1328 1256
1142 3 1256 1328 1400
1143 4 1355 1328 1400
1144 5 1264 1343 1400
1145 5 1264 1343 1415
1146 6 1400 1343 1415
1147 2 1357 1350 1278
1148 3 1278 1350 1410
1149 4 1357 1350 1410
1150 2 1328 1355 1283
1151 3 1283 1355 1415
1152 4 1328 1355 1415
1153 2 1350 1357 1285
1154 3 1285 1357 1417
1155 4 1350 1357 1417
1156 2 1310 1366 1294
1157 3 1294 1366 1426
1158 4 1310 1366 1426
1159 5 1306 1370 1382
1160 5 1306 1370 1426
1161 6 1382 1370 1426
1162 5 1301 1374 1410
1163 5 1301 1374 1417
1164 6 1410 1374 1417
1165 7 1310 1382 1226
1166 8 1370 1382 1226
1167 9 1310 1382 1370
1168 7 1328 1400 1225
1169 8 1343 1400 1225
1170 9 1328 1400 1343
1171 7 1350 1410 1234
1172 8 1374 1410 1234
1173 9 1350 1410 1374
1174 8 1343 1415 1437
1175 7 1355 1415 1437
1176 9 1355 1415 1343
1177 7 1357 1417 1235
1178 8 1374 1417 1235
1179 9 1357 1417 1374
1180 7 1366 1426 1440
1181 8 1370 1426 1440
1182 9 1366 1426 1370
1183 1 998 1232 1408
1184 1 998 1232 1421
1185 1 998 1232 1019
1186 1 1408 1232 1421
1187 1 1019 1232 1408
1188 1 1019 1232 1421
1189 1 975 1225 1381
1190 1 991 1225 1381
1191 1 1381 1225 1400
1192 1 975 1225 991
1193 1 975 1225 1400
1194 1 991 1225 1400
1195 7 1358 1418 1437
1196 8 1378 1418 1437
1197 9 1358 1418 1378
1198 2 1359 1316 1244
1199 3 1244 1316 1388
1200 4 1359 1316 1388
1201 2 1347 1329 1257
1202 3 1257 1329 1401
1203 4 1347 1329 1401
1204 5 1271 1340 1388
1205 5 1271 1340 1419
1206 6 1388 1340 1419
1207 2 1329 1347 1275
1208 3 1275 1347 1407
1209 4 1329 1347 1407
1210 2 1361 1349 1277
1211 3 1277 1349 1409
1212 4 1361 1349 1409
1213 2 1316 1359 1287
1214 3 1287 1359 1419
1215 4 1316 1359 1419
1216 2 1349 1361 1289
1217 3 1289 1361 1421
1218 4 1349 1361 1421
1219 5 1308 1371 1401
1220 5 1308 1371 1407
1221 6 1401 1371 1407
1222 5 1297 1373 1409
1223 5 1297 1373 1421
1224 6 1409 1373 1421
1225 7 1316 1388 1230
1226 8 1340 1388 1230
1227 9 1316 1388 1340
1228 7 1329 1401 1228
1229 8 1371 1401 1228
1230 9 1329 1401 1371
1231 7 1347 1407 415
1232 8 1371 1407 415
1233 9 1347 1407 1371
1234 7 1349 1409 1233
1235 8 1373 1409 1233
1236 9 1349 1409 1373
1237 8 1340 1419 419
1238 7 1359 1419 419
1239 9 1359 1419 1340
1240 7 1361 1421 1232
1241 8 1373 1421 1232
1242 9 1361 1421 1373
1243 7 1353 1413 419
1244 8 1377 1413 419
1245 9 1353 1413 1377
1246 1 984 1230 1388
1247 1 1388 1230 1398
1248 1 994 1230 1388
1249 1 984 1230 1398
1250 1 984 1230 994
1251 1 994 1230 1398
1252 2 1326 1309 1237
1253 3 1237 1309 1381
1254 4 1326 1309 1381
1255 2 1358 1318 1246
1256 3 1246 1318 1390
1257 4 1358 1318 1390
1258 2 1309 1326 1254
1259 3 1254 1326 1398
1260 4 1309 1326 1398
1261 2 1353 1331 1259
1262 3 1259 1331 1403
1263 4 1353 1331 1403
1264 5 858 1333 1381
1265 5 858 1333 1398
1266 6 1381 1333 1398
1267 2 1331 1353 1281
1268 3 1281 1353 1413
1269 4 1331 1353 1413
1270 2 1318 1358 1286
1271 3 1286 1358 1418
1272 4 1318 1358 1418
1273 5 483 1377 1403
1274 5 483 1377 1413
1275 6 1403 1377 1413
1276 5 1507 1378 1390
1277 5 1507 1378 1418
1278 6 1390 1378 1418
1279 7 1309 1381 1225
1280 8 1333 1381 1225
1281 9 1309 1381 1333
1282 7 1318 1390 1432
1283 8 1378 1390 1432
1284 9 1318 1390 1378
1285 7 1326 1398 1230
1286 8 1333 1398 1230
1287 9 1326 1398 1333
1288 7 1331 1403 410
1289 8 1377 1403 410
1290 9 1331 1403 1377
1291 1 595 419 1413
1292 1 595 419 601
1293 1 595 419 1419
1294 1 601 419 1413
1295 1 1413 419 1419
1296 1 601 419 1419
1297 1 596 624 804
1298 1 596 624 810
1299 1 596 624 610
1300 1 804 624 810
1301 1 610 624 804
1302 1 610 624 810
1303 2 551 501 429
1304 3 429 501 573
1305 4 551 501 573
1306 2 538 506 434
1307 3 434 506 578
1308 4 538 506 578
1309 5 447 525 573
1310 5 447 525 611
1311 6 573 525 611
1312 5 451 526 578
1313 5 451 526 598
1314 6 578 526 598
1315 2 546 529 457
1316 3 457 529 589
1317 4 546 529 589
1318 2 506 538 466
1319 3 466 538 598
1320 4 506 538 598
1321 2 529 546 474
1322 3 474 546 606
1323 4 529 546 606
1324 2 501 551 479
1325 3 479 551 611
1326 4 501 551 611
1327 5 486 553 589
1328 5 486 553 606
1329 6 589 553 606
1330 7 501 573 413
1331 8 525 573 413
1332 9 501 573 525
1333 7 506 578 411
1334 8 526 578 411
1335 9 506 578 526
1336 7 529 589 415
1337 8 553 589 415
1338 9 529 589 553
1339 8 526 598 10
1340 7 538 598 10
1341 9 538 598 526
1342 7 546 606 420
1343 8 553 606 420
1344 9 546 606 553
1345 8 525 611 8
1346 7 551 611 8
1347 9 551 611 525
1348 8 519 609 10
1349 7 549 609 10
1350 9 549 609 519
1351 2 549 495 423
1352 3 423 495 567
1353 4 549 495 567
1354 2 509 497 425
1355 3 425 497 569
1356 4 509 497 569
1357 2 536 507 435
1358 3 435 507 579
1359 4 536 507 579
1360 2 497 509 437
1361 3 437 509 581
1362 4 497 509 581
1363 5 48 519 567
1364 5 48 519 609
1365 6 567 519 609
1366 5 1261 521 569
1367 5 1261 521 581
1368 6 569 521 581
1369 2 507 536 464
1370 3 464 536 596
1371 4 507 536 596
1372 2 495 549 477
1373 3 477 549 609
1374 4 495 549 609
1375 5 695 560 579
1376 5 695 560 596
1377 6 579 560 596
1378 7 495 567 1
1379 8 519 567 1
1380 9 495 567 519
1381 7 497 569 411
1382 8 521 569 411
1383 9 497 569 521
1384 7 507 579 617
1385 8 560 579 617
1386 9 507 579 560
1387 7 509 581 410
1388 8 521 581 410
1389 9 509 581 521
1390 7 536 596 624
1391 8 560 596 624
1392 9 536 596 560
1393 1 571 617 777
1394 1 571 617 781
1395 1 571 617 579
1396 1 777 617 781
1397 1 579 617 777
1398 1 579 617 781
1399 1 568 1226 1382
1400 1 1382 1226 1397
1401 1 587 1226 1382
1402 1 568 1226 1397
1403 1 568 1226 587
1404 1 587 1226 1397
1405 7 516 588 616
1406 8 520 588 616
1407 9 516 588 520
1408 2 505 498 426
1409 3 426 498 570
1410 4 505 498 570
1411 2 548 503 431
1412 3 431 503 575
1413 4 548 503 575
1414 2 498 505 433
1415 3 433 505 577
1416 4 498 505 577
1417 2 530 514 442
1418 3 442 514 586
1419 4 530 514 586
1420 5 46 518 586
1421 5 46 518 590
1422 6 586 518 590
1423 5 653 522 570
1424 5 653 522 577
1425 6 570 522 577
1426 2 514 530 458
1427 3 458 530 590
1428 4 514 530 590
1429 2 503 548 476
1430 3 476 548 608
1431 4 503 548 608
1432 5 1300 563 575
1433 5 1300 563 608
1434 6 575 563 608
1435 7 498 570 412
1436 8 522 570 412
1437 9 498 570 522
1438 7 503 575 1227
1439 8 563 575 1227
1440 9 503 575 563
1441 7 505 577 413
1442 8 522 577 413
1443 9 505 577 522
1444 7 514 586 6
1445 8 518 586 6
1446 9 514 586 518
1447 8 518 590 8
1448 7 530 590 8
1449 9 530 590 518
1450 7 548 608 1231
1451 8 563 608 1231
1452 9 548 608 563
1453 2 516 496 424
1454 3 424 496 568
1455 4 516 496 568
1456 2 511 499 427
1457 3 427 499 571
1458 4 511 499 571
1459 2 508 504 432
1460 3 432 504 576
1461 4 508 504 576
1462 2 504 508 436
1463 3 436 508 580
1464 4 504 508 580
1465 2 499 511 439
1466 3 439 511 583
1467 4 499 511 583
1468 2 496 516 444
1469 3 444 516 588
1470 4 496 516 588
1471 5 452 520 568
1472 5 452 520 588
1473 6 568 520 588
1474 5 446 523 571
1475 5 446 523 583
1476 6 571 523 583
1477 5 453 528 576
1478 5 453 528 580
1479 6 576 528 580
1480 7 496 568 1226
1481 8 520 568 1226
1482 9 496 568 520
1483 7 499 571 617
1484 8 523 571 617
1485 9 499 571 523
1486 7 504 576 6
1487 8 528 576 6
1488 9 504 576 528
1489 7 508 580 1227
1490 8 528 580 1227
1491 9 508 580 528
1492 7 511 583 1
1493 8 523 583 1
1494 9 511 583 523
1495 1 574 616 774
1496 1 774 616 789
1497 1 588 616 774
1498 1 574 616 789
1499 1 574 616 588
1500 1 588 616 789
1501 1 591 1231 1405
1502 1 1405 1231 1423
1503 1 608 1231 1405
1504 1 591 1231 1423
1505 1 591 1231 608
1506 1 608 1231 1423
1507 1 575 1227 1385
1508 1 1385 1227 1394
1509 1 580 1227 1385
1510 1 575 1227 1394
1511 1 575 1227 580
1512 1 580 1227 1394
1513 1 1412 1440 1620
1514 1 1412 1440 1626
1515 1 1412 1440 1426
1516 1 1620 1440 1626
1517 1 1426 1440 1620
1518 1 1426 1440 1626
1519 2 1367 1317 1245
1520 3 1245 1317 1389
1521 4 1367 1317 1389
1522 2 1354 1322 1250
1523 3 1250 1322 1394
1524 4 1354 1322 1394
1525 5 1263 1341 1389
1526 5 1263 1341 1427
1527 6 1389 1341 1427
1528 5 1267 1342 1394
1529 5 1267 1342 1414
1530 6 1394 1342 1414
1531 2 1362 1345 1273
1532 3 1273 1345 1405
1533 4 1362 1345 1405
1534 2 1322 1354 1282
1535 3 1282 1354 1414
1536 4 1322 1354 1414
1537 2 1345 1362 1290
1538 3 1290 1362 1422
1539 4 1345 1362 1422
1540 2 1317 1367 1295
1541 3 1295 1367 1427
1542 4 1317 1367 1427
1543 5 1302 1369 1405
1544 5 1302 1369 1422
1545 6 1405 1369 1422
1546 7 1317 1389 1229
1547 8 1341 1389 1229
1548 9 1317 1389 1341
1549 7 1322 1394 1227
1550 8 1342 1394 1227
1551 9 1322 1394 1342
1552 7 1345 1405 1231
1553 8 1369 1405 1231
1554 9 1345 1405 1369
1555 8 1342 1414 826
1556 7 1354 1414 826
1557 9 1354 1414 1342
1558 7 1362 1422 1236
1559 8 1369 1422 1236
1560 9 1362 1422 1369
1561 8 1341 1427 824
1562 7 1367 1427 824
1563 9 1367 1427 1341
1564 8 1335 1425 826
1565 7 1365 1425 826
1566 9 1365 1425 1335
1567 2 1365 1311 1239
1568 3 1239 1311 1383
1569 4 1365 1311 1383
1570 2 1325 1313 1241
1571 3 1241 1313 1385
1572 4 1325 1313 1385
1573 2 1352 1323 1251
1574 3 1251 1323 1395
1575 4 1352 1323 1395
1576 2 1313 1325 1253
1577 3 1253 1325 1397
1578 4 1313 1325 1397
1579 5 864 1335 1383
1580 5 864 1335 1425
1581 6 1383 1335 1425
1582 5 445 1337 1385
1583 5 445 1337 1397
1584 6 1385 1337 1397
1585 2 1323 1352 1280
1586 3 1280 1352 1412
1587 4 1323 1352 1412
1588 2 1311 1365 1293
1589 3 1293 1365 1425
1590 4 1311 1365 1425
1591 5 1511 1376 1395
1592 5 1511 1376 1412
1593 6 1395 1376 1412
1594 7 1311 1383 817
1595 8 1335 1383 817
1596 9 1311 1383 1335
1597 7 1313 1385 1227
1598 8 1337 1385 1227
1599 9 1313 1385 1337
1600 7 1323 1395 1433
1601 8 1376 1395 1433
1602 9 1323 1395 1376
1603 7 1325 1397 1226
1604 8 1337 1397 1226
1605 9 1325 1397 1337
1606 7 1352 1412 1440
1607 8 1376 1412 1440
1608 9 1352 1412 1376
1609 1 1387 1433 1593
1610 1 1387 1433 1597
1611 1 1387 1433 1395
1612 1 1593 1433 1597
1613 1 1395 1433 1593
1614 1 1395 1433 1597
1615 7 1332 1404 1432
1616 8 1336 1404 1432
1617 9 1332 1404 1336
1618 7 1327 1399 817
1619 8 1339 1399 817
1620 9 1327 1399 1339
1621 2 1321 1314 1242
1622 3 1242 1314 1386
1623 4 1321 1314 1386
1624 2 1364 1319 1247
1625 3 1247 1319 1391
1626 4 1364 1319 1391
1627 2 1314 1321 1249
1628 3 1249 1321 1393
1629 4 1314 1321 1393
1630 2 1346 1330 1258
1631 3 1258 1330 1402
1632 4 1346 1330 1402
1633 5 862 1334 1402
1634 5 862 1334 1406
1635 6 1402 1334 1406
1636 5 1469 1338 1386
1637 5 1469 1338 1393
1638 6 1386 1338 1393
1639 2 1330 1346 1274
1640 3 1274 1346 1406
1641 4 1330 1346 1406
1642 2 1319 1364 1292
1643 3 1292 1364 1424
1644 4 1319 1364 1424
1645 5 484 1379 1391
1646 5 484 1379 1424
1647 6 1391 1379 1424
1648 7 1314 1386 1228
1649 8 1338 1386 1228
1650 9 1314 1386 1338
1651 7 1319 1391 411
1652 8 1379 1391 411
1653 9 1319 1391 1379
1654 7 1321 1393 1229
1655 8 1338 1393 1229
1656 9 1321 1393 1338
1657 7 1330 1402 822
1658 8 1334 1402 822
1659 9 1330 1402 1334
1660 8 1334 1406 824
1661 7 1346 1406 824
1662 9 1346 1406 1334
1663 7 1364 1424 415
1664 8 1379 1424 415
1665 9 1364 1424 1379
1666 1 566 410 1384
1667 1 566 410 581
1668 1 566 410 1403
1669 1 581 410 1384
1670 1 1384 410 1403
1671 1 581 410 1403
1672 2 1332 1312 1240
1673 3 1240 1312 1384
1674 4 1332 1312 1384
1675 2 1327 1315 1243
1676 3 1243 1315 1387
1677 4 1327 1315 1387
1678 2 1324 1320 1248
1679 3 1248 1320 1392
1680 4 1324 1320 1392
1681 2 1320 1324 1252
1682 3 1252 1324 1396
1683 4 1320 1324 1396
1684 2 1315 1327 1255
1685 3 1255 1327 1399
1686 4 1315 1327 1399
1687 2 1312 1332 1260
1688 3 1260 1332 1404
1689 4 1312 1332 1404
1690 5 1268 1336 1384
1691 5 1268 1336 1404
1692 6 1384 1336 1404
1693 5 1262 1339 1387
1694 5 1262 1339 1399
1695 6 1387 1339 1399
1696 5 1269 1344 1392
1697 5 1269 1344 1396
1698 6 1392 1344 1396
1699 7 1312 1384 410
1700 8 1336 1384 410
1701 9 1312 1384 1336
1702 7 1315 1387 1433
1703 8 1339 1387 1433
1704 9 1315 1387 1339
1705 7 1320 1392 822
1706 8 1344 1392 822
1707 9 1320 1392 1344
1708 7 1324 1396 411
1709 8 1344 1396 411
1710 9 1324 1396 1344
1711 1 1390 1432 1590
1712 1 1590 1432 1605
1713 1 1404 1432 1590
1714 1 1390 1432 1605
1715 1 1390 1432 1404
1716 1 1404 1432 1605
1717 1 589 415 1407
1718 1 589 415 607
1719 1 589 415 1424
1720 1 607 415 1407
1721 1 1407 415 1424
1722 1 607 415 1424
1723 1 569 411 1391
1724 1 569 411 578
1725 1 569 411 1396
1726 1 578 411 1391
1727 1 1391 411 1396
1728 1 578 411 1396
1729 1 390 214 802
1730 1 390 214 813
1731 1 390 214 408
1732 1 802 214 813
1733 1 408 214 802
1734 1 408 214 813
1735 2 348 328 256
1736 3 256 328 388
1737 4 348 328 388
1738 2 343 331 259
1739 3 259 331 391
1740 4 343 331 391
1741 2 340 336 264
1742 3 264 336 396
1743 4 340 336 396
1744 2 336 340 268
1745 3 268 340 400
1746 4 336 340 400
1747 2 331 343 271
1748 3 271 343 403
1749 4 331 343 403
1750 2 328 348 276
1751 3 276 348 408
1752 4 328 348 408
1753 5 692 352 388
1754 5 692 352 408
1755 6 388 352 408
1756 5 1094 355 391
1757 5 1094 355 403
1758 6 391 355 403
1759 5 81 360 396
1760 5 81 360 400
1761 6 396 360 400
1762 7 328 388 212
1763 8 352 388 212
1764 9 328 388 352
1765 7 331 391 215
1766 8 355 391 215
1767 9 331 391 355
1768 7 336 396 216
1769 8 360 396 216
1770 9 336 396 360
1771 7 340 400 213
1772 8 360 400 213
1773 9 340 400 360
1774 7 343 403 211
1775 8 355 403 211
1776 9 343 403 355
1777 7 348 408 214
1778 8 352 408 214
1779 9 348 408 352
1780 1 185 9 395
1781 1 185 9 398
1782 1 185 9 196
1783 1 395 9 398
1784 1 196 9 395
1785 1 196 9 398
1786 7 346 406 12
1787 8 350 406 12
1788 9 346 406 350
1789 7 337 397 215
1790 8 354 397 215
1791 9 337 397 354
1792 2 346 290 218
1793 3 218 290 362
1794 4 346 290 362
1795 2 335 308 236
1796 3 236 308 380
1797 4 335 308 380
1798 5 244 323 380
1799 5 244 323 395
1800 6 380 323 395
1801 2 337 330 258
1802 3 258 330 390
1803 4 337 330 390
1804 2 308 335 263
1805 3 263 335 395
1806 4 308 335 395
1807 2 330 337 265
1808 3 265 337 397
1809 4 330 337 397
1810 2 290 346 274
1811 3 274 346 406
1812 4 290 346 406
1813 5 286 350 362
1814 5 286 350 406
1815 6 362 350 406
1816 5 281 354 390
1817 5 281 354 397
1818 6 390 354 397
1819 7 290 362 206
1820 8 350 362 206
1821 9 290 362 350
1822 7 308 380 205
1823 8 323 380 205
1824 9 308 380 323
1825 7 330 390 214
1826 8 354 390 214
1827 9 330 390 354
1828 8 323 395 9
1829 7 335 395 9
1830 9 335 395 323
1831 1 388 212 794
1832 1 401 212 794
1833 1 794 212 815
1834 1 388 212 401
1835 1 388 212 815
1836 1 401 212 815
1837 1 361 205 771
1838 1 361 205 787
1839 1 361 205 380
1840 1 771 205 787
1841 1 380 205 771
1842 1 380 205 787
1843 7 338 398 9
1844 8 358 398 9
1845 9 338 398 358
1846 2 339 296 224
1847 3 224 296 368
1848 4 339 296 368
1849 2 327 309 237
1850 3 237 309 381
1851 4 327 309 381
1852 5 251 320 368
1853 5 251 320 399
1854 6 368 320 399
1855 2 309 327 255
1856 3 255 327 387
1857 4 309 327 387
1858 2 341 329 257
1859 3 257 329 389
1860 4 341 329 389
1861 2 296 339 267
1862 3 267 339 399
1863 4 296 339 399
1864 2 329 341 269
1865 3 269 341 401
1866 4 329 341 401
1867 5 288 351 381
1868 5 288 351 387
1869 6 381 351 387
1870 5 277 353 389
1871 5 277 353 401
1872 6 389 353 401
1873 7 296 368 210
1874 8 320 368 210
1875 9 296 368 320
1876 7 309 381 208
1877 8 351 381 208
1878 9 309 381 351
1879 7 327 387 1027
1880 8 351 387 1027
1881 9 327 387 351
1882 7 329 389 213
1883 8 353 389 213
1884 9 329 389 353
1885 8 320 399 1031
1886 7 339 399 1031
1887 9 339 399 320
1888 7 341 401 212
1889 8 353 401 212
1890 9 341 401 353
1891 7 333 393 1031
1892 8 357 393 1031
1893 9 333 393 357
1894 1 368 210 780
1895 1 368 210 378
1896 1 368 210 790
1897 1 378 210 780
1898 1 780 210 790
1899 1 378 210 790
1900 2 306 289 217
1901 3 217 289 361
1902 4 306 289 361
1903 2 338 298 226
1904 3 226 298 370
1905 4 338 298 370
1906 2 289 306 234
1907 3 234 306 378
1908 4 289 306 378
1909 2 333 311 239
1910 3 239 311 383
1911 4 333 311 383
1912 5 654 313 361
1913 5 654 313 378
1914 6 361 313 378
1915 2 311 333 261
1916 3 261 333 393
1917 4 311 333 393
1918 2 298 338 266
1919 3 266 338 398
1920 4 298 338 398
1921 5 1095 357 383
1922 5 1095 357 393
1923 6 383 357 393
1924 5 79 358 370
1925 5 79 358 398
1926 6 370 358 398
1927 7 289 361 205
1928 8 313 361 205
1929 9 289 361 313
1930 7 298 370 4
1931 8 358 370 4
1932 9 298 370 358
1933 7 306 378 210
1934 8 313 378 210
1935 9 306 378 313
1936 7 311 383 1022
1937 8 357 383 1022
1938 9 311 383 357
1939 1 393 1031 1207
1940 1 1207 1031 1213
1941 1 399 1031 1207
1942 1 393 1031 1213
1943 1 393 1031 399
1944 1 399 1031 1213
1945 1 1206 1030 1618
1946 1 1206 1030 1629
1947 1 1206 1030 1224
1948 1 1618 1030 1629
1949 1 1224 1030 1618
1950 1 1224 1030 1629
1951 2 1164 1144 1072
1952 3 1072 1144 1204
1953 4 1164 1144 1204
1954 2 1159 1147 1075
1955 3 1075 1147 1207
1956 4 1159 1147 1207
1957 2 1156 1152 1080
1958 3 1080 1152 1212
1959 4 1156 1152 1212
1960 2 1152 1156 1084
1961 3 1084 1156 1216
1962 4 1152 1156 1216
1963 2 1147 1159 1087
1964 3 1087 1159 1219
1965 4 1147 1159 1219
1966 2 1144 1164 1092
1967 3 1092 1164 1224
1968 4 1144 1164 1224
1969 5 1508 1168 1204
1970 5 1508 1168 1224
1971 6 1204 1168 1224
1972 5 278 1171 1207
1973 5 278 1171 1219
1974 6 1207 1171 1219
1975 5 897 1176 1212
1976 5 897 1176 1216
1977 6 1212 1176 1216
1978 7 1144 1204 1028
1979 8 1168 1204 1028
1980 9 1144 1204 1168
1981 7 1147 1207 1031
1982 8 1171 1207 1031
1983 9 1147 1207 1171
1984 7 1152 1212 1032
1985 8 1176 1212 1032
1986 9 1152 1212 1176
1987 7 1156 1216 1029
1988 8 1176 1216 1029
1989 9 1156 1216 1176
1990 7 1159 1219 1027
1991 8 1171 1219 1027
1992 9 1159 1219 1171
1993 7 1164 1224 1030
1994 8 1168 1224 1030
1995 9 1164 1224 1168
1996 1 1001 825 1211
1997 1 1001 825 1214
1998 1 1001 825 1012
1999 1 1211 825 1214
2000 1 1012 825 1211
2001 1 1012 825 1214
2002 7 1162 1222 828
2003 8 1166 1222 828
2004 9 1162 1222 1166
2005 7 1153 1213 1031
2006 8 1170 1213 1031
2007 9 1153 1213 1170
2008 2 1162 1106 1034
2009 3 1034 1106 1178
2010 4 1162 1106 1178
2011 2 1151 1124 1052
2012 3 1052 1124 1196
2013 4 1151 1124 1196
2014 5 1060 1139 1196
2015 5 1060 1139 1211
2016 6 1196 1139 1211
2017 2 1153 1146 1074
2018 3 1074 1146 1206
2019 4 1153 1146 1206
2020 2 1124 1151 1079
2021 3 1079 1151 1211
2022 4 1124 1151 1211
2023 2 1146 1153 1081
2024 3 1081 1153 1213
2025 4 1146 1153 1213
2026 2 1106 1162 1090
2027 3 1090 1162 1222
2028 4 1106 1162 1222
2029 5 1102 1166 1178
2030 5 1102 1166 1222
2031 6 1178 1166 1222
2032 5 1097 1170 1206
2033 5 1097 1170 1213
2034 6 1206 1170 1213
2035 7 1106 1178 1022
2036 8 1166 1178 1022
2037 9 1106 1178 1166
2038 7 1124 1196 1021
2039 8 1139 1196 1021
2040 9 1124 1196 1139
2041 7 1146 1206 1030
2042 8 1170 1206 1030
2043 9 1146 1206 1170
2044 8 1139 1211 825
2045 7 1151 1211 825
2046 9 1151 1211 1139
2047 1 1204 1028 1610
2048 1 1217 1028 1610
2049 1 1610 1028 1631
2050 1 1204 1028 1217
2051 1 1204 1028 1631
2052 1 1217 1028 1631
2053 1 1177 1021 1587
2054 1 1177 1021 1603
2055 1 1177 1021 1196
2056 1 1587 1021 1603
2057 1 1196 1021 1587
2058 1 1196 1021 1603
2059 7 1154 1214 825
2060 8 1174 1214 825
2061 9 1154 1214 1174
2062 2 1155 1112 1040
2063 3 1040 1112 1184
2064 4 1155 1112 1184
2065 2 1143 1125 1053
2066 3 1053 1125 1197
2067 4 1143 1125 1197
2068 5 1067 1136 1184
2069 5 1067 1136 1215
2070 6 1184 1136 1215
2071 2 1125 1143 1071
2072 3 1071 1143 1203
2073 4 1125 1143 1203
2074 2 1157 1145 1073
2075 3 1073 1145 1205
2076 4 1157 1145 1205
2077 2 1112 1155 1083
2078 3 1083 1155 1215
2079 4 1112 1155 1215
2080 2 1145 1157 1085
2081 3 1085 1157 1217
2082 4 1145 1157 1217
2083 5 1104 1167 1197
2084 5 1104 1167 1203
2085 6 1197 1167 1203
2086 5 1093 1169 1205
2087 5 1093 1169 1217
2088 6 1205 1169 1217
2089 7 1112 1184 1026
2090 8 1136 1184 1026
2091 9 1112 1184 1136
2092 7 1125 1197 1024
2093 8 1167 1197 1024
2094 9 1125 1197 1167
2095 7 1143 1203 211
2096 8 1167 1203 211
2097 9 1143 1203 1167
2098 7 1145 1205 1029
2099 8 1169 1205 1029
2100 9 1145 1205 1169
2101 8 1136 1215 215
2102 7 1155 1215 215
2103 9 1155 1215 1136
2104 7 1157 1217 1028
2105 8 1169 1217 1028
2106 9 1157 1217 1169
2107 7 1149 1209 215
2108 8 1173 1209 215
2109 9 1149 1209 1173
2110 1 1184 1026 1596
2111 1 1184 1026 1194
2112 1 1184 1026 1606
2113 1 1194 1026 1596
2114 1 1596 1026 1606
2115 1 1194 1026 1606
2116 2 1122 1105 1033
2117 3 1033 1105 1177
2118 4 1122 1105 1177
2119 2 1154 1114 1042
2120 3 1042 1114 1186
2121 4 1154 1114 1186
2122 2 1105 1122 1050
2123 3 1050 1122 1194
2124 4 1105 1122 1194
2125 2 1149 1127 1055
2126 3 1055 1127 1199
2127 4 1149 1127 1199
2128 5 1470 1129 1177
2129 5 1470 1129 1194
2130 6 1177 1129 1194
2131 2 1127 1149 1077
2132 3 1077 1149 1209
2133 4 1127 1149 1209
2134 2 1114 1154 1082
2135 3 1082 1154 1214
2136 4 1114 1154 1214
2137 5 279 1173 1199
2138 5 279 1173 1209
2139 6 1199 1173 1209
2140 5 895 1174 1186
2141 5 895 1174 1214
2142 6 1186 1174 1214
2143 7 1105 1177 1021
2144 8 1129 1177 1021
2145 9 1105 1177 1129
2146 7 1114 1186 820
2147 8 1174 1186 820
2148 9 1114 1186 1174
2149 7 1122 1194 1026
2150 8 1129 1194 1026
2151 9 1122 1194 1129
2152 7 1127 1199 206
2153 8 1173 1199 206
2154 9 1127 1199 1173
2155 1 391 215 1209
2156 1 391 215 397
2157 1 391 215 1215
2158 1 397 215 1209
2159 1 1209 215 1215
2160 1 397 215 1215
2161 1 192 12 392
2162 1 198 12 392
2163 1 392 12 406
2164 1 192 12 198
2165 1 192 12 406
2166 1 198 12 406
2167 2 347 297 225
2168 3 225 297 369
2169 4 347 297 369
2170 2 334 302 230
2171 3 230 302 374
2172 4 334 302 374
2173 5 243 321 369
2174 5 243 321 407
2175 6 369 321 407
2176 5 247 322 374
2177 5 247 322 394
2178 6 374 322 394
2179 2 342 325 253
2180 3 253 325 385
2181 4 342 325 385
2182 2 302 334 262
2183 3 262 334 394
2184 4 302 334 394
2185 2 325 342 270
2186 3 270 342 402
2187 4 325 342 402
2188 2 297 347 275
2189 3 275 347 407
2190 4 297 347 407
2191 5 282 349 385
2192 5 282 349 402
2193 6 385 349 402
2194 7 297 369 209
2195 8 321 369 209
2196 9 297 369 321
2197 7 302 374 207
2198 8 322 374 207
2199 9 302 374 322
2200 7 325 385 211
2201 8 349 385 211
2202 9 325 385 349
2203 8 322 394 622
2204 7 334 394 622
2205 9 334 394 322
2206 7 342 402 216
2207 8 349 402 216
2208 9 342 402 349
2209 8 321 407 620
2210 7 347 407 620
2211 9 347 407 321
2212 8 315 405 622
2213 7 345 405 622
2214 9 345 405 315
2215 2 345 291 219
2216 3 219 291 363
2217 4 345 291 363
2218 2 305 293 221
2219 3 221 293 365
2220 4 305 293 365
2221 2 332 303 231
2222 3 231 303 375
2223 4 332 303 375
2224 2 293 305 233
2225 3 233 305 377
2226 4 293 305 377
2227 5 660 315 363
2228 5 660 315 405
2229 6 363 315 405
2230 5 1057 317 365
2231 5 1057 317 377
2232 6 365 317 377
2233 2 303 332 260
2234 3 260 332 392
2235 4 303 332 392
2236 2 291 345 273
2237 3 273 345 405
2238 4 291 345 405
2239 5 83 356 375
2240 5 83 356 392
2241 6 375 356 392
2242 7 291 363 613
2243 8 315 363 613
2244 9 291 363 315
2245 7 293 365 207
2246 8 317 365 207
2247 9 293 365 317
2248 7 303 375 5
2249 8 356 375 5
2250 9 303 375 356
2251 7 305 377 206
2252 8 317 377 206
2253 9 305 377 317
2254 7 332 392 12
2255 8 356 392 12
2256 9 332 392 356
2257 1 165 5 367
2258 1 169 5 367
2259 1 367 5 375
2260 1 165 5 169
2261 1 165 5 375
2262 1 169 5 375
2263 1 364 1022 1178
2264 1 1178 1022 1193
2265 1 383 1022 1178
2266 1 364 1022 1193
2267 1 364 1022 383
2268 1 383 1022 1193
2269 7 312 384 4
2270 8 316 384 4
2271 9 312 384 316
2272 2 301 294 222
2273 3 222 294 366
2274 4 301 294 366
2275 2 344 299 227
2276 3 227 299 371
2277 4 344 299 371
2278 2 294 301 229
2279 3 229 301 373
2280 4 294 301 373
2281 2 326 310 238
2282 3 238 310 382
2283 4 326 310 382
2284 5 658 314 382
2285 5 658 314 386
2286 6 382 314 386
2287 5 41 318 366
2288 5 41 318 373
2289 6 366 318 373
2290 2 310 326 254
2291 3 254 326 386
2292 4 310 326 386
2293 2 299 344 272
2294 3 272 344 404
2295 4 299 344 404
2296 5 1096 359 371
2297 5 1096 359 404
2298 6 371 359 404
2299 7 294 366 208
2300 8 318 366 208
2301 9 294 366 318
2302 7 299 371 1023
2303 8 359 371 1023
2304 9 299 371 359
2305 7 301 373 209
2306 8 318 373 209
2307 9 301 373 318
2308 7 310 382 618
2309 8 314 382 618
2310 9 310 382 314
2311 8 314 386 620
2312 7 326 386 620
2313 9 326 386 314
2314 7 344 404 1027
2315 8 359 404 1027
2316 9 344 404 359
2317 2 312 292 220
2318 3 220 292 364
2319 4 312 292 364
2320 2 307 295 223
2321 3 223 295 367
2322 4 307 295 367
2323 2 304 300 228
2324 3 228 300 372
2325 4 304 300 372
2326 2 300 304 232
2327 3 232 304 376
2328 4 300 304 376
2329 2 295 307 235
2330 3 235 307 379
2331 4 295 307 379
2332 2 292 312 240
2333 3 240 312 384
2334 4 292 312 384
2335 5 248 316 364
2336 5 248 316 384
2337 6 364 316 384
2338 5 242 319 367
2339 5 242 319 379
2340 6 367 319 379
2341 5 249 324 372
2342 5 249 324 376
2343 6 372 324 376
2344 7 292 364 1022
2345 8 316 364 1022
2346 9 292 364 316
2347 7 295 367 5
2348 8 319 367 5
2349 9 295 367 319
2350 7 300 372 618
2351 8 324 372 618
2352 9 300 372 324
2353 7 304 376 1023
2354 8 324 376 1023
2355 9 304 376 324
2356 7 307 379 613
2357 8 319 379 613
2358 9 307 379 319
2359 1 162 4 370
2360 1 162 4 177
2361 1 162 4 384
2362 1 177 4 370
2363 1 370 4 384
2364 1 177 4 384
2365 1 387 1027 1201
2366 1 1201 1027 1219
2367 1 404 1027 1201
2368 1 387 1027 1219
2369 1 387 1027 404
2370 1 404 1027 1219
2371 1 371 1023 1181
2372 1 1181 1023 1190
2373 1 376 1023 1181
2374 1 371 1023 1190
2375 1 371 1023 376
2376 1 376 1023 1190
2377 1 1008 828 1208
2378 1 1014 828 1208
2379 1 1208 828 1222
2380 1 1008 828 1014
2381 1 1008 828 1222
2382 1 1014 828 1222
2383 2 1163 1113 1041
2384 3 1041 1113 1185
2385 4 1163 1113 1185
2386 2 1150 1118 1046
2387 3 1046 1118 1190
2388 4 1150 1118 1190
2389 5 1059 1137 1185
2390 5 1059 1137 1223
2391 6 1185 1137 1223
2392 5 1063 1138 1190
2393 5 1063 1138 1210
2394 6 1190 1138 1210
2395 2 1158 1141 1069
2396 3 1069 1141 1201
2397 4 1158 1141 1201
2398 2 1118 1150 1078
2399 3 1078 1150 1210
2400 4 1118 1150 1210
2401 2 1141 1158 1086
2402 3 1086 1158 1218
2403 4 1141 1158 1218
2404 2 1113 1163 1091
2405 3 1091 1163 1223
2406 4 1113 1163 1223
2407 5 1098 1165 1201
2408 5 1098 1165 1218
2409 6 1201 1165 1218
2410 7 1113 1185 1025
2411 8 1137 1185 1025
2412 9 1113 1185 1137
2413 7 1118 1190 1023
2414 8 1138 1190 1023
2415 9 1118 1190 1138
2416 7 1141 1201 1027
2417 8 1165 1201 1027
2418 9 1141 1201 1165
2419 8 1138 1210 1438
2420 7 1150 1210 1438
2421 9 1150 1210 1138
2422 7 1158 1218 1032
2423 8 1165 1218 1032
2424 9 1158 1218 1165
2425 8 1137 1223 1436
2426 7 1163 1223 1436
2427 9 1163 1223 1137
2428 8 1131 1221 1438
2429 7 1161 1221 1438
2430 9 1161 1221 1131
2431 2 1161 1107 1035
2432 3 1035 1107 1179
2433 4 1161 1107 1179
2434 2 1121 1109 1037
2435 3 1037 1109 1181
2436 4 1121 1109 1181
2437 2 1148 1119 1047
2438 3 1047 1119 1191
2439 4 1148 1119 1191
2440 2 1109 1121 1049
2441 3 1049 1121 1193
2442 4 1109 1121 1193
2443 5 1476 1131 1179
2444 5 1476 1131 1221
2445 6 1179 1131 1221
2446 5 241 1133 1181
2447 5 241 1133 1193
2448 6 1181 1133 1193
2449 2 1119 1148 1076
2450 3 1076 1148 1208
2451 4 1119 1148 1208
2452 2 1107 1161 1089
2453 3 1089 1161 1221
2454 4 1107 1161 1221
2455 5 899 1172 1191
2456 5 899 1172 1208
2457 6 1191 1172 1208
2458 7 1107 1179 1429
2459 8 1131 1179 1429
2460 9 1107 1179 1131
2461 7 1109 1181 1023
2462 8 1133 1181 1023
2463 9 1109 1181 1133
2464 7 1119 1191 821
2465 8 1172 1191 821
2466 9 1119 1191 1172
2467 7 1121 1193 1022
2468 8 1133 1193 1022
2469 9 1121 1193 1133
2470 7 1148 1208 828
2471 8 1172 1208 828
2472 9 1148 1208 1172
2473 1 981 821 1183
2474 1 985 821 1183
2475 1 1183 821 1191
2476 1 981 821 985
2477 1 981 821 1191
2478 1 985 821 1191
2479 7 1128 1200 820
2480 8 1132 1200 820
2481 9 1128 1200 1132
2482 7 1123 1195 1429
2483 8 1135 1195 1429
2484 9 1123 1195 1135
2485 2 1117 1110 1038
2486 3 1038 1110 1182
2487 4 1117 1110 1182
2488 2 1160 1115 1043
2489 3 1043 1115 1187
2490 4 1160 1115 1187
2491 2 1110 1117 1045
2492 3 1045 1117 1189
2493 4 1110 1117 1189
2494 2 1142 1126 1054
2495 3 1054 1126 1198
2496 4 1142 1126 1198
2497 5 1474 1130 1198
2498 5 1474 1130 1202
2499 6 1198 1130 1202
2500 5 857 1134 1182
2501 5 857 1134 1189
2502 6 1182 1134 1189
2503 2 1126 1142 1070
2504 3 1070 1142 1202
2505 4 1126 1142 1202
2506 2 1115 1160 1088
2507 3 1088 1160 1220
2508 4 1115 1160 1220
2509 5 280 1175 1187
2510 5 280 1175 1220
2511 6 1187 1175 1220
2512 7 1110 1182 1024
2513 8 1134 1182 1024
2514 9 1110 1182 1134
2515 7 1115 1187 207
2516 8 1175 1187 207
2517 9 1115 1187 1175
2518 7 1117 1189 1025
2519 8 1134 1189 1025
2520 9 1117 1189 1134
2521 7 1126 1198 1434
2522 8 1130 1198 1434
2523 9 1126 1198 1130
2524 8 1130 1202 1436
2525 7 1142 1202 1436
2526 9 1142 1202 1130
2527 7 1160 1220 211
2528 8 1175 1220 211
2529 9 1160 1220 1175
2530 1 362 206 1180
2531 1 362 206 377
2532 1 362 206 1199
2533 1 377 206 1180
2534 1 1180 206 1199
2535 1 377 206 1199
2536 2 1128 1108 1036
2537 3 1036 1108 1180
2538 4 1128 1108 1180
2539 2 1123 1111 1039
2540 3 1039 1111 1183
2541 4 1123 1111 1183
2542 2 1120 1116 1044
2543 3 1044 1116 1188
2544 4 1120 1116 1188
2545 2 1116 1120 1048
2546 3 1048 1120 1192
2547 4 1116 1120 1192
2548 2 1111 1123 1051
2549 3 1051 1123 1195
2550 4 1111 1123 1195
2551 2 1108 1128 1056
2552 3 1056 1128 1200
2553 4 1108 1128 1200
2554 5 1064 1132 1180
2555 5 1064 1132 1200
2556 6 1180 1132 1200
2557 5 1058 1135 1183
2558 5 1058 1135 1195
2559 6 1183 1135 1195
2560 5 1065 1140 1188
2561 5 1065 1140 1192
2562 6 1188 1140 1192
2563 7 1108 1180 206
2564 8 1132 1180 206
2565 9 1108 1180 1132
2566 7 1111 1183 821
2567 8 1135 1183 821
2568 9 1111 1183 1135
2569 7 1116 1188 1434
2570 8 1140 1188 1434
2571 9 1116 1188 1140
2572 7 1120 1192 207
2573 8 1140 1192 207
2574 9 1120 1192 1140
2575 1 978 820 1186
2576 1 978 820 993
2577 1 978 820 1200
2578 1 993 820 1186
2579 1 1186 820 1200
2580 1 993 820 1200
2581 1 385 211 1203
2582 1 385 211 403
2583 1 385 211 1220
2584 1 403 211 1203
2585 1 1203 211 1220
2586 1 403 211 1220
2587 1 365 207 1187
2588 1 365 207 374
2589 1 365 207 1192
2590 1 374 207 1187
2591 1 1187 207 1192
2592 1 374 207 1192
2593 1 394 622 798
2594 1 405 622 798
2595 1 798 622 816
2596 1 394 622 405
2597 1 394 622 816
2598 1 405 622 816
2599 2 756 736 664
2600 3 664 736 796
2601 4 756 736 796
2602 2 751 739 667
2603 3 667 739 799
2604 4 751 739 799
2605 2 748 744 672
2606 3 672 744 804
2607 4 748 744 804
2608 2 744 748 676
2609 3 676 748 808
2610 4 744 748 808
2611 2 739 751 679
2612 3 679 751 811
2613 4 739 751 811
2614 2 736 756 684
2615 3 684 756 816
2616 4 736 756 816
2617 5 284 760 796
2618 5 284 760 816
2619 6 796 760 816
2620 5 1502 763 799
2621 5 1502 763 811
2622 6 799 763 811
2623 5 489 768 804
2624 5 489 768 808
2625 6 804 768 808
2626 7 736 796 620
2627 8 760 796 620
2628 9 736 796 760
2629 7 739 799 623
2630 8 763 799 623
2631 9 739 799 763
2632 7 744 804 624
2633 8 768 804 624
2634 9 744 804 768
2635 7 748 808 621
2636 8 768 808 621
2637 9 748 808 768
2638 7 751 811 619
2639 8 763 811 619
2640 9 751 811 763
2641 7 756 816 622
2642 8 760 816 622
2643 9 756 816 760
2644 1 593 417 803
2645 1 593 417 806
2646 1 593 417 604
2647 1 803 417 806
2648 1 604 417 803
2649 1 604 417 806
2650 7 754 814 420
2651 8 758 814 420
2652 9 754 814 758
2653 7 745 805 623
2654 8 762 805 623
2655 9 745 805 762
2656 2 754 698 626
2657 3 626 698 770
2658 4 754 698 770
2659 2 743 716 644
2660 3 644 716 788
2661 4 743 716 788
2662 5 652 731 788
2663 5 652 731 803
2664 6 788 731 803
2665 2 745 738 666
2666 3 666 738 798
2667 4 745 738 798
2668 2 716 743 671
2669 3 671 743 803
2670 4 716 743 803
2671 2 738 745 673
2672 3 673 745 805
2673 4 738 745 805
2674 2 698 754 682
2675 3 682 754 814
2676 4 698 754 814
2677 5 694 758 770
2678 5 694 758 814
2679 6 770 758 814
2680 5 689 762 798
2681 5 689 762 805
2682 6 798 762 805
2683 7 698 770 614
2684 8 758 770 614
2685 9 698 770 758
2686 7 716 788 613
2687 8 731 788 613
2688 9 716 788 731
2689 7 738 798 622
2690 8 762 798 622
2691 9 738 798 762
2692 8 731 803 417
2693 7 743 803 417
2694 9 743 803 731
2695 1 386 620 796
2696 1 386 620 809
2697 1 386 620 407
2698 1 796 620 809
2699 1 407 620 796
2700 1 407 620 809
2701 1 363 613 769
2702 1 379 613 769
2703 1 769 613 788
2704 1 363 613 379
2705 1 363 613 788
2706 1 379 613 788
2707 7 746 806 417
2708 8 766 806 417
2709 9 746 806 766
2710 2 747 704 632
2711 3 632 704 776
2712 4 747 704 776
2713 2 735 717 645
2714 3 645 717 789
2715 4 735 717 789
2716 5 659 728 776
2717 5 659 728 807
2718 6 776 728 807
2719 2 717 735 663
2720 3 663 735 795
2721 4 717 735 795
2722 2 749 737 665
2723 3 665 737 797
2724 4 749 737 797
2725 2 704 747 675
2726 3 675 747 807
2727 4 704 747 807
2728 2 737 749 677
2729 3 677 749 809
2730 4 737 749 809
2731 5 696 759 789
2732 5 696 759 795
2733 6 789 759 795
2734 5 685 761 797
2735 5 685 761 809
2736 6 797 761 809
2737 7 704 776 618
2738 8 728 776 618
2739 9 704 776 728
2740 7 717 789 616
2741 8 759 789 616
2742 9 717 789 759
2743 7 735 795 1435
2744 8 759 795 1435
2745 9 735 795 759
2746 7 737 797 621
2747 8 761 797 621
2748 9 737 797 761
2749 8 728 807 1439
2750 7 747 807 1439
2751 9 747 807 728
2752 7 749 809 620
2753 8 761 809 620
2754 9 749 809 761
2755 7 741 801 1439
2756 8 765 801 1439
2757 9 741 801 765
2758 1 372 618 776
2759 1 776 618 786
2760 1 382 618 776
2761 1 372 618 786
2762 1 372 618 382
2763 1 382 618 786
2764 2 714 697 625
2765 3 625 697 769
2766 4 714 697 769
2767 2 746 706 634
2768 3 634 706 778
2769 4 746 706 778
2770 2 697 714 642
2771 3 642 714 786
2772 4 697 714 786
2773 2 741 719 647
2774 3 647 719 791
2775 4 741 719 791
2776 5 246 721 769
2777 5 246 721 786
2778 6 769 721 786
2779 2 719 741 669
2780 3 669 741 801
2781 4 719 741 801
2782 2 706 746 674
2783 3 674 746 806
2784 4 706 746 806
2785 5 1503 765 791
2786 5 1503 765 801
2787 6 791 765 801
2788 5 487 766 778
2789 5 487 766 806
2790 6 778 766 806
2791 7 697 769 613
2792 8 721 769 613
2793 9 697 769 721
2794 7 706 778 412
2795 8 766 778 412
2796 9 706 778 766
2797 7 714 786 618
2798 8 721 786 618
2799 9 714 786 721
2800 7 719 791 1430
2801 8 765 791 1430
2802 9 719 791 765
2803 1 801 1439 1615
2804 1 1615 1439 1621
2805 1 807 1439 1615
2806 1 801 1439 1621
2807 1 801 1439 807
2808 1 807 1439 1621
2809 1 1210 1438 1614
2810 1 1221 1438 1614
2811 1 1614 1438 1632
2812 1 1210 1438 1221
2813 1 1210 1438 1632
2814 1 1221 1438 1632
2815 2 1572 1552 1480
2816 3 1480 1552 1612
2817 4 1572 1552 1612
2818 2 1567 1555 1483
2819 3 1483 1555 1615
2820 4 1567 1555 1615
2821 2 1564 1560 1488
2822 3 1488 1560 1620
2823 4 1564 1560 1620
2824 2 1560 1564 1492
2825 3 1492 1564 1624
2826 4 1560 1564 1624
2827 2 1555 1567 1495
2828 3 1495 1567 1627
2829 4 1555 1567 1627
2830 2 1552 1572 1500
2831 3 1500 1572 1632
2832 4 1552 1572 1632
2833 5 1100 1576 1612
2834 5 1100 1576 1632
2835 6 1612 1576 1632
2836 5 686 1579 1615
2837 5 686 1579 1627
2838 6 1615 1579 1627
2839 5 1305 1584 1620
2840 5 1305 1584 1624
2841 6 1620 1584 1624
2842 7 1552 1612 1436
2843 8 1576 1612 1436
2844 9 1552 1612 1576
2845 7 1555 1615 1439
2846 8 1579 1615 1439
2847 9 1555 1615 1579
2848 7 1560 1620 1440
2849 8 1584 1620 1440
2850 9 1560 1620 1584
2851 7 1564 1624 1437
2852 8 1584 1624 1437
2853 9 1564 1624 1584
2854 7 1567 1627 1435
2855 8 1579 1627 1435
2856 9 1567 1627 1579
2857 7 1572 1632 1438
2858 8 1576 1632 1438
2859 9 1572 1632 1576
2860 1 1409 1233 1619
2861 1 1409 1233 1622
2862 1 1409 1233 1420
2863 1 1619 1233 1622
2864 1 1420 1233 1619
2865 1 1420 1233 1622
2866 7 1570 1630 1236
2867 8 1574 1630 1236
2868 9 1570 1630 1574
2869 7 1561 1621 1439
2870 8 1578 1621 1439
2871 9 1561 1621 1578
2872 2 1570 1514 1442
2873 3 1442 1514 1586
2874 4 1570 1514 1586
2875 2 1559 1532 1460
2876 3 1460 1532 1604
2877 4 1559 1532 1604
2878 5 1468 1547 1604
2879 5 1468 1547 1619
2880 6 1604 1547 1619
2881 2 1561 1554 1482
2882 3 1482 1554 1614
2883 4 1561 1554 1614
2884 2 1532 1559 1487
2885 3 1487 1559 1619
2886 4 1532 1559 1619
2887 2 1554 1561 1489
2888 3 1489 1561 1621
2889 4 1554 1561 1621
2890 2 1514 1570 1498
2891 3 1498 1570 1630
2892 4 1514 1570 1630
2893 5 1510 1574 1586
2894 5 1510 1574 1630
2895 6 1586 1574 1630
2896 5 1505 1578 1614
2897 5 1505 1578 1621
2898 6 1614 1578 1621
2899 7 1514 1586 1430
2900 8 1574 1586 1430
2901 9 1514 1586 1574
2902 7 1532 1604 1429
2903 8 1547 1604 1429
2904 9 1532 1604 1547
2905 7 1554 1614 1438
2906 8 1578 1614 1438
2907 9 1554 1614 1578
2908 8 1547 1619 1233
2909 7 1559 1619 1233
2910 9 1559 1619 1547
2911 1 1202 1436 1612
2912 1 1202 1436 1625
2913 1 1202 1436 1223
2914 1 1612 1436 1625
2915 1 1223 1436 1612
2916 1 1223 1436 1625
2917 1 1179 1429 1585
2918 1 1195 1429 1585
2919 1 1585 1429 1604
2920 1 1179 1429 1195
2921 1 1179 1429 1604
2922 1 1195 1429 1604
2923 7 1562 1622 1233
2924 8 1582 1622 1233
2925 9 1562 1622 1582
2926 2 1563 1520 1448
2927 3 1448 1520 1592
2928 4 1563 1520 1592
2929 2 1551 1533 1461
2930 3 1461 1533 1605
2931 4 1551 1533 1605
2932 5 1475 1544 1592
2933 5 1475 1544 1623
2934 6 1592 1544 1623
2935 2 1533 1551 1479
2936 3 1479 1551 1611
2937 4 1533 1551 1611
2938 2 1565 1553 1481
2939 3 1481 1553 1613
2940 4 1565 1553 1613
2941 2 1520 1563 1491
2942 3 1491 1563 1623
2943 4 1520 1563 1623
2944 2 1553 1565 1493
2945 3 1493 1565 1625
2946 4 1553 1565 1625
2947 5 1512 1575 1605
2948 5 1512 1575 1611
2949 6 1605 1575 1611
2950 5 1501 1577 1613
2951 5 1501 1577 1625
2952 6 1613 1577 1625
2953 7 1520 1592 1434
2954 8 1544 1592 1434
2955 9 1520 1592 1544
2956 7 1533 1605 1432
2957 8 1575 1605 1432
2958 9 1533 1605 1575
2959 7 1551 1611 619
2960 8 1575 1611 619
2961 9 1551 1611 1575
2962 7 1553 1613 1437
2963 8 1577 1613 1437
2964 9 1553 1613 1577
2965 8 1544 1623 623
2966 7 1563 1623 623
2967 9 1563 1623 1544
2968 7 1565 1625 1436
2969 8 1577 1625 1436
2970 9 1565 1625 1577
2971 7 1557 1617 623
2972 8 1581 1617 623
2973 9 1557 1617 1581
2974 1 1188 1434 1592
2975 1 1592 1434 1602
2976 1 1198 1434 1592
2977 1 1188 1434 1602
2978 1 1188 1434 1198
2979 1 1198 1434 1602
2980 2 1530 1513 1441
2981 3 1441 1513 1585
2982 4 1530 1513 1585
2983 2 1562 1522 1450
2984 3 1450 1522 1594
2985 4 1562 1522 1594
2986 2 1513 1530 1458
2987 3 1458 1530 1602
2988 4 1513 1530 1602
2989 2 1557 1535 1463
2990 3 1463 1535 1607
2991 4 1557 1535 1607
2992 5 1062 1537 1585
2993 5 1062 1537 1602
2994 6 1585 1537 1602
2995 2 1535 1557 1485
2996 3 1485 1557 1617
2997 4 1535 1557 1617
2998 2 1522 1562 1490
2999 3 1490 1562 1622
3000 4 1522 1562 1622
3001 5 687 1581 1607
3002 5 687 1581 1617
3003 6 1607 1581 1617
3004 5 1303 1582 1594
3005 5 1303 1582 1622
3006 6 1594 1582 1622
3007 7 1513 1585 1429
3008 8 1537 1585 1429
3009 9 1513 1585 1537
3010 7 1522 1594 1228
3011 8 1582 1594 1228
3012 9 1522 1594 1582
3013 7 1530 1602 1434
3014 8 1537 1602 1434
3015 9 1530 1602 1537
3016 7 1535 1607 614
3017 8 1581 1607 614
3018 9 1535 1607 1581
3019 1 799 623 1617
3020 1 799 623 805
3021 1 799 623 1623
3022 1 805 623 1617
3023 1 1617 623 1623
3024 1 805 623 1623
3025 1 600 420 800
3026 1 606 420 800
3027 1 800 420 814
3028 1 600 420 606
3029 1 600 420 814
3030 1 606 420 814
3031 2 755 705 633
3032 3 633 705 777
3033 4 755 705 777
3034 2 742 710 638
3035 3 638 710 782
3036 4 742 710 782
3037 5 651 729 777
3038 5 651 729 815
3039 6 777 729 815
3040 5 655 730 782
3041 5 655 730 802
3042 6 782 730 802
3043 2 750 733 661
3044 3 661 733 793
3045 4 750 733 793
3046 2 710 742 670
3047 3 670 742 802
3048 4 710 742 802
3049 2 733 750 678
3050 3 678 750 810
3051 4 733 750 810
3052 2 705 755 683
3053 3 683 755 815
3054 4 705 755 815
3055 5 690 757 793
3056 5 690 757 810
3057 6 793 757 810
3058 7 705 777 617
3059 8 729 777 617
3060 9 705 777 729
3061 7 710 782 615
3062 8 730 782 615
3063 9 710 782 730
3064 7 733 793 619
3065 8 757 793 619
3066 9 733 793 757
3067 8 730 802 214
3068 7 742 802 214
3069 9 742 802 730
3070 7 750 810 624
3071 8 757 810 624
3072 9 750 810 757
3073 8 729 815 212
3074 7 755 815 212
3075 9 755 815 729
3076 8 723 813 214
3077 7 753 813 214
3078 9 753 813 723
3079 2 753 699 627
3080 3 627 699 771
3081 4 753 699 771
3082 2 713 701 629
3083 3 629 701 773
3084 4 713 701 773
3085 2 740 711 639
3086 3 639 711 783
3087 4 740 711 783
3088 2 701 713 641
3089 3 641 713 785
3090 4 701 713 785
3091 5 252 723 771
3092 5 252 723 813
3093 6 771 723 813
3094 5 1465 725 773
3095 5 1465 725 785
3096 6 773 725 785
3097 2 711 740 668
3098 3 668 740 800
3099 4 711 740 800
3100 2 699 753 681
3101 3 681 753 813
3102 4 699 753 813
3103 5 491 764 783
3104 5 491 764 800
3105 6 783 764 800
3106 7 699 771 205
3107 8 723 771 205
3108 9 699 771 723
3109 7 701 773 615
3110 8 725 773 615
3111 9 701 773 725
3112 7 711 783 413
3113 8 764 783 413
3114 9 711 783 764
3115 7 713 785 614
3116 8 725 785 614
3117 9 713 785 725
3118 7 740 800 420
3119 8 764 800 420
3120 9 740 800 764
3121 1 573 413 775
3122 1 577 413 775
3123 1 775 413 783
3124 1 573 413 577
3125 1 573 413 783
3126 1 577 413 783
3127 1 772 1430 1586
3128 1 1586 1430 1601
3129 1 791 1430 1586
3130 1 772 1430 1601
3131 1 772 1430 791
3132 1 791 1430 1601
3133 7 720 792 412
3134 8 724 792 412
3135 9 720 792 724
3136 2 709 702 630
3137 3 630 702 774
3138 4 709 702 774
3139 2 752 707 635
3140 3 635 707 779
3141 4 752 707 779
3142 2 702 709 637
3143 3 637 709 781
3144 4 702 709 781
3145 2 734 718 646
3146 3 646 718 790
3147 4 734 718 790
3148 5 250 722 790
3149 5 250 722 794
3150 6 790 722 794
3151 5 449 726 774
3152 5 449 726 781
3153 6 774 726 781
3154 2 718 734 662
3155 3 662 734 794
3156 4 718 734 794
3157 2 707 752 680
3158 3 680 752 812
3159 4 707 752 812
3160 5 1504 767 779
3161 5 1504 767 812
3162 6 779 767 812
3163 7 702 774 616
3164 8 726 774 616
3165 9 702 774 726
3166 7 707 779 1431
3167 8 767 779 1431
3168 9 707 779 767
3169 7 709 781 617
3170 8 726 781 617
3171 9 709 781 726
3172 7 718 790 210
3173 8 722 790 210
3174 9 718 790 722
3175 8 722 794 212
3176 7 734 794 212
3177 9 734 794 722
3178 7 752 812 1435
3179 8 767 812 1435
3180 9 752 812 767
3181 2 720 700 628
3182 3 628 700 772
3183 4 720 700 772
3184 2 715 703 631
3185 3 631 703 775
3186 4 715 703 775
3187 2 712 708 636
3188 3 636 708 780
3189 4 712 708 780
3190 2 708 712 640
3191 3 640 712 784
3192 4 708 712 784
3193 2 703 715 643
3194 3 643 715 787
3195 4 703 715 787
3196 2 700 720 648
3197 3 648 720 792
3198 4 700 720 792
3199 5 656 724 772
3200 5 656 724 792
3201 6 772 724 792
3202 5 650 727 775
3203 5 650 727 787
3204 6 775 727 787
3205 5 657 732 780
3206 5 657 732 784
3207 6 780 732 784
3208 7 700 772 1430
3209 8 724 772 1430
3210 9 700 772 724
3211 7 703 775 413
3212 8 727 775 413
3213 9 703 775 727
3214 7 708 780 210
3215 8 732 780 210
3216 9 708 780 732
3217 7 712 784 1431
3218 8 732 784 1431
3219 9 712 784 732
3220 7 715 787 205
3221 8 727 787 205
3222 9 715 787 727
3223 1 570 412 778
3224 1 570 412 585
3225 1 570 412 792
3226 1 585 412 778
3227 1 778 412 792
3228 1 585 412 792
3229 1 795 1435 1609
3230 1 1609 1435 1627
3231 1 812 1435 1609
3232 1 795 1435 1627
3233 1 795 1435 812
3234 1 812 1435 1627
3235 1 779 1431 1589
3236 1 1589 1431 1598
3237 1 784 1431 1589
3238 1 779 1431 1598
3239 1 779 1431 784
3240 1 784 1431 1598
3241 1 1416 1236 1616
3242 1 1422 1236 1616
3243 1 1616 1236 1630
3244 1 1416 1236 1422
3245 1 1416 1236 1630
3246 1 1422 1236 1630
3247 2 1571 1521 1449
3248 3 1449 1521 1593
3249 4 1571 1521 1593
3250 2 1558 1526 1454
3251 3 1454 1526 1598
3252 4 1558 1526 1598
3253 5 1467 1545 1593
3254 5 1467 1545 1631
3255 6 1593 1545 1631
3256 5 1471 1546 1598
3257 5 1471 1546 1618
3258 6 1598 1546 1618
3259 2 1566 1549 1477
3260 3 1477 1549 1609
3261 4 1566 1549 1609
3262 2 1526 1558 1486
3263 3 1486 1558 1618
3264 4 1526 1558 1618
3265 2 1549 1566 1494
3266 3 1494 1566 1626
3267 4 1549 1566 1626
3268 2 1521 1571 1499
3269 3 1499 1571 1631
3270 4 1521 1571 1631
3271 5 1506 1573 1609
3272 5 1506 1573 1626
3273 6 1609 1573 1626
3274 7 1521 1593 1433
3275 8 1545 1593 1433
3276 9 1521 1593 1545
3277 7 1526 1598 1431
3278 8 1546 1598 1431
3279 9 1526 1598 1546
3280 7 1549 1609 1435
3281 8 1573 1609 1435
3282 9 1549 1609 1573
3283 8 1546 1618 1030
3284 7 1558 1618 1030
3285 9 1558 1618 1546
3286 7 1566 1626 1440
3287 8 1573 1626 1440
3288 9 1566 1626 1573
3289 8 1545 1631 1028
3290 7 1571 1631 1028
3291 9 1571 1631 1545
3292 8 1539 1629 1030
3293 7 1569 1629 1030
3294 9 1569 1629 1539
3295 2 1569 1515 1443
3296 3 1443 1515 1587
3297 4 1569 1515 1587
3298 2 1529 1517 1445
3299 3 1445 1517 1589
3300 4 1529 1517 1589
3301 2 1556 1527 1455
3302 3 1455 1527 1599
3303 4 1556 1527 1599
3304 2 1517 1529 1457
3305 3 1457 1529 1601
3306 4 1517 1529 1601
3307 5 1068 1539 1587
3308 5 1068 1539 1629
3309 6 1587 1539 1629
3310 5 649 1541 1589
3311 5 649 1541 1601
3312 6 1589 1541 1601
3313 2 1527 1556 1484
3314 3 1484 1556 1616
3315 4 1527 1556 1616
3316 2 1515 1569 1497
3317 3 1497 1569 1629
3318 4 1515 1569 1629
3319 5 1307 1580 1599
3320 5 1307 1580 1616
3321 6 1599 1580 1616
3322 7 1515 1587 1021
3323 8 1539 1587 1021
3324 9 1515 1587 1539
3325 7 1517 1589 1431
3326 8 1541 1589 1431
3327 9 1517 1589 1541
3328 7 1527 1599 1229
3329 8 1580 1599 1229
3330 9 1527 1599 1580
3331 7 1529 1601 1430
3332 8 1541 1601 1430
3333 9 1529 1601 1541
3334 7 1556 1616 1236
3335 8 1580 1616 1236
3336 9 1556 1616 1580
3337 1 1389 1229 1591
3338 1 1393 1229 1591
3339 1 1591 1229 1599
3340 1 1389 1229 1393
3341 1 1389 1229 1599
3342 1 1393 1229 1599
3343 7 1536 1608 1228
3344 8 1540 1608 1228
3345 9 1536 1608 1540
3346 7 1531 1603 1021
3347 8 1543 1603 1021
3348 9 1531 1603 1543
3349 2 1525 1518 1446
3350 3 1446 1518 1590
3351 4 1525 1518 1590
3352 2 1568 1523 1451
3353 3 1451 1523 1595
3354 4 1568 1523 1595
3355 2 1518 1525 1453
3356 3 1453 1525 1597
3357 4 1518 1525 1597
3358 2 1550 1534 1462
3359 3 1462 1534 1606
3360 4 1550 1534 1606
3361 5 1066 1538 1606
3362 5 1066 1538 1610
3363 6 1606 1538 1610
3364 5 1265 1542 1590
3365 5 1265 1542 1597
3366 6 1590 1542 1597
3367 2 1534 1550 1478
3368 3 1478 1550 1610
3369 4 1534 1550 1610
3370 2 1523 1568 1496
3371 3 1496 1568 1628
3372 4 1523 1568 1628
3373 5 688 1583 1595
3374 5 688 1583 1628
3375 6 1595 1583 1628
3376 7 1518 1590 1432
3377 8 1542 1590 1432
3378 9 1518 1590 1542
3379 7 1523 1595 615
3380 8 1583 1595 615
3381 9 1523 1595 1583
3382 7 1525 1597 1433
3383 8 1542 1597 1433
3384 9 1525 1597 1542
3385 7 1534 1606 1026
3386 8 1538 1606 1026
3387 9 1534 1606 1538
3388 8 1538 1610 1028
3389 7 1550 1610 1028
3390 9 1550 1610 1538
3391 7 1568 1628 619
3392 8 1583 1628 619
3393 9 1568 1628 1583
3394 1 770 614 1588
3395 1 770 614 785
3396 1 770 614 1607
3397 1 785 614 1588
3398 1 1588 614 1607
3399 1 785 614 1607
3400 2 1536 1516 1444
3401 3 1444 1516 1588
3402 4 1536 1516 1588
3403 2 1531 1519 1447
3404 3 1447 1519 1591
3405 4 1531 1519 1591
3406 2 1528 1524 1452
3407 3 1452 1524 1596
3408 4 1528 1524 1596
3409 2 1524 1528 1456
3410 3 1456 1528 1600
3411 4 1524 1528 1600
3412 2 1519 1531 1459
3413 3 1459 1531 1603
3414 4 1519 1531 1603
3415 2 1516 1536 1464
3416 3 1464 1536 1608
3417 4 1516 1536 1608
3418 5 1472 1540 1588
3419 5 1472 1540 1608
3420 6 1588 1540 1608
3421 5 1466 1543 1591
3422 5 1466 1543 1603
3423 6 1591 1543 1603
3424 5 1473 1548 1596
3425 5 1473 1548 1600
3426 6 1596 1548 1600
3427 7 1516 1588 614
3428 8 1540 1588 614
3429 9 1516 1588 1540
3430 7 1519 1591 1229
3431 8 1543 1591 1229
3432 9 1519 1591 1543
3433 7 1524 1596 1026
3434 8 1548 1596 1026
3435 9 1524 1596 1548
3436 7 1528 1600 615
3437 8 1548 1600 615
3438 9 1528 1600 1548
3439 1 1386 1228 1594
3440 1 1386 1228 1401
3441 1 1386 1228 1608
3442 1 1401 1228 1594
3443 1 1594 1228 1608
3444 1 1401 1228 1608
3445 1 793 619 1611
3446 1 793 619 811
3447 1 793 619 1628
3448 1 811 619 1611
3449 1 1611 619 1628
3450 1 811 619 1628
3451 1 773 615 1595
3452 1 773 615 782
3453 1 773 615 1600
3454 1 782 615 1595
3455 1 1595 615 1600
3456 1 782 615 1600

Dihedrals

1 1 598 10 186 126
2 2 598 10 186 150
3 1 609 10 186 126
4 2 609 10 186 150
5 1 204 10 186 126
6 2 204 10 186 150
7 2 186 10 598 526
8 1 186 10 598 538
9 2 609 10 598 526
10 1 609 10 598 538
11 2 204 10 598 526
12 1 204 10 598 538
13 2 186 10 609 519
14 1 186 10 609 549
15 2 598 10 609 519
16 1 598 10 609 549
17 2 204 10 609 519
18 1 204 10 609 549
19 1 186 10 204 144
20 2 186 10 204 148
21 1 598 10 204 144
22 2 598 10 204 148
23 1 609 10 204 144
24 2 609 10 204 148
25 3 52 124 144 72
26 4 52 124 144 204
27 4 184 124 144 72
28 5 184 124 144 204
29 6 52 124 184 8
30 7 52 124 184 148
31 8 144 124 184 8
32 9 144 124 184 148
33 3 55 127 139 67
34 4 55 127 139 199
35 4 187 127 139 67
36 5 187 127 139 199
37 6 55 127 187 11
38 7 55 127 187 151
39 8 139 127 187 11
40 9 139 127 187 151
41 3 60 132 136 64
42 4 60 132 136 196
43 4 192 132 136 64
44 5 192 132 136 196
45 6 60 132 192 12
46 7 60 132 192 156
47 8 136 132 192 12
48 9 136 132 192 156
49 6 64 136 196 9
50 7 64 136 196 156
51 8 132 136 196 9
52 9 132 136 196 156
53 6 67 139 199 7
54 7 67 139 199 151
55 8 127 139 199 7
56 9 127 139 199 151
57 6 72 144 204 10
58 7 72 144 204 148
59 8 124 144 204 10
60 9 124 144 204 148
61 10 488 148 184 8
62 11 488 148 184 124
63 12 204 148 184 8
64 13 204 148 184 124
65 10 488 148 204 10
66 11 488 148 204 144
67 12 184 148 204 10
68 13 184 148 204 144
69 10 890 151 187 11
70 11 890 151 187 127
71 12 199 151 187 11
72 13 199 151 187 127
73 10 890 151 199 7
74 11 890 151 199 139
75 12 187 151 199 7
76 13 187 151 199 139
77 10 285 156 192 12
78 11 285 156 192 132
79 12 196 156 192 12
80 13 196 156 192 132
81 10 285 156 196 9
82 11 285 156 196 136
83 12 192 156 196 9
84 13 192 156 196 136
85 1 191 213 389 329
86 2 191 213 389 353
87 1 194 213 389 329
88 2 194 213 389 353
89 1 400 213 389 329
90 2 400 213 389 353
91 1 389 213 400 340
92 2 389 213 400 360
93 1 191 213 400 340
94 2 191 213 400 360
95 1 194 213 400 340
96 2 194 213 400 360
97 3 14 86 142 70
98 4 14 86 142 202
99 4 158 86 142 70
100 5 158 86 142 202
101 6 14 86 158 2
102 7 14 86 158 146
103 8 142 86 158 2
104 9 142 86 158 146
105 3 32 104 131 59
106 4 32 104 131 191
107 4 176 104 131 59
108 5 176 104 131 191
109 6 32 104 176 1
110 7 32 104 176 119
111 8 131 104 176 1
112 9 131 104 176 119
113 10 40 119 176 1
114 11 40 119 176 104
115 12 191 119 176 1
116 13 191 119 176 104
117 10 40 119 191 213
118 11 40 119 191 131
119 12 176 119 191 213
120 13 176 119 191 131
121 3 54 126 133 61
122 4 54 126 133 193
123 4 186 126 133 61
124 5 186 126 133 193
125 6 54 126 186 10
126 7 54 126 186 150
127 8 133 126 186 10
128 9 133 126 186 150
129 6 59 131 191 213
130 7 59 131 191 119
131 8 104 131 191 213
132 9 104 131 191 119
133 6 61 133 193 11
134 7 61 133 193 150
135 8 126 133 193 11
136 9 126 133 193 150
137 6 70 142 202 216
138 7 70 142 202 146
139 8 86 142 202 216
140 9 86 142 202 146
141 10 82 146 158 2
142 11 82 146 158 86
143 12 202 146 158 2
144 13 202 146 158 86
145 10 82 146 202 216
146 11 82 146 202 142
147 12 158 146 202 216
148 13 158 146 202 142
149 10 77 150 186 10
150 11 77 150 186 126
151 12 193 150 186 10
152 13 193 150 186 126
153 10 77 150 193 11
154 11 77 150 193 133
155 12 186 150 193 11
156 13 186 150 193 133
157 2 119 191 213 389
158 2 119 191 213 194
159 2 119 191 213 400
160 1 131 191 213 389
161 1 131 191 213 194
162 1 131 191 213 400
163 1 142 202 216 188
164 1 142 202 216 396
165 1 142 202 216 402
166 2 146 202 216 188
167 2 146 202 216 396
168 2 146 202 216 402
169 2 184 8 590 518
170 1 184 8 590 530
171 2 197 8 590 518
172 1 197 8 590 530
173 2 611 8 590 518
174 1 611 8 590 530
175 1 590 8 184 124
176 2 590 8 184 148
177 1 197 8 184 124
178 2 197 8 184 148
179 1 611 8 184 124
180 2 611 8 184 148
181 1 590 8 197 137
182 2 590 8 197 149
183 1 184 8 197 137
184 2 184 8 197 149
185 1 611 8 197 137
186 2 611 8 197 149
187 2 590 8 611 525
188 1 590 8 611 551
189 2 184 8 611 525
190 1 184 8 611 551
191 2 197 8 611 525
192 1 197 8 611 551
193 1 567 1 157 85
194 2 567 1 157 109
195 1 583 1 157 85
196 2 583 1 157 109
197 1 176 1 157 85
198 2 176 1 157 109
199 1 157 1 567 495
200 2 157 1 567 519
201 1 583 1 567 495
202 2 583 1 567 519
203 1 176 1 567 495
204 2 176 1 567 519
205 1 157 1 583 511
206 2 157 1 583 523
207 1 567 1 583 511
208 2 567 1 583 523
209 1 176 1 583 511
210 2 176 1 583 523
211 1 157 1 176 104
212 2 157 1 176 119
213 1 567 1 176 104
214 2 567 1 176 119
215 1 583 1 176 104
216 2 583 1 176 119
217 1 134 194 213 389
218 1 134 194 213 191
219 1 134 194 213 400
220 2 154 194 213 389
221 2 154 194 213 191
222 2 154 194 213 400
223 3 20 92 135 63
224 4 20 92 135 195
225 4 164 92 135 63
226 5 164 92 135 195
227 6 20 92 164 6
228 7 20 92 164 116
229 8 135 92 164 6
230 9 135 92 164 116
231 3 33 105 123 51
232 4 33 105 123 183
233 4 177 105 123 51
234 5 177 105 123 183
235 6 33 105 177 4
236 7 33 105 177 147
237 8 123 105 177 4
238 9 123 105 177 147
239 10 47 116 164 6
240 11 47 116 164 92
241 12 195 116 164 6
242 13 195 116 164 92
243 10 47 116 195 827
244 11 47 116 195 135
245 12 164 116 195 827
246 13 164 116 195 135
247 6 51 123 183 823
248 7 51 123 183 147
249 8 105 123 183 823
250 9 105 123 183 147
251 3 53 125 137 65
252 4 53 125 137 197
253 4 185 125 137 65
254 5 185 125 137 197
255 6 53 125 185 9
256 7 53 125 185 149
257 8 137 125 185 9
258 9 137 125 185 149
259 6 63 135 195 827
260 7 63 135 195 116
261 8 92 135 195 827
262 9 92 135 195 116
263 6 65 137 197 8
264 7 65 137 197 149
265 8 125 137 197 8
266 9 125 137 197 149
267 10 84 147 177 4
268 11 84 147 177 105
269 12 183 147 177 4
270 13 183 147 177 105
271 10 84 147 183 823
272 11 84 147 183 123
273 12 177 147 183 823
274 13 177 147 183 123
275 10 73 149 185 9
276 11 73 149 185 125
277 12 197 149 185 9
278 13 197 149 185 125
279 10 73 149 197 8
280 11 73 149 197 137
281 12 185 149 197 8
282 13 185 149 197 137
283 1 123 183 823 997
284 1 123 183 823 1015
285 1 123 183 823 200
286 2 147 183 823 997
287 2 147 183 823 1015
288 2 147 183 823 200
289 2 116 195 827 1003
290 2 116 195 827 189
291 2 116 195 827 1009
292 1 135 195 827 1003
293 1 135 195 827 189
294 1 135 195 827 1009
295 1 129 189 827 1003
296 1 129 189 827 1009
297 1 129 189 827 195
298 2 153 189 827 1003
299 2 153 189 827 1009
300 2 153 189 827 195
301 1 576 6 164 92
302 2 576 6 164 116
303 1 174 6 164 92
304 2 174 6 164 116
305 1 586 6 164 92
306 2 586 6 164 116
307 1 164 6 576 504
308 2 164 6 576 528
309 1 174 6 576 504
310 2 174 6 576 528
311 1 586 6 576 504
312 2 586 6 576 528
313 1 164 6 174 102
314 2 164 6 174 109
315 1 576 6 174 102
316 2 576 6 174 109
317 1 586 6 174 102
318 2 586 6 174 109
319 1 164 6 586 514
320 2 164 6 586 518
321 1 576 6 586 514
322 2 576 6 586 518
323 1 174 6 586 514
324 2 174 6 586 518
325 3 13 85 102 30
326 4 13 85 102 174
327 4 157 85 102 30
328 5 157 85 102 174
329 6 13 85 157 1
330 7 13 85 157 109
331 8 102 85 157 1
332 9 102 85 157 109
333 3 22 94 134 62
334 4 22 94 134 194
335 4 166 94 134 62
336 5 166 94 134 194
337 6 22 94 166 208
338 7 22 94 166 154
339 8 134 94 166 208
340 9 134 94 166 154
341 6 30 102 174 6
342 7 30 102 174 109
343 8 85 102 174 6
344 9 85 102 174 109
345 3 35 107 129 57
346 4 35 107 129 189
347 4 179 107 129 57
348 5 179 107 129 189
349 6 35 107 179 818
350 7 35 107 179 153
351 8 129 107 179 818
352 9 129 107 179 153
353 10 450 109 157 1
354 11 450 109 157 85
355 12 174 109 157 1
356 13 174 109 157 85
357 10 450 109 174 6
358 11 450 109 174 102
359 12 157 109 174 6
360 13 157 109 174 102
361 6 57 129 189 827
362 7 57 129 189 153
363 8 107 129 189 827
364 9 107 129 189 153
365 6 62 134 194 213
366 7 62 134 194 154
367 8 94 134 194 213
368 9 94 134 194 154
369 10 891 153 179 818
370 11 891 153 179 107
371 12 189 153 179 818
372 13 189 153 179 107
373 10 891 153 189 827
374 11 891 153 189 129
375 12 179 153 189 827
376 13 179 153 189 129
377 10 283 154 166 208
378 11 283 154 166 94
379 12 194 154 166 208
380 13 194 154 166 94
381 10 283 154 194 213
382 11 283 154 194 134
383 12 166 154 194 213
384 13 166 154 194 134
385 1 94 166 208 366
386 1 94 166 208 381
387 1 94 166 208 180
388 2 154 166 208 366
389 2 154 166 208 381
390 2 154 166 208 180
391 1 107 179 818 974
392 1 107 179 818 160
393 1 107 179 818 989
394 2 153 179 818 974
395 2 153 179 818 160
396 2 153 179 818 989
397 1 189 827 1003 943
398 2 189 827 1003 967
399 1 1009 827 1003 943
400 2 1009 827 1003 967
401 1 195 827 1003 943
402 2 195 827 1003 967
403 1 1003 827 1009 949
404 2 1003 827 1009 966
405 1 189 827 1009 949
406 2 189 827 1009 966
407 1 195 827 1009 949
408 2 195 827 1009 966
409 1 1414 826 1002 942
410 2 1414 826 1002 966
411 1 1425 826 1002 942
412 2 1425 826 1002 966
413 1 1020 826 1002 942
414 2 1020 826 1002 966
415 2 1002 826 1414 1342
416 1 1002 826 1414 1354
417 2 1425 826 1414 1342
418 1 1425 826 1414 1354
419 2 1020 826 1414 1342
420 1 1020 826 1414 1354
421 2 1002 826 1425 1335
422 1 1002 826 1425 1365
423 2 1414 826 1425 1335
424 1 1414 826 1425 1365
425 2 1020 826 1425 1335
426 1 1020 826 1425 1365
427 1 1002 826 1020 960
428 2 1002 826 1020 964
429 1 1414 826 1020 960
430 2 1414 826 1020 964
431 1 1425 826 1020 960
432 2 1425 826 1020 964
433 3 868 940 960 888
434 4 868 940 960 1020
435 4 1000 940 960 888
436 5 1000 940 960 1020
437 6 868 940 1000 824
438 7 868 940 1000 964
439 8 960 940 1000 824
440 9 960 940 1000 964
441 3 871 943 955 883
442 4 871 943 955 1015
443 4 1003 943 955 883
444 5 1003 943 955 1015
445 6 871 943 1003 827
446 7 871 943 1003 967
447 8 955 943 1003 827
448 9 955 943 1003 967
449 3 876 948 952 880
450 4 876 948 952 1012
451 4 1008 948 952 880
452 5 1008 948 952 1012
453 6 876 948 1008 828
454 7 876 948 1008 972
455 8 952 948 1008 828
456 9 952 948 1008 972
457 6 880 952 1012 825
458 7 880 952 1012 972
459 8 948 952 1012 825
460 9 948 952 1012 972
461 6 883 955 1015 823
462 7 883 955 1015 967
463 8 943 955 1015 823
464 9 943 955 1015 967
465 6 888 960 1020 826
466 7 888 960 1020 964
467 8 940 960 1020 826
468 9 940 960 1020 964
469 10 1304 964 1000 824
470 11 1304 964 1000 940
471 12 1020 964 1000 824
472 13 1020 964 1000 940
473 10 1304 964 1020 826
474 11 1304 964 1020 960
475 12 1000 964 1020 826
476 13 1000 964 1020 960
477 10 74 967 1003 827
478 11 74 967 1003 943
479 12 1015 967 1003 827
480 13 1015 967 1003 943
481 10 74 967 1015 823
482 11 74 967 1015 955
483 12 1003 967 1015 823
484 13 1003 967 1015 955
485 10 1101 972 1008 828
486 11 1101 972 1008 948
487 12 1012 972 1008 828
488 13 1012 972 1008 948
489 10 1101 972 1012 825
490 11 1101 972 1012 952
491 12 1008 972 1012 825
492 13 1008 972 1012 952
493 1 1007 1029 1205 1145
494 2 1007 1029 1205 1169
495 1 1010 1029 1205 1145
496 2 1010 1029 1205 1169
497 1 1216 1029 1205 1145
498 2 1216 1029 1205 1169
499 1 1205 1029 1216 1156
500 2 1205 1029 1216 1176
501 1 1007 1029 1216 1156
502 2 1007 1029 1216 1176
503 1 1010 1029 1216 1156
504 2 1010 1029 1216 1176
505 3 830 902 958 886
506 4 830 902 958 1018
507 4 974 902 958 886
508 5 974 902 958 1018
509 6 830 902 974 818
510 7 830 902 974 962
511 8 958 902 974 818
512 9 958 902 974 962
513 3 848 920 947 875
514 4 848 920 947 1007
515 4 992 920 947 875
516 5 992 920 947 1007
517 6 848 920 992 817
518 7 848 920 992 935
519 8 947 920 992 817
520 9 947 920 992 935
521 10 856 935 992 817
522 11 856 935 992 920
523 12 1007 935 992 817
524 13 1007 935 992 920
525 10 856 935 1007 1029
526 11 856 935 1007 947
527 12 992 935 1007 1029
528 13 992 935 1007 947
529 3 870 942 949 877
530 4 870 942 949 1009
531 4 1002 942 949 877
532 5 1002 942 949 1009
533 6 870 942 1002 826
534 7 870 942 1002 966
535 8 949 942 1002 826
536 9 949 942 1002 966
537 6 875 947 1007 1029
538 7 875 947 1007 935
539 8 920 947 1007 1029
540 9 920 947 1007 935
541 6 877 949 1009 827
542 7 877 949 1009 966
543 8 942 949 1009 827
544 9 942 949 1009 966
545 6 886 958 1018 1032
546 7 886 958 1018 962
547 8 902 958 1018 1032
548 9 902 958 1018 962
549 10 898 962 974 818
550 11 898 962 974 902
551 12 1018 962 974 818
552 13 1018 962 974 902
553 10 898 962 1018 1032
554 11 898 962 1018 958
555 12 974 962 1018 1032
556 13 974 962 1018 958
557 10 893 966 1002 826
558 11 893 966 1002 942
559 12 1009 966 1002 826
560 13 1009 966 1002 942
561 10 893 966 1009 827
562 11 893 966 1009 949
563 12 1002 966 1009 827
564 13 1002 966 1009 949
565 2 935 1007 1029 1205
566 2 935 1007 1029 1010
567 2 935 1007 1029 1216
568 1 947 1007 1029 1205
569 1 947 1007 1029 1010
570 1 947 1007 1029 1216
571 1 958 1018 1032 1004
572 1 958 1018 1032 1212
573 1 958 1018 1032 1218
574 2 962 1018 1032 1004
575 2 962 1018 1032 1212
576 2 962 1018 1032 1218
577 2 1000 824 1406 1334
578 1 1000 824 1406 1346
579 2 1013 824 1406 1334
580 1 1013 824 1406 1346
581 2 1427 824 1406 1334
582 1 1427 824 1406 1346
583 1 1406 824 1000 940
584 2 1406 824 1000 964
585 1 1013 824 1000 940
586 2 1013 824 1000 964
587 1 1427 824 1000 940
588 2 1427 824 1000 964
589 1 1406 824 1013 953
590 2 1406 824 1013 965
591 1 1000 824 1013 953
592 2 1000 824 1013 965
593 1 1427 824 1013 953
594 2 1427 824 1013 965
595 2 1406 824 1427 1341
596 1 1406 824 1427 1367
597 2 1000 824 1427 1341
598 1 1000 824 1427 1367
599 2 1013 824 1427 1341
600 1 1013 824 1427 1367
601 1 1383 817 973 901
602 2 1383 817 973 925
603 1 1399 817 973 901
604 2 1399 817 973 925
605 1 992 817 973 901
606 2 992 817 973 925
607 1 973 817 1383 1311
608 2 973 817 1383 1335
609 1 1399 817 1383 1311
610 2 1399 817 1383 1335
611 1 992 817 1383 1311
612 2 992 817 1383 1335
613 1 973 817 1399 1327
614 2 973 817 1399 1339
615 1 1383 817 1399 1327
616 2 1383 817 1399 1339
617 1 992 817 1399 1327
618 2 992 817 1399 1339
619 1 973 817 992 920
620 2 973 817 992 935
621 1 1383 817 992 920
622 2 1383 817 992 935
623 1 1399 817 992 920
624 2 1399 817 992 935
625 1 950 1010 1029 1205
626 1 950 1010 1029 1007
627 1 950 1010 1029 1216
628 2 970 1010 1029 1205
629 2 970 1010 1029 1007
630 2 970 1010 1029 1216
631 3 836 908 951 879
632 4 836 908 951 1011
633 4 980 908 951 879
634 5 980 908 951 1011
635 6 836 908 980 822
636 7 836 908 980 932
637 8 951 908 980 822
638 9 951 908 980 932
639 3 849 921 939 867
640 4 849 921 939 999
641 4 993 921 939 867
642 5 993 921 939 999
643 6 849 921 993 820
644 7 849 921 993 963
645 8 939 921 993 820
646 9 939 921 993 963
647 10 863 932 980 822
648 11 863 932 980 908
649 12 1011 932 980 822
650 13 1011 932 980 908
651 10 863 932 1011 11
652 11 863 932 1011 951
653 12 980 932 1011 11
654 13 980 932 1011 951
655 6 867 939 999 7
656 7 867 939 999 963
657 8 921 939 999 7
658 9 921 939 999 963
659 3 869 941 953 881
660 4 869 941 953 1013
661 4 1001 941 953 881
662 5 1001 941 953 1013
663 6 869 941 1001 825
664 7 869 941 1001 965
665 8 953 941 1001 825
666 9 953 941 1001 965
667 6 879 951 1011 11
668 7 879 951 1011 932
669 8 908 951 1011 11
670 9 908 951 1011 932
671 6 881 953 1013 824
672 7 881 953 1013 965
673 8 941 953 1013 824
674 9 941 953 1013 965
675 10 900 963 993 820
676 11 900 963 993 921
677 12 999 963 993 820
678 13 999 963 993 921
679 10 900 963 999 7
680 11 900 963 999 939
681 12 993 963 999 7
682 13 993 963 999 939
683 10 889 965 1001 825
684 11 889 965 1001 941
685 12 1013 965 1001 825
686 13 1013 965 1001 941
687 10 889 965 1013 824
688 11 889 965 1013 953
689 12 1001 965 1013 824
690 13 1001 965 1013 953
691 1 1392 822 980 908
692 2 1392 822 980 932
693 1 990 822 980 908
694 2 990 822 980 932
695 1 1402 822 980 908
696 2 1402 822 980 932
697 1 980 822 1392 1320
698 2 980 822 1392 1344
699 1 990 822 1392 1320
700 2 990 822 1392 1344
701 1 1402 822 1392 1320
702 2 1402 822 1392 1344
703 1 980 822 990 918
704 2 980 822 990 925
705 1 1392 822 990 918
706 2 1392 822 990 925
707 1 1402 822 990 918
708 2 1402 822 990 925
709 1 980 822 1402 1330
710 2 980 822 1402 1334
711 1 1392 822 1402 1330
712 2 1392 822 1402 1334
713 1 990 822 1402 1330
714 2 990 822 1402 1334
715 3 829 901 918 846
716 4 829 901 918 990
717 4 973 901 918 846
718 5 973 901 918 990
719 6 829 901 973 817
720 7 829 901 973 925
721 8 918 901 973 817
722 9 918 901 973 925
723 3 838 910 950 878
724 4 838 910 950 1010
725 4 982 910 950 878
726 5 982 910 950 1010
727 6 838 910 982 1024
728 7 838 910 982 970
729 8 950 910 982 1024
730 9 950 910 982 970
731 6 846 918 990 822
732 7 846 918 990 925
733 8 901 918 990 822
734 9 901 918 990 925
735 3 851 923 945 873
736 4 851 923 945 1005
737 4 995 923 945 873
738 5 995 923 945 1005
739 6 851 923 995 2
740 7 851 923 995 969
741 8 945 923 995 2
742 9 945 923 995 969
743 10 1266 925 973 817
744 11 1266 925 973 901
745 12 990 925 973 817
746 13 990 925 973 901
747 10 1266 925 990 822
748 11 1266 925 990 918
749 12 973 925 990 822
750 13 973 925 990 918
751 6 873 945 1005 11
752 7 873 945 1005 969
753 8 923 945 1005 11
754 9 923 945 1005 969
755 6 878 950 1010 1029
756 7 878 950 1010 970
757 8 910 950 1010 1029
758 9 910 950 1010 970
759 10 75 969 995 2
760 11 75 969 995 923
761 12 1005 969 995 2
762 13 1005 969 995 923
763 10 75 969 1005 11
764 11 75 969 1005 945
765 12 995 969 1005 11
766 13 995 969 1005 945
767 10 1099 970 982 1024
768 11 1099 970 982 910
769 12 1010 970 982 1024
770 13 1010 970 982 910
771 10 1099 970 1010 1029
772 11 1099 970 1010 950
773 12 982 970 1010 1029
774 13 982 970 1010 950
775 1 910 982 1024 1182
776 1 910 982 1024 1197
777 1 910 982 1024 996
778 2 970 982 1024 1182
779 2 970 982 1024 1197
780 2 970 982 1024 996
781 1 1005 11 187 127
782 2 1005 11 187 151
783 1 193 11 187 127
784 2 193 11 187 151
785 1 1011 11 187 127
786 2 1011 11 187 151
787 1 187 11 1005 945
788 2 187 11 1005 969
789 1 193 11 1005 945
790 2 193 11 1005 969
791 1 1011 11 1005 945
792 2 1011 11 1005 969
793 1 187 11 193 133
794 2 187 11 193 150
795 1 1005 11 193 133
796 2 1005 11 193 150
797 1 1011 11 193 133
798 2 1011 11 193 150
799 2 187 11 1011 932
800 1 187 11 1011 951
801 2 1005 11 1011 932
802 1 1005 11 1011 951
803 2 193 11 1011 932
804 1 193 11 1011 951
805 1 188 216 396 336
806 2 188 216 396 360
807 1 402 216 396 336
808 2 402 216 396 360
809 1 202 216 396 336
810 2 202 216 396 360
811 1 188 216 402 342
812 2 188 216 402 349
813 1 396 216 402 342
814 2 396 216 402 349
815 1 202 216 402 342
816 2 202 216 402 349
817 3 21 93 143 71
818 4 21 93 143 203
819 4 165 93 143 71
820 5 165 93 143 203
821 6 21 93 165 5
822 7 21 93 165 117
823 8 143 93 165 5
824 9 143 93 165 117
825 3 26 98 130 58
826 4 26 98 130 190
827 4 170 98 130 58
828 5 170 98 130 190
829 6 26 98 170 3
830 7 26 98 170 118
831 8 130 98 170 3
832 9 130 98 170 118
833 10 39 117 165 5
834 11 39 117 165 93
835 12 203 117 165 5
836 13 203 117 165 93
837 10 39 117 203 416
838 11 39 117 203 143
839 12 165 117 203 416
840 13 165 117 203 143
841 10 43 118 170 3
842 11 43 118 170 98
843 12 190 118 170 3
844 13 190 118 170 98
845 10 43 118 190 418
846 11 43 118 190 130
847 12 170 118 190 418
848 13 170 118 190 130
849 3 49 121 138 66
850 4 49 121 138 198
851 4 181 121 138 66
852 5 181 121 138 198
853 6 49 121 181 7
854 7 49 121 181 145
855 8 138 121 181 7
856 9 138 121 181 145
857 6 58 130 190 418
858 7 58 130 190 118
859 8 98 130 190 418
860 9 98 130 190 118
861 6 66 138 198 12
862 7 66 138 198 145
863 8 121 138 198 12
864 9 121 138 198 145
865 6 71 143 203 416
866 7 71 143 203 117
867 8 93 143 203 416
868 9 93 143 203 117
869 10 78 145 181 7
870 11 78 145 181 121
871 12 198 145 181 7
872 13 198 145 181 121
873 10 78 145 198 12
874 11 78 145 198 138
875 12 181 145 198 12
876 13 181 145 198 138
877 2 118 190 418 594
878 2 118 190 418 201
879 2 118 190 418 612
880 1 130 190 418 594
881 1 130 190 418 201
882 1 130 190 418 612
883 2 117 203 416 182
884 2 117 203 416 592
885 2 117 203 416 605
886 1 143 203 416 182
887 1 143 203 416 592
888 1 143 203 416 605
889 2 111 201 418 594
890 2 111 201 418 190
891 2 111 201 418 612
892 1 141 201 418 594
893 1 141 201 418 190
894 1 141 201 418 612
895 3 15 87 141 69
896 4 15 87 141 201
897 4 159 87 141 69
898 5 159 87 141 201
899 6 15 87 159 409
900 7 15 87 159 111
901 8 141 87 159 409
902 9 141 87 159 111
903 3 17 89 101 29
904 4 17 89 101 173
905 4 161 89 101 29
906 5 161 89 101 173
907 6 17 89 161 3
908 7 17 89 161 113
909 8 101 89 161 3
910 9 101 89 161 113
911 3 27 99 128 56
912 4 27 99 128 188
913 4 171 99 128 56
914 5 171 99 128 188
915 6 27 99 171 209
916 7 27 99 171 152
917 8 128 99 171 209
918 9 128 99 171 152
919 6 29 101 173 2
920 7 29 101 173 113
921 8 89 101 173 2
922 9 89 101 173 113
923 10 456 111 159 409
924 11 456 111 159 87
925 12 201 111 159 409
926 13 201 111 159 87
927 10 456 111 201 418
928 11 456 111 201 141
929 12 159 111 201 418
930 13 159 111 201 141
931 10 853 113 161 3
932 11 853 113 161 89
933 12 173 113 161 3
934 13 173 113 161 89
935 10 853 113 173 2
936 11 853 113 173 101
937 12 161 113 173 2
938 13 161 113 173 101
939 6 56 128 188 216
940 7 56 128 188 152
941 8 99 128 188 216
942 9 99 128 188 152
943 6 69 141 201 418
944 7 69 141 201 111
945 8 87 141 201 418
946 9 87 141 201 111
947 10 287 152 171 209
948 11 287 152 171 99
949 12 188 152 171 209
950 13 188 152 171 99
951 10 287 152 188 216
952 11 287 152 188 128
953 12 171 152 188 216
954 13 171 152 188 128
955 1 87 159 409 565
956 1 87 159 409 175
957 1 87 159 409 584
958 2 111 159 409 565
959 2 111 159 409 175
960 2 111 159 409 584
961 1 99 171 209 163
962 1 99 171 209 369
963 1 99 171 209 373
964 2 152 171 209 163
965 2 152 171 209 369
966 2 152 171 209 373
967 1 128 188 216 396
968 1 128 188 216 402
969 1 128 188 216 202
970 2 152 188 216 396
971 2 152 188 216 402
972 2 152 188 216 202
973 1 163 209 369 297
974 2 163 209 369 321
975 1 373 209 369 297
976 2 373 209 369 321
977 1 171 209 369 297
978 2 171 209 369 321
979 1 163 209 373 301
980 2 163 209 373 318
981 1 369 209 373 301
982 2 369 209 373 318
983 1 171 209 373 301
984 2 171 209 373 318
985 1 160 818 974 902
986 2 160 818 974 962
987 1 989 818 974 902
988 2 989 818 974 962
989 1 179 818 974 902
990 2 179 818 974 962
991 1 974 818 989 917
992 2 974 818 989 929
993 1 160 818 989 917
994 2 160 818 989 929
995 1 179 818 989 917
996 2 179 818 989 929
997 1 108 180 208 366
998 1 108 180 208 166
999 1 108 180 208 381
1000 2 112 180 208 366
1001 2 112 180 208 166
1002 2 112 180 208 381
1003 3 18 90 97 25
1004 4 18 90 97 169
1005 4 162 90 97 25
1006 5 162 90 97 169
1007 6 18 90 162 4
1008 7 18 90 162 114
1009 8 97 90 162 4
1010 9 97 90 162 114
1011 3 23 95 140 68
1012 4 23 95 140 200
1013 4 167 95 140 68
1014 5 167 95 140 200
1015 6 23 95 167 819
1016 7 23 95 167 155
1017 8 140 95 167 819
1018 9 140 95 167 155
1019 6 25 97 169 5
1020 7 25 97 169 114
1021 8 90 97 169 5
1022 9 90 97 169 114
1023 3 34 106 122 50
1024 4 34 106 122 182
1025 4 178 106 122 50
1026 5 178 106 122 182
1027 6 34 106 178 414
1028 7 34 106 178 110
1029 8 122 106 178 414
1030 9 122 106 178 110
1031 10 454 110 178 414
1032 11 454 110 178 106
1033 12 182 110 178 414
1034 13 182 110 178 106
1035 10 454 110 182 416
1036 11 454 110 182 122
1037 12 178 110 182 416
1038 13 178 110 182 122
1039 10 245 114 162 4
1040 11 245 114 162 90
1041 12 169 114 162 4
1042 13 169 114 162 90
1043 10 245 114 169 5
1044 11 245 114 169 97
1045 12 162 114 169 5
1046 13 162 114 169 97
1047 6 50 122 182 416
1048 7 50 122 182 110
1049 8 106 122 182 416
1050 9 106 122 182 110
1051 6 68 140 200 823
1052 7 68 140 200 155
1053 8 95 140 200 823
1054 9 95 140 200 155
1055 10 892 155 167 819
1056 11 892 155 167 95
1057 12 200 155 167 819
1058 13 200 155 167 95
1059 10 892 155 200 823
1060 11 892 155 200 140
1061 12 167 155 200 823
1062 13 167 155 200 140
1063 1 95 167 819 977
1064 1 95 167 819 986
1065 1 95 167 819 172
1066 2 155 167 819 977
1067 2 155 167 819 986
1068 2 155 167 819 172
1069 1 106 178 414 572
1070 1 106 178 414 168
1071 1 106 178 414 582
1072 2 110 178 414 572
1073 2 110 178 414 168
1074 2 110 178 414 582
1075 2 110 182 416 592
1076 2 110 182 416 605
1077 2 110 182 416 203
1078 1 122 182 416 592
1079 1 122 182 416 605
1080 1 122 182 416 203
1081 1 140 200 823 997
1082 1 140 200 823 183
1083 1 140 200 823 1015
1084 2 155 200 823 997
1085 2 155 200 823 183
1086 2 155 200 823 1015
1087 3 16 88 108 36
1088 4 16 88 108 180
1089 4 160 88 108 36
1090 5 160 88 108 180
1091 6 16 88 160 818
1092 7 16 88 160 112
1093 8 108 88 160 818
1094 9 108 88 160 112
1095 3 19 91 103 31
1096 4 19 91 103 175
1097 4 163 91 103 31
1098 5 163 91 103 175
1099 6 19 91 163 209
1100 7 19 91 163 115
1101 8 103 91 163 209
1102 9 103 91 163 115
1103 3 24 96 100 28
1104 4 24 96 100 172
1105 4 168 96 100 28
1106 5 168 96 100 172
1107 6 24 96 168 414
1108 7 24 96 168 120
1109 8 100 96 168 414
1110 9 100 96 168 120
1111 6 28 100 172 819
1112 7 28 100 172 120
1113 8 96 100 172 819
1114 9 96 100 172 120
1115 6 31 103 175 409
1116 7 31 103 175 115
1117 8 91 103 175 409
1118 9 91 103 175 115
1119 6 36 108 180 208
1120 7 36 108 180 112
1121 8 88 108 180 208
1122 9 88 108 180 112
1123 10 44 112 160 818
1124 11 44 112 160 88
1125 12 180 112 160 818
1126 13 180 112 160 88
1127 10 44 112 180 208
1128 11 44 112 180 108
1129 12 160 112 180 208
1130 13 160 112 180 108
1131 10 38 115 163 209
1132 11 38 115 163 91
1133 12 175 115 163 209
1134 13 175 115 163 91
1135 10 38 115 175 409
1136 11 38 115 175 103
1137 12 163 115 175 409
1138 13 163 115 175 103
1139 10 45 120 168 414
1140 11 45 120 168 96
1141 12 172 120 168 414
1142 13 172 120 168 96
1143 10 45 120 172 819
1144 11 45 120 172 100
1145 12 168 120 172 819
1146 13 168 120 172 100
1147 1 88 160 818 974
1148 1 88 160 818 989
1149 1 88 160 818 179
1150 2 112 160 818 974
1151 2 112 160 818 989
1152 2 112 160 818 179
1153 1 91 163 209 369
1154 1 91 163 209 373
1155 1 91 163 209 171
1156 2 115 163 209 369
1157 2 115 163 209 373
1158 2 115 163 209 171
1159 1 96 168 414 572
1160 1 96 168 414 582
1161 1 96 168 414 178
1162 2 120 168 414 572
1163 2 120 168 414 582
1164 2 120 168 414 178
1165 1 100 172 819 977
1166 1 100 172 819 167
1167 1 100 172 819 986
1168 2 120 172 819 977
1169 2 120 172 819 167
1170 2 120 172 819 986
1171 1 103 175 409 565
1172 1 103 175 409 159
1173 1 103 175 409 584
1174 2 115 175 409 565
1175 2 115 175 409 159
1176 2 115 175 409 584
1177 1 166 208 366 294
1178 2 166 208 366 318
1179 1 381 208 366 294
1180 2 381 208 366 318
1181 1 180 208 366 294
1182 2 180 208 366 318
1183 1 366 208 381 309
1184 2 366 208 381 351
1185 1 166 208 381 309
1186 2 166 208 381 351
1187 1 180 208 381 309
1188 2 180 208 381 351
1189 1 183 823 997 937
1190 2 183 823 997 961
1191 1 1015 823 997 937
1192 2 1015 823 997 961
1193 1 200 823 997 937
1194 2 200 823 997 961
1195 1 997 823 1015 955
1196 2 997 823 1015 967
1197 1 183 823 1015 955
1198 2 183 823 1015 967
1199 1 200 823 1015 955
1200 2 200 823 1015 967
1201 1 167 819 977 905
1202 2 167 819 977 929
1203 1 986 819 977 905
1204 2 986 819 977 929
1205 1 172 819 977 905
1206 2 172 819 977 929
1207 1 977 819 986 914
1208 2 977 819 986 934
1209 1 167 819 986 914
1210 2 167 819 986 934
1211 1 172 819 986 914
1212 2 172 819 986 934
1213 1 1004 1032 1212 1152
1214 2 1004 1032 1212 1176
1215 1 1218 1032 1212 1152
1216 2 1218 1032 1212 1176
1217 1 1018 1032 1212 1152
1218 2 1018 1032 1212 1176
1219 1 1004 1032 1218 1158
1220 2 1004 1032 1218 1165
1221 1 1212 1032 1218 1158
1222 2 1212 1032 1218 1165
1223 1 1018 1032 1218 1158
1224 2 1018 1032 1218 1165
1225 3 837 909 959 887
1226 4 837 909 959 1019
1227 4 981 909 959 887
1228 5 981 909 959 1019
1229 6 837 909 981 821
1230 7 837 909 981 933
1231 8 959 909 981 821
1232 9 959 909 981 933
1233 3 842 914 946 874
1234 4 842 914 946 1006
1235 4 986 914 946 874
1236 5 986 914 946 1006
1237 6 842 914 986 819
1238 7 842 914 986 934
1239 8 946 914 986 819
1240 9 946 914 986 934
1241 10 855 933 981 821
1242 11 855 933 981 909
1243 12 1019 933 981 821
1244 13 1019 933 981 909
1245 10 855 933 1019 1232
1246 11 855 933 1019 959
1247 12 981 933 1019 1232
1248 13 981 933 1019 959
1249 10 859 934 986 819
1250 11 859 934 986 914
1251 12 1006 934 986 819
1252 13 1006 934 986 914
1253 10 859 934 1006 1234
1254 11 859 934 1006 946
1255 12 986 934 1006 1234
1256 13 986 934 1006 946
1257 3 865 937 954 882
1258 4 865 937 954 1014
1259 4 997 937 954 882
1260 5 997 937 954 1014
1261 6 865 937 997 823
1262 7 865 937 997 961
1263 8 954 937 997 823
1264 9 954 937 997 961
1265 6 874 946 1006 1234
1266 7 874 946 1006 934
1267 8 914 946 1006 1234
1268 9 914 946 1006 934
1269 6 882 954 1014 828
1270 7 882 954 1014 961
1271 8 937 954 1014 828
1272 9 937 954 1014 961
1273 6 887 959 1019 1232
1274 7 887 959 1019 933
1275 8 909 959 1019 1232
1276 9 909 959 1019 933
1277 10 894 961 997 823
1278 11 894 961 997 937
1279 12 1014 961 997 823
1280 13 1014 961 997 937
1281 10 894 961 1014 828
1282 11 894 961 1014 954
1283 12 997 961 1014 828
1284 13 997 961 1014 954
1285 2 934 1006 1234 1410
1286 2 934 1006 1234 1017
1287 2 934 1006 1234 1428
1288 1 946 1006 1234 1410
1289 1 946 1006 1234 1017
1290 1 946 1006 1234 1428
1291 2 933 1019 1232 998
1292 2 933 1019 1232 1408
1293 2 933 1019 1232 1421
1294 1 959 1019 1232 998
1295 1 959 1019 1232 1408
1296 1 959 1019 1232 1421
1297 2 927 1017 1234 1410
1298 2 927 1017 1234 1006
1299 2 927 1017 1234 1428
1300 1 957 1017 1234 1410
1301 1 957 1017 1234 1006
1302 1 957 1017 1234 1428
1303 3 831 903 957 885
1304 4 831 903 957 1017
1305 4 975 903 957 885
1306 5 975 903 957 1017
1307 6 831 903 975 1225
1308 7 831 903 975 927
1309 8 957 903 975 1225
1310 9 957 903 975 927
1311 3 833 905 917 845
1312 4 833 905 917 989
1313 4 977 905 917 845
1314 5 977 905 917 989
1315 6 833 905 977 819
1316 7 833 905 977 929
1317 8 917 905 977 819
1318 9 917 905 977 929
1319 3 843 915 944 872
1320 4 843 915 944 1004
1321 4 987 915 944 872
1322 5 987 915 944 1004
1323 6 843 915 987 1025
1324 7 843 915 987 968
1325 8 944 915 987 1025
1326 9 944 915 987 968
1327 6 845 917 989 818
1328 7 845 917 989 929
1329 8 905 917 989 818
1330 9 905 917 989 929
1331 10 1272 927 975 1225
1332 11 1272 927 975 903
1333 12 1017 927 975 1225
1334 13 1017 927 975 903
1335 10 1272 927 1017 1234
1336 11 1272 927 1017 957
1337 12 975 927 1017 1234
1338 13 975 927 1017 957
1339 10 37 929 977 819
1340 11 37 929 977 905
1341 12 989 929 977 819
1342 13 989 929 977 905
1343 10 37 929 989 818
1344 11 37 929 989 917
1345 12 977 929 989 818
1346 13 977 929 989 917
1347 6 872 944 1004 1032
1348 7 872 944 1004 968
1349 8 915 944 1004 1032
1350 9 915 944 1004 968
1351 6 885 957 1017 1234
1352 7 885 957 1017 927
1353 8 903 957 1017 1234
1354 9 903 957 1017 927
1355 10 1103 968 987 1025
1356 11 1103 968 987 915
1357 12 1004 968 987 1025
1358 13 1004 968 987 915
1359 10 1103 968 1004 1032
1360 11 1103 968 1004 944
1361 12 987 968 1004 1032
1362 13 987 968 1004 944
1363 1 903 975 1225 1381
1364 1 903 975 1225 991
1365 1 903 975 1225 1400
1366 2 927 975 1225 1381
1367 2 927 975 1225 991
1368 2 927 975 1225 1400
1369 1 915 987 1025 979
1370 1 915 987 1025 1185
1371 1 915 987 1025 1189
1372 2 968 987 1025 979
1373 2 968 987 1025 1185
1374 2 968 987 1025 1189
1375 1 944 1004 1032 1212
1376 1 944 1004 1032 1218
1377 1 944 1004 1032 1018
1378 2 968 1004 1032 1212
1379 2 968 1004 1032 1218
1380 2 968 1004 1032 1018
1381 1 979 1025 1185 1113
1382 2 979 1025 1185 1137
1383 1 1189 1025 1185 1113
1384 2 1189 1025 1185 1137
1385 1 987 1025 1185 1113
1386 2 987 1025 1185 1137
1387 1 979 1025 1189 1117
1388 2 979 1025 1189 1134
1389 1 1185 1025 1189 1117
1390 2 1185 1025 1189 1134
1391 1 987 1025 1189 1117
1392 2 987 1025 1189 1134
1393 1 924 996 1024 1182
1394 1 924 996 1024 982
1395 1 924 996 1024 1197
1396 2 928 996 1024 1182
1397 2 928 996 1024 982
1398 2 928 996 1024 1197
1399 1 919 991 1225 1381
1400 1 919 991 1225 975
1401 1 919 991 1225 1400
1402 2 931 991 1225 1381
1403 2 931 991 1225 975
1404 2 931 991 1225 1400
1405 3 834 906 913 841
1406 4 834 906 913 985
1407 4 978 906 913 841
1408 5 978 906 913 985
1409 6 834 906 978 820
1410 7 834 906 978 930
1411 8 913 906 978 820
1412 9 913 906 978 930
1413 3 839 911 956 884
1414 4 839 911 956 1016
1415 4 983 911 956 884
1416 5 983 911 956 1016
1417 6 839 911 983 3
1418 7 839 911 983 971
1419 8 956 911 983 3
1420 9 956 911 983 971
1421 6 841 913 985 821
1422 7 841 913 985 930
1423 8 906 913 985 821
1424 9 906 913 985 930
1425 3 850 922 938 866
1426 4 850 922 938 998
1427 4 994 922 938 866
1428 5 994 922 938 998
1429 6 850 922 994 1230
1430 7 850 922 994 926
1431 8 938 922 994 1230
1432 9 938 922 994 926
1433 10 1270 926 994 1230
1434 11 1270 926 994 922
1435 12 998 926 994 1230
1436 13 998 926 994 922
1437 10 1270 926 998 1232
1438 11 1270 926 998 938
1439 12 994 926 998 1232
1440 13 994 926 998 938
1441 10 1061 930 978 820
1442 11 1061 930 978 906
1443 12 985 930 978 820
1444 13 985 930 978 906
1445 10 1061 930 985 821
1446 11 1061 930 985 913
1447 12 978 930 985 821
1448 13 978 930 985 913
1449 6 866 938 998 1232
1450 7 866 938 998 926
1451 8 922 938 998 1232
1452 9 922 938 998 926
1453 6 884 956 1016 7
1454 7 884 956 1016 971
1455 8 911 956 1016 7
1456 9 911 956 1016 971
1457 10 76 971 983 3
1458 11 76 971 983 911
1459 12 1016 971 983 3
1460 13 1016 971 983 911
1461 10 76 971 1016 7
1462 11 76 971 1016 956
1463 12 983 971 1016 7
1464 13 983 971 1016 956
1465 1 922 994 1230 1388
1466 1 922 994 1230 984
1467 1 922 994 1230 1398
1468 2 926 994 1230 1388
1469 2 926 994 1230 984
1470 2 926 994 1230 1398
1471 2 926 998 1232 1408
1472 2 926 998 1232 1421
1473 2 926 998 1232 1019
1474 1 938 998 1232 1408
1475 1 938 998 1232 1421
1476 1 938 998 1232 1019
1477 1 976 2 158 86
1478 2 976 2 158 146
1479 1 173 2 158 86
1480 2 173 2 158 146
1481 1 995 2 158 86
1482 2 995 2 158 146
1483 1 158 2 976 904
1484 2 158 2 976 928
1485 1 173 2 976 904
1486 2 173 2 976 928
1487 1 995 2 976 904
1488 2 995 2 976 928
1489 1 158 2 173 101
1490 2 158 2 173 113
1491 1 976 2 173 101
1492 2 976 2 173 113
1493 1 995 2 173 101
1494 2 995 2 173 113
1495 1 158 2 995 923
1496 2 158 2 995 969
1497 1 976 2 995 923
1498 2 976 2 995 969
1499 1 173 2 995 923
1500 2 173 2 995 969
1501 3 832 904 924 852
1502 4 832 904 924 996
1503 4 976 904 924 852
1504 5 976 904 924 996
1505 6 832 904 976 2
1506 7 832 904 976 928
1507 8 924 904 976 2
1508 9 924 904 976 928
1509 3 835 907 919 847
1510 4 835 907 919 991
1511 4 979 907 919 847
1512 5 979 907 919 991
1513 6 835 907 979 1025
1514 7 835 907 979 931
1515 8 919 907 979 1025
1516 9 919 907 979 931
1517 3 840 912 916 844
1518 4 840 912 916 988
1519 4 984 912 916 844
1520 5 984 912 916 988
1521 6 840 912 984 1230
1522 7 840 912 984 936
1523 8 916 912 984 1230
1524 9 916 912 984 936
1525 6 844 916 988 3
1526 7 844 916 988 936
1527 8 912 916 988 3
1528 9 912 916 988 936
1529 6 847 919 991 1225
1530 7 847 919 991 931
1531 8 907 919 991 1225
1532 9 907 919 991 931
1533 6 852 924 996 1024
1534 7 852 924 996 928
1535 8 904 924 996 1024
1536 9 904 924 996 928
1537 10 860 928 976 2
1538 11 860 928 976 904
1539 12 996 928 976 2
1540 13 996 928 976 904
1541 10 860 928 996 1024
1542 11 860 928 996 924
1543 12 976 928 996 1024
1544 13 976 928 996 924
1545 10 854 931 979 1025
1546 11 854 931 979 907
1547 12 991 931 979 1025
1548 13 991 931 979 907
1549 10 854 931 991 1225
1550 11 854 931 991 919
1551 12 979 931 991 1225
1552 13 979 931 991 919
1553 10 861 936 984 1230
1554 11 861 936 984 912
1555 12 988 936 984 1230
1556 13 988 936 984 912
1557 10 861 936 988 3
1558 11 861 936 988 916
1559 12 984 936 988 3
1560 13 984 936 988 916
1561 1 907 979 1025 1185
1562 1 907 979 1025 1189
1563 1 907 979 1025 987
1564 2 931 979 1025 1185
1565 2 931 979 1025 1189
1566 2 931 979 1025 987
1567 1 912 984 1230 1388
1568 1 912 984 1230 1398
1569 1 912 984 1230 994
1570 2 936 984 1230 1388
1571 2 936 984 1230 1398
1572 2 936 984 1230 994
1573 1 982 1024 1182 1110
1574 2 982 1024 1182 1134
1575 1 1197 1024 1182 1110
1576 2 1197 1024 1182 1134
1577 1 996 1024 1182 1110
1578 2 996 1024 1182 1134
1579 1 1182 1024 1197 1125
1580 2 1182 1024 1197 1167
1581 1 982 1024 1197 1125
1582 2 982 1024 1197 1167
1583 1 996 1024 1197 1125
1584 2 996 1024 1197 1167
1585 1 999 7 181 121
1586 2 999 7 181 145
1587 1 199 7 181 121
1588 2 199 7 181 145
1589 1 1016 7 181 121
1590 2 1016 7 181 145
1591 1 181 7 999 939
1592 2 181 7 999 963
1593 1 199 7 999 939
1594 2 199 7 999 963
1595 1 1016 7 999 939
1596 2 1016 7 999 963
1597 1 181 7 199 139
1598 2 181 7 199 151
1599 1 999 7 199 139
1600 2 999 7 199 151
1601 1 1016 7 199 139
1602 2 1016 7 199 151
1603 1 181 7 1016 956
1604 2 181 7 1016 971
1605 1 999 7 1016 956
1606 2 999 7 1016 971
1607 1 199 7 1016 956
1608 2 199 7 1016 971
1609 1 983 3 161 89
1610 2 983 3 161 113
1611 1 170 3 161 89
1612 2 170 3 161 113
1613 1 988 3 161 89
1614 2 988 3 161 113
1615 1 161 3 983 911
1616 2 161 3 983 971
1617 1 170 3 983 911
1618 2 170 3 983 971
1619 1 988 3 983 911
1620 2 988 3 983 971
1621 1 161 3 170 98
1622 2 161 3 170 118
1623 1 983 3 170 98
1624 2 983 3 170 118
1625 1 988 3 170 98
1626 2 988 3 170 118
1627 1 161 3 988 916
1628 2 161 3 988 936
1629 1 983 3 988 916
1630 2 983 3 988 936
1631 1 170 3 988 916
1632 2 170 3 988 936
1633 1 190 418 594 534
1634 2 190 418 594 558
1635 1 201 418 594 534
1636 2 201 418 594 558
1637 1 612 418 594 534
1638 2 612 418 594 558
1639 1 594 418 612 552
1640 2 594 418 612 556
1641 1 190 418 612 552
1642 2 190 418 612 556
1643 1 201 418 612 552
1644 2 201 418 612 556
1645 3 460 532 552 480
1646 4 460 532 552 612
1647 4 592 532 552 480
1648 5 592 532 552 612
1649 6 460 532 592 416
1650 7 460 532 592 556
1651 8 552 532 592 416
1652 9 552 532 592 556
1653 3 463 535 547 475
1654 4 463 535 547 607
1655 4 595 535 547 475
1656 5 595 535 547 607
1657 6 463 535 595 419
1658 7 463 535 595 559
1659 8 547 535 595 419
1660 9 547 535 595 559
1661 3 468 540 544 472
1662 4 468 540 544 604
1663 4 600 540 544 472
1664 5 600 540 544 604
1665 6 468 540 600 420
1666 7 468 540 600 564
1667 8 544 540 600 420
1668 9 544 540 600 564
1669 6 472 544 604 417
1670 7 472 544 604 564
1671 8 540 544 604 417
1672 9 540 544 604 564
1673 6 475 547 607 415
1674 7 475 547 607 559
1675 8 535 547 607 415
1676 9 535 547 607 559
1677 6 480 552 612 418
1678 7 480 552 612 556
1679 8 532 552 612 418
1680 9 532 552 612 556
1681 10 80 556 592 416
1682 11 80 556 592 532
1683 12 612 556 592 416
1684 13 612 556 592 532
1685 10 80 556 612 418
1686 11 80 556 612 552
1687 12 592 556 612 418
1688 13 592 556 612 552
1689 10 1298 559 595 419
1690 11 1298 559 595 535
1691 12 607 559 595 419
1692 13 607 559 595 535
1693 10 1298 559 607 415
1694 11 1298 559 607 547
1695 12 595 559 607 415
1696 13 595 559 607 547
1697 10 693 564 600 420
1698 11 693 564 600 540
1699 12 604 564 600 420
1700 13 604 564 600 540
1701 10 693 564 604 417
1702 11 693 564 604 544
1703 12 600 564 604 417
1704 13 600 564 604 544
1705 1 599 621 797 737
1706 2 599 621 797 761
1707 1 602 621 797 737
1708 2 602 621 797 761
1709 1 808 621 797 737
1710 2 808 621 797 761
1711 1 797 621 808 748
1712 2 797 621 808 768
1713 1 599 621 808 748
1714 2 599 621 808 768
1715 1 602 621 808 748
1716 2 602 621 808 768
1717 3 422 494 550 478
1718 4 422 494 550 610
1719 4 566 494 550 478
1720 5 566 494 550 610
1721 6 422 494 566 410
1722 7 422 494 566 554
1723 8 550 494 566 410
1724 9 550 494 566 554
1725 3 440 512 539 467
1726 4 440 512 539 599
1727 4 584 512 539 467
1728 5 584 512 539 599
1729 6 440 512 584 409
1730 7 440 512 584 527
1731 8 539 512 584 409
1732 9 539 512 584 527
1733 10 448 527 584 409
1734 11 448 527 584 512
1735 12 599 527 584 409
1736 13 599 527 584 512
1737 10 448 527 599 621
1738 11 448 527 599 539
1739 12 584 527 599 621
1740 13 584 527 599 539
1741 3 462 534 541 469
1742 4 462 534 541 601
1743 4 594 534 541 469
1744 5 594 534 541 601
1745 6 462 534 594 418
1746 7 462 534 594 558
1747 8 541 534 594 418
1748 9 541 534 594 558
1749 6 467 539 599 621
1750 7 467 539 599 527
1751 8 512 539 599 621
1752 9 512 539 599 527
1753 6 469 541 601 419
1754 7 469 541 601 558
1755 8 534 541 601 419
1756 9 534 541 601 558
1757 6 478 550 610 624
1758 7 478 550 610 554
1759 8 494 550 610 624
1760 9 494 550 610 554
1761 10 490 554 566 410
1762 11 490 554 566 494
1763 12 610 554 566 410
1764 13 610 554 566 494
1765 10 490 554 610 624
1766 11 490 554 610 550
1767 12 566 554 610 624
1768 13 566 554 610 550
1769 10 485 558 594 418
1770 11 485 558 594 534
1771 12 601 558 594 418
1772 13 601 558 594 534
1773 10 485 558 601 419
1774 11 485 558 601 541
1775 12 594 558 601 419
1776 13 594 558 601 541
1777 2 527 599 621 797
1778 2 527 599 621 602
1779 2 527 599 621 808
1780 1 539 599 621 797
1781 1 539 599 621 602
1782 1 539 599 621 808
1783 1 550 610 624 596
1784 1 550 610 624 804
1785 1 550 610 624 810
1786 2 554 610 624 596
1787 2 554 610 624 804
1788 2 554 610 624 810
1789 1 182 416 592 532
1790 2 182 416 592 556
1791 1 605 416 592 532
1792 2 605 416 592 556
1793 1 203 416 592 532
1794 2 203 416 592 556
1795 1 182 416 605 545
1796 2 182 416 605 557
1797 1 592 416 605 545
1798 2 592 416 605 557
1799 1 203 416 605 545
1800 2 203 416 605 557
1801 1 159 409 565 493
1802 2 159 409 565 517
1803 1 175 409 565 493
1804 2 175 409 565 517
1805 1 584 409 565 493
1806 2 584 409 565 517
1807 1 565 409 584 512
1808 2 565 409 584 527
1809 1 159 409 584 512
1810 2 159 409 584 527
1811 1 175 409 584 512
1812 2 175 409 584 527
1813 1 542 602 621 797
1814 1 542 602 621 599
1815 1 542 602 621 808
1816 2 562 602 621 797
1817 2 562 602 621 599
1818 2 562 602 621 808
1819 3 428 500 543 471
1820 4 428 500 543 603
1821 4 572 500 543 471
1822 5 572 500 543 603
1823 6 428 500 572 414
1824 7 428 500 572 524
1825 8 543 500 572 414
1826 9 543 500 572 524
1827 3 441 513 531 459
1828 4 441 513 531 591
1829 4 585 513 531 459
1830 5 585 513 531 591
1831 6 441 513 585 412
1832 7 441 513 585 555
1833 8 531 513 585 412
1834 9 531 513 585 555
1835 10 455 524 572 414
1836 11 455 524 572 500
1837 12 603 524 572 414
1838 13 603 524 572 500
1839 10 455 524 603 1235
1840 11 455 524 603 543
1841 12 572 524 603 1235
1842 13 572 524 603 543
1843 6 459 531 591 1231
1844 7 459 531 591 555
1845 8 513 531 591 1231
1846 9 513 531 591 555
1847 3 461 533 545 473
1848 4 461 533 545 605
1849 4 593 533 545 473
1850 5 593 533 545 605
1851 6 461 533 593 417
1852 7 461 533 593 557
1853 8 545 533 593 417
1854 9 545 533 593 557
1855 6 471 543 603 1235
1856 7 471 543 603 524
1857 8 500 543 603 1235
1858 9 500 543 603 524
1859 6 473 545 605 416
1860 7 473 545 605 557
1861 8 533 545 605 416
1862 9 533 545 605 557
1863 10 492 555 585 412
1864 11 492 555 585 513
1865 12 591 555 585 412
1866 13 591 555 585 513
1867 10 492 555 591 1231
1868 11 492 555 591 531
1869 12 585 555 591 1231
1870 13 585 555 591 531
1871 10 481 557 593 417
1872 11 481 557 593 533
1873 12 605 557 593 417
1874 13 605 557 593 533
1875 10 481 557 605 416
1876 11 481 557 605 545
1877 12 593 557 605 416
1878 13 593 557 605 545
1879 1 531 591 1231 1405
1880 1 531 591 1231 1423
1881 1 531 591 1231 608
1882 2 555 591 1231 1405
1883 2 555 591 1231 1423
1884 2 555 591 1231 608
1885 2 524 603 1235 1411
1886 2 524 603 1235 597
1887 2 524 603 1235 1417
1888 1 543 603 1235 1411
1889 1 543 603 1235 597
1890 1 543 603 1235 1417
1891 1 537 597 1235 1411
1892 1 537 597 1235 1417
1893 1 537 597 1235 603
1894 2 561 597 1235 1411
1895 2 561 597 1235 1417
1896 2 561 597 1235 603
1897 1 168 414 572 500
1898 2 168 414 572 524
1899 1 582 414 572 500
1900 2 582 414 572 524
1901 1 178 414 572 500
1902 2 178 414 572 524
1903 1 572 414 582 510
1904 2 572 414 582 517
1905 1 168 414 582 510
1906 2 168 414 582 517
1907 1 178 414 582 510
1908 2 178 414 582 517
1909 3 421 493 510 438
1910 4 421 493 510 582
1911 4 565 493 510 438
1912 5 565 493 510 582
1913 6 421 493 565 409
1914 7 421 493 565 517
1915 8 510 493 565 409
1916 9 510 493 565 517
1917 3 430 502 542 470
1918 4 430 502 542 602
1919 4 574 502 542 470
1920 5 574 502 542 602
1921 6 430 502 574 616
1922 7 430 502 574 562
1923 8 542 502 574 616
1924 9 542 502 574 562
1925 6 438 510 582 414
1926 7 438 510 582 517
1927 8 493 510 582 414
1928 9 493 510 582 517
1929 3 443 515 537 465
1930 4 443 515 537 597
1931 4 587 515 537 465
1932 5 587 515 537 597
1933 6 443 515 587 1226
1934 7 443 515 587 561
1935 8 537 515 587 1226
1936 9 537 515 587 561
1937 10 42 517 565 409
1938 11 42 517 565 493
1939 12 582 517 565 409
1940 13 582 517 565 493
1941 10 42 517 582 414
1942 11 42 517 582 510
1943 12 565 517 582 414
1944 13 565 517 582 510
1945 6 465 537 597 1235
1946 7 465 537 597 561
1947 8 515 537 597 1235
1948 9 515 537 597 561
1949 6 470 542 602 621
1950 7 470 542 602 562
1951 8 502 542 602 621
1952 9 502 542 602 562
1953 10 1299 561 587 1226
1954 11 1299 561 587 515
1955 12 597 561 587 1226
1956 13 597 561 587 515
1957 10 1299 561 597 1235
1958 11 1299 561 597 537
1959 12 587 561 597 1235
1960 13 587 561 597 537
1961 10 691 562 574 616
1962 11 691 562 574 502
1963 12 602 562 574 616
1964 13 602 562 574 502
1965 10 691 562 602 621
1966 11 691 562 602 542
1967 12 574 562 602 621
1968 13 574 562 602 542
1969 1 502 574 616 774
1970 1 502 574 616 789
1971 1 502 574 616 588
1972 2 562 574 616 774
1973 2 562 574 616 789
1974 2 562 574 616 588
1975 1 515 587 1226 1382
1976 1 515 587 1226 568
1977 1 515 587 1226 1397
1978 2 561 587 1226 1382
1979 2 561 587 1226 568
1980 2 561 587 1226 1397
1981 1 597 1235 1411 1351
1982 2 597 1235 1411 1375
1983 1 1417 1235 1411 1351
1984 2 1417 1235 1411 1375
1985 1 603 1235 1411 1351
1986 2 603 1235 1411 1375
1987 1 1411 1235 1417 1357
1988 2 1411 1235 1417 1374
1989 1 597 1235 1417 1357
1990 2 597 1235 1417 1374
1991 1 603 1235 1417 1357
1992 2 603 1235 1417 1374
1993 1 1006 1234 1410 1350
1994 2 1006 1234 1410 1374
1995 1 1017 1234 1410 1350
1996 2 1017 1234 1410 1374
1997 1 1428 1234 1410 1350
1998 2 1428 1234 1410 1374
1999 1 1410 1234 1428 1368
2000 2 1410 1234 1428 1372
2001 1 1006 1234 1428 1368
2002 2 1006 1234 1428 1372
2003 1 1017 1234 1428 1368
2004 2 1017 1234 1428 1372
2005 3 1276 1348 1368 1296
2006 4 1276 1348 1368 1428
2007 4 1408 1348 1368 1296
2008 5 1408 1348 1368 1428
2009 6 1276 1348 1408 1232
2010 7 1276 1348 1408 1372
2011 8 1368 1348 1408 1232
2012 9 1368 1348 1408 1372
2013 3 1279 1351 1363 1291
2014 4 1279 1351 1363 1423
2015 4 1411 1351 1363 1291
2016 5 1411 1351 1363 1423
2017 6 1279 1351 1411 1235
2018 7 1279 1351 1411 1375
2019 8 1363 1351 1411 1235
2020 9 1363 1351 1411 1375
2021 3 1284 1356 1360 1288
2022 4 1284 1356 1360 1420
2023 4 1416 1356 1360 1288
2024 5 1416 1356 1360 1420
2025 6 1284 1356 1416 1236
2026 7 1284 1356 1416 1380
2027 8 1360 1356 1416 1236
2028 9 1360 1356 1416 1380
2029 6 1288 1360 1420 1233
2030 7 1288 1360 1420 1380
2031 8 1356 1360 1420 1233
2032 9 1356 1360 1420 1380
2033 6 1291 1363 1423 1231
2034 7 1291 1363 1423 1375
2035 8 1351 1363 1423 1231
2036 9 1351 1363 1423 1375
2037 6 1296 1368 1428 1234
2038 7 1296 1368 1428 1372
2039 8 1348 1368 1428 1234
2040 9 1348 1368 1428 1372
2041 10 896 1372 1408 1232
2042 11 896 1372 1408 1348
2043 12 1428 1372 1408 1232
2044 13 1428 1372 1408 1348
2045 10 896 1372 1428 1234
2046 11 896 1372 1428 1368
2047 12 1408 1372 1428 1234
2048 13 1408 1372 1428 1368
2049 10 482 1375 1411 1235
2050 11 482 1375 1411 1351
2051 12 1423 1375 1411 1235
2052 13 1423 1375 1411 1351
2053 10 482 1375 1423 1231
2054 11 482 1375 1423 1363
2055 12 1411 1375 1423 1231
2056 13 1411 1375 1423 1363
2057 10 1509 1380 1416 1236
2058 11 1509 1380 1416 1356
2059 12 1420 1380 1416 1236
2060 13 1420 1380 1416 1356
2061 10 1509 1380 1420 1233
2062 11 1509 1380 1420 1360
2063 12 1416 1380 1420 1233
2064 13 1416 1380 1420 1360
2065 1 1415 1437 1613 1553
2066 2 1415 1437 1613 1577
2067 1 1418 1437 1613 1553
2068 2 1418 1437 1613 1577
2069 1 1624 1437 1613 1553
2070 2 1624 1437 1613 1577
2071 1 1613 1437 1624 1564
2072 2 1613 1437 1624 1584
2073 1 1415 1437 1624 1564
2074 2 1415 1437 1624 1584
2075 1 1418 1437 1624 1564
2076 2 1418 1437 1624 1584
2077 3 1238 1310 1366 1294
2078 4 1238 1310 1366 1426
2079 4 1382 1310 1366 1294
2080 5 1382 1310 1366 1426
2081 6 1238 1310 1382 1226
2082 7 1238 1310 1382 1370
2083 8 1366 1310 1382 1226
2084 9 1366 1310 1382 1370
2085 3 1256 1328 1355 1283
2086 4 1256 1328 1355 1415
2087 4 1400 1328 1355 1283
2088 5 1400 1328 1355 1415
2089 6 1256 1328 1400 1225
2090 7 1256 1328 1400 1343
2091 8 1355 1328 1400 1225
2092 9 1355 1328 1400 1343
2093 10 1264 1343 1400 1225
2094 11 1264 1343 1400 1328
2095 12 1415 1343 1400 1225
2096 13 1415 1343 1400 1328
2097 10 1264 1343 1415 1437
2098 11 1264 1343 1415 1355
2099 12 1400 1343 1415 1437
2100 13 1400 1343 1415 1355
2101 3 1278 1350 1357 1285
2102 4 1278 1350 1357 1417
2103 4 1410 1350 1357 1285
2104 5 1410 1350 1357 1417
2105 6 1278 1350 1410 1234
2106 7 1278 1350 1410 1374
2107 8 1357 1350 1410 1234
2108 9 1357 1350 1410 1374
2109 6 1283 1355 1415 1437
2110 7 1283 1355 1415 1343
2111 8 1328 1355 1415 1437
2112 9 1328 1355 1415 1343
2113 6 1285 1357 1417 1235
2114 7 1285 1357 1417 1374
2115 8 1350 1357 1417 1235
2116 9 1350 1357 1417 1374
2117 6 1294 1366 1426 1440
2118 7 1294 1366 1426 1370
2119 8 1310 1366 1426 1440
2120 9 1310 1366 1426 1370
2121 10 1306 1370 1382 1226
2122 11 1306 1370 1382 1310
2123 12 1426 1370 1382 1226
2124 13 1426 1370 1382 1310
2125 10 1306 1370 1426 1440
2126 11 1306 1370 1426 1366
2127 12 1382 1370 1426 1440
2128 13 1382 1370 1426 1366
2129 10 1301 1374 1410 1234
2130 11 1301 1374 1410 1350
2131 12 1417 1374 1410 1234
2132 13 1417 1374 1410 1350
2133 10 1301 1374 1417 1235
2134 11 1301 1374 1417 1357
2135 12 1410 1374 1417 1235
2136 13 1410 1374 1417 1357
2137 2 1343 1415 1437 1613
2138 2 1343 1415 1437 1418
2139 2 1343 1415 1437 1624
2140 1 1355 1415 1437 1613
2141 1 1355 1415 1437 1418
2142 1 1355 1415 1437 1624
2143 1 1366 1426 1440 1412
2144 1 1366 1426 1440 1620
2145 1 1366 1426 1440 1626
2146 2 1370 1426 1440 1412
2147 2 1370 1426 1440 1620
2148 2 1370 1426 1440 1626
2149 1 998 1232 1408 1348
2150 2 998 1232 1408 1372
2151 1 1421 1232 1408 1348
2152 2 1421 1232 1408 1372
2153 1 1019 1232 1408 1348
2154 2 1019 1232 1408 1372
2155 1 998 1232 1421 1361
2156 2 998 1232 1421 1373
2157 1 1408 1232 1421 1361
2158 2 1408 1232 1421 1373
2159 1 1019 1232 1421 1361
2160 2 1019 1232 1421 1373
2161 1 975 1225 1381 1309
2162 2 975 1225 1381 1333
2163 1 991 1225 1381 1309
2164 2 991 1225 1381 1333
2165 1 1400 1225 1381 1309
2166 2 1400 1225 1381 1333
2167 1 1381 1225 1400 1328
2168 2 1381 1225 1400 1343
2169 1 975 1225 1400 1328
2170 2 975 1225 1400 1343
2171 1 991 1225 1400 1328
2172 2 991 1225 1400 1343
2173 1 1358 1418 1437 1613
2174 1 1358 1418 1437 1415
2175 1 1358 1418 1437 1624
2176 2 1378 1418 1437 1613
2177 2 1378 1418 1437 1415
2178 2 1378 1418 1437 1624
2179 3 1244 1316 1359 1287
2180 4 1244 1316 1359 1419
2181 4 1388 1316 1359 1287
2182 5 1388 1316 1359 1419
2183 6 1244 1316 1388 1230
2184 7 1244 1316 1388 1340
2185 8 1359 1316 1388 1230
2186 9 1359 1316 1388 1340
2187 3 1257 1329 1347 1275
2188 4 1257 1329 1347 1407
2189 4 1401 1329 1347 1275
2190 5 1401 1329 1347 1407
2191 6 1257 1329 1401 1228
2192 7 1257 1329 1401 1371
2193 8 1347 1329 1401 1228
2194 9 1347 1329 1401 1371
2195 10 1271 1340 1388 1230
2196 11 1271 1340 1388 1316
2197 12 1419 1340 1388 1230
2198 13 1419 1340 1388 1316
2199 10 1271 1340 1419 419
2200 11 1271 1340 1419 1359
2201 12 1388 1340 1419 419
2202 13 1388 1340 1419 1359
2203 6 1275 1347 1407 415
2204 7 1275 1347 1407 1371
2205 8 1329 1347 1407 415
2206 9 1329 1347 1407 1371
2207 3 1277 1349 1361 1289
2208 4 1277 1349 1361 1421
2209 4 1409 1349 1361 1289
2210 5 1409 1349 1361 1421
2211 6 1277 1349 1409 1233
2212 7 1277 1349 1409 1373
2213 8 1361 1349 1409 1233
2214 9 1361 1349 1409 1373
2215 6 1287 1359 1419 419
2216 7 1287 1359 1419 1340
2217 8 1316 1359 1419 419
2218 9 1316 1359 1419 1340
2219 6 1289 1361 1421 1232
2220 7 1289 1361 1421 1373
2221 8 1349 1361 1421 1232
2222 9 1349 1361 1421 1373
2223 10 1308 1371 1401 1228
2224 11 1308 1371 1401 1329
2225 12 1407 1371 1401 1228
2226 13 1407 1371 1401 1329
2227 10 1308 1371 1407 415
2228 11 1308 1371 1407 1347
2229 12 1401 1371 1407 415
2230 13 1401 1371 1407 1347
2231 10 1297 1373 1409 1233
2232 11 1297 1373 1409 1349
2233 12 1421 1373 1409 1233
2234 13 1421 1373 1409 1349
2235 10 1297 1373 1421 1232
2236 11 1297 1373 1421 1361
2237 12 1409 1373 1421 1232
2238 13 1409 1373 1421 1361
2239 1 984 1230 1388 1316
2240 2 984 1230 1388 1340
2241 1 1398 1230 1388 1316
2242 2 1398 1230 1388 1340
2243 1 994 1230 1388 1316
2244 2 994 1230 1388 1340
2245 1 1388 1230 1398 1326
2246 2 1388 1230 1398 1333
2247 1 984 1230 1398 1326
2248 2 984 1230 1398 1333
2249 1 994 1230 1398 1326
2250 2 994 1230 1398 1333
2251 3 1237 1309 1326 1254
2252 4 1237 1309 1326 1398
2253 4 1381 1309 1326 1254
2254 5 1381 1309 1326 1398
2255 6 1237 1309 1381 1225
2256 7 1237 1309 1381 1333
2257 8 1326 1309 1381 1225
2258 9 1326 1309 1381 1333
2259 3 1246 1318 1358 1286
2260 4 1246 1318 1358 1418
2261 4 1390 1318 1358 1286
2262 5 1390 1318 1358 1418
2263 6 1246 1318 1390 1432
2264 7 1246 1318 1390 1378
2265 8 1358 1318 1390 1432
2266 9 1358 1318 1390 1378
2267 6 1254 1326 1398 1230
2268 7 1254 1326 1398 1333
2269 8 1309 1326 1398 1230
2270 9 1309 1326 1398 1333
2271 3 1259 1331 1353 1281
2272 4 1259 1331 1353 1413
2273 4 1403 1331 1353 1281
2274 5 1403 1331 1353 1413
2275 6 1259 1331 1403 410
2276 7 1259 1331 1403 1377
2277 8 1353 1331 1403 410
2278 9 1353 1331 1403 1377
2279 10 858 1333 1381 1225
2280 11 858 1333 1381 1309
2281 12 1398 1333 1381 1225
2282 13 1398 1333 1381 1309
2283 10 858 1333 1398 1230
2284 11 858 1333 1398 1326
2285 12 1381 1333 1398 1230
2286 13 1381 1333 1398 1326
2287 6 1281 1353 1413 419
2288 7 1281 1353 1413 1377
2289 8 1331 1353 1413 419
2290 9 1331 1353 1413 1377
2291 6 1286 1358 1418 1437
2292 7 1286 1358 1418 1378
2293 8 1318 1358 1418 1437
2294 9 1318 1358 1418 1378
2295 10 483 1377 1403 410
2296 11 483 1377 1403 1331
2297 12 1413 1377 1403 410
2298 13 1413 1377 1403 1331
2299 10 483 1377 1413 419
2300 11 483 1377 1413 1353
2301 12 1403 1377 1413 419
2302 13 1403 1377 1413 1353
2303 10 1507 1378 1390 1432
2304 11 1507 1378 1390 1318
2305 12 1418 1378 1390 1432
2306 13 1418 1378 1390 1318
2307 10 1507 1378 1418 1437
2308 11 1507 1378 1418 1358
2309 12 1390 1378 1418 1437
2310 13 1390 1378 1418 1358
2311 1 1318 1390 1432 1590
2312 1 1318 1390 1432 1605
2313 1 1318 1390 1432 1404
2314 2 1378 1390 1432 1590
2315 2 1378 1390 1432 1605
2316 2 1378 1390 1432 1404
2317 1 1413 419 595 535
2318 2 1413 419 595 559
2319 1 601 419 595 535
2320 2 601 419 595 559
2321 1 1419 419 595 535
2322 2 1419 419 595 559
2323 1 595 419 1413 1353
2324 2 595 419 1413 1377
2325 1 601 419 1413 1353
2326 2 601 419 1413 1377
2327 1 1419 419 1413 1353
2328 2 1419 419 1413 1377
2329 1 595 419 601 541
2330 2 595 419 601 558
2331 1 1413 419 601 541
2332 2 1413 419 601 558
2333 1 1419 419 601 541
2334 2 1419 419 601 558
2335 2 595 419 1419 1340
2336 1 595 419 1419 1359
2337 2 1413 419 1419 1340
2338 1 1413 419 1419 1359
2339 2 601 419 1419 1340
2340 1 601 419 1419 1359
2341 1 596 624 804 744
2342 2 596 624 804 768
2343 1 810 624 804 744
2344 2 810 624 804 768
2345 1 610 624 804 744
2346 2 610 624 804 768
2347 1 596 624 810 750
2348 2 596 624 810 757
2349 1 804 624 810 750
2350 2 804 624 810 757
2351 1 610 624 810 750
2352 2 610 624 810 757
2353 3 429 501 551 479
2354 4 429 501 551 611
2355 4 573 501 551 479
2356 5 573 501 551 611
2357 6 429 501 573 413
2358 7 429 501 573 525
2359 8 551 501 573 413
2360 9 551 501 573 525
2361 3 434 506 538 466
2362 4 434 506 538 598
2363 4 578 506 538 466
2364 5 578 506 538 598
2365 6 434 506 578 411
2366 7 434 506 578 526
2367 8 538 506 578 411
2368 9 538 506 578 526
2369 10 447 525 573 413
2370 11 447 525 573 501
2371 12 611 525 573 413
2372 13 611 525 573 501
2373 10 447 525 611 8
2374 11 447 525 611 551
2375 12 573 525 611 8
2376 13 573 525 611 551
2377 10 451 526 578 411
2378 11 451 526 578 506
2379 12 598 526 578 411
2380 13 598 526 578 506
2381 10 451 526 598 10
2382 11 451 526 598 538
2383 12 578 526 598 10
2384 13 578 526 598 538
2385 3 457 529 546 474
2386 4 457 529 546 606
2387 4 589 529 546 474
2388 5 589 529 546 606
2389 6 457 529 589 415
2390 7 457 529 589 553
2391 8 546 529 589 415
2392 9 546 529 589 553
2393 6 466 538 598 10
2394 7 466 538 598 526
2395 8 506 538 598 10
2396 9 506 538 598 526
2397 6 474 546 606 420
2398 7 474 546 606 553
2399 8 529 546 606 420
2400 9 529 546 606 553
2401 6 479 551 611 8
2402 7 479 551 611 525
2403 8 501 551 611 8
2404 9 501 551 611 525
2405 10 486 553 589 415
2406 11 486 553 589 529
2407 12 606 553 589 415
2408 13 606 553 589 529
2409 10 486 553 606 420
2410 11 486 553 606 546
2411 12 589 553 606 420
2412 13 589 553 606 546
2413 3 423 495 549 477
2414 4 423 495 549 609
2415 4 567 495 549 477
2416 5 567 495 549 609
2417 6 423 495 567 1
2418 7 423 495 567 519
2419 8 549 495 567 1
2420 9 549 495 567 519
2421 3 425 497 509 437
2422 4 425 497 509 581
2423 4 569 497 509 437
2424 5 569 497 509 581
2425 6 425 497 569 411
2426 7 425 497 569 521
2427 8 509 497 569 411
2428 9 509 497 569 521
2429 3 435 507 536 464
2430 4 435 507 536 596
2431 4 579 507 536 464
2432 5 579 507 536 596
2433 6 435 507 579 617
2434 7 435 507 579 560
2435 8 536 507 579 617
2436 9 536 507 579 560
2437 6 437 509 581 410
2438 7 437 509 581 521
2439 8 497 509 581 410
2440 9 497 509 581 521
2441 10 48 519 567 1
2442 11 48 519 567 495
2443 12 609 519 567 1
2444 13 609 519 567 495
2445 10 48 519 609 10
2446 11 48 519 609 549
2447 12 567 519 609 10
2448 13 567 519 609 549
2449 10 1261 521 569 411
2450 11 1261 521 569 497
2451 12 581 521 569 411
2452 13 581 521 569 497
2453 10 1261 521 581 410
2454 11 1261 521 581 509
2455 12 569 521 581 410
2456 13 569 521 581 509
2457 6 464 536 596 624
2458 7 464 536 596 560
2459 8 507 536 596 624
2460 9 507 536 596 560
2461 6 477 549 609 10
2462 7 477 549 609 519
2463 8 495 549 609 10
2464 9 495 549 609 519
2465 10 695 560 579 617
2466 11 695 560 579 507
2467 12 596 560 579 617
2468 13 596 560 579 507
2469 10 695 560 596 624
2470 11 695 560 596 536
2471 12 579 560 596 624
2472 13 579 560 596 536
2473 1 507 579 617 571
2474 1 507 579 617 777
2475 1 507 579 617 781
2476 2 560 579 617 571
2477 2 560 579 617 777
2478 2 560 579 617 781
2479 1 536 596 624 804
2480 1 536 596 624 810
2481 1 536 596 624 610
2482 2 560 596 624 804
2483 2 560 596 624 810
2484 2 560 596 624 610
2485 1 571 617 777 705
2486 2 571 617 777 729
2487 1 781 617 777 705
2488 2 781 617 777 729
2489 1 579 617 777 705
2490 2 579 617 777 729
2491 1 571 617 781 709
2492 2 571 617 781 726
2493 1 777 617 781 709
2494 2 777 617 781 726
2495 1 579 617 781 709
2496 2 579 617 781 726
2497 1 568 1226 1382 1310
2498 2 568 1226 1382 1370
2499 1 1397 1226 1382 1310
2500 2 1397 1226 1382 1370
2501 1 587 1226 1382 1310
2502 2 587 1226 1382 1370
2503 1 1382 1226 1397 1325
2504 2 1382 1226 1397 1337
2505 1 568 1226 1397 1325
2506 2 568 1226 1397 1337
2507 1 587 1226 1397 1325
2508 2 587 1226 1397 1337
2509 1 516 588 616 774
2510 1 516 588 616 574
2511 1 516 588 616 789
2512 2 520 588 616 774
2513 2 520 588 616 574
2514 2 520 588 616 789
2515 3 426 498 505 433
2516 4 426 498 505 577
2517 4 570 498 505 433
2518 5 570 498 505 577
2519 6 426 498 570 412
2520 7 426 498 570 522
2521 8 505 498 570 412
2522 9 505 498 570 522
2523 3 431 503 548 476
2524 4 431 503 548 608
2525 4 575 503 548 476
2526 5 575 503 548 608
2527 6 431 503 575 1227
2528 7 431 503 575 563
2529 8 548 503 575 1227
2530 9 548 503 575 563
2531 6 433 505 577 413
2532 7 433 505 577 522
2533 8 498 505 577 413
2534 9 498 505 577 522
2535 3 442 514 530 458
2536 4 442 514 530 590
2537 4 586 514 530 458
2538 5 586 514 530 590
2539 6 442 514 586 6
2540 7 442 514 586 518
2541 8 530 514 586 6
2542 9 530 514 586 518
2543 10 46 518 586 6
2544 11 46 518 586 514
2545 12 590 518 586 6
2546 13 590 518 586 514
2547 10 46 518 590 8
2548 11 46 518 590 530
2549 12 586 518 590 8
2550 13 586 518 590 530
2551 10 653 522 570 412
2552 11 653 522 570 498
2553 12 577 522 570 412
2554 13 577 522 570 498
2555 10 653 522 577 413
2556 11 653 522 577 505
2557 12 570 522 577 413
2558 13 570 522 577 505
2559 6 458 530 590 8
2560 7 458 530 590 518
2561 8 514 530 590 8
2562 9 514 530 590 518
2563 6 476 548 608 1231
2564 7 476 548 608 563
2565 8 503 548 608 1231
2566 9 503 548 608 563
2567 10 1300 563 575 1227
2568 11 1300 563 575 503
2569 12 608 563 575 1227
2570 13 608 563 575 503
2571 10 1300 563 608 1231
2572 11 1300 563 608 548
2573 12 575 563 608 1231
2574 13 575 563 608 548
2575 1 503 575 1227 1385
2576 1 503 575 1227 1394
2577 1 503 575 1227 580
2578 2 563 575 1227 1385
2579 2 563 575 1227 1394
2580 2 563 575 1227 580
2581 1 548 608 1231 1405
2582 1 548 608 1231 591
2583 1 548 608 1231 1423
2584 2 563 608 1231 1405
2585 2 563 608 1231 591
2586 2 563 608 1231 1423
2587 3 424 496 516 444
2588 4 424 496 516 588
2589 4 568 496 516 444
2590 5 568 496 516 588
2591 6 424 496 568 1226
2592 7 424 496 568 520
2593 8 516 496 568 1226
2594 9 516 496 568 520
2595 3 427 499 511 439
2596 4 427 499 511 583
2597 4 571 499 511 439
2598 5 571 499 511 583
2599 6 427 499 571 617
2600 7 427 499 571 523
2601 8 511 499 571 617
2602 9 511 499 571 523
2603 3 432 504 508 436
2604 4 432 504 508 580
2605 4 576 504 508 436
2606 5 576 504 508 580
2607 6 432 504 576 6
2608 7 432 504 576 528
2609 8 508 504 576 6
2610 9 508 504 576 528
2611 6 436 508 580 1227
2612 7 436 508 580 528
2613 8 504 508 580 1227
2614 9 504 508 580 528
2615 6 439 511 583 1
2616 7 439 511 583 523
2617 8 499 511 583 1
2618 9 499 511 583 523
2619 6 444 516 588 616
2620 7 444 516 588 520
2621 8 496 516 588 616
2622 9 496 516 588 520
2623 10 452 520 568 1226
2624 11 452 520 568 496
2625 12 588 520 568 1226
2626 13 588 520 568 496
2627 10 452 520 588 616
2628 11 452 520 588 516
2629 12 568 520 588 616
2630 13 568 520 588 516
2631 10 446 523 571 617
2632 11 446 523 571 499
2633 12 583 523 571 617
2634 13 583 523 571 499
2635 10 446 523 583 1
2636 11 446 523 583 511
2637 12 571 523 583 1
2638 13 571 523 583 511
2639 10 453 528 576 6
2640 11 453 528 576 504
2641 12 580 528 576 6
2642 13 580 528 576 504
2643 10 453 528 580 1227
2644 11 453 528 580 508
2645 12 576 528 580 1227
2646 13 576 528 580 508
2647 1 496 568 1226 1382
2648 1 496 568 1226 1397
2649 1 496 568 1226 587
2650 2 520 568 1226 1382
2651 2 520 568 1226 1397
2652 2 520 568 1226 587
2653 1 499 571 617 777
2654 1 499 571 617 781
2655 1 499 571 617 579
2656 2 523 571 617 777
2657 2 523 571 617 781
2658 2 523 571 617 579
2659 1 508 580 1227 1385
2660 1 508 580 1227 575
2661 1 508 580 1227 1394
2662 2 528 580 1227 1385
2663 2 528 580 1227 575
2664 2 528 580 1227 1394
2665 1 574 616 774 702
2666 2 574 616 774 726
2667 1 789 616 774 702
2668 2 789 616 774 726
2669 1 588 616 774 702
2670 2 588 616 774 726
2671 1 774 616 789 717
2672 2 774 616 789 759
2673 1 574 616 789 717
2674 2 574 616 789 759
2675 1 588 616 789 717
2676 2 588 616 789 759
2677 1 591 1231 1405 1345
2678 2 591 1231 1405 1369
2679 1 1423 1231 1405 1345
2680 2 1423 1231 1405 1369
2681 1 608 1231 1405 1345
2682 2 608 1231 1405 1369
2683 1 1405 1231 1423 1363
2684 2 1405 1231 1423 1375
2685 1 591 1231 1423 1363
2686 2 591 1231 1423 1375
2687 1 608 1231 1423 1363
2688 2 608 1231 1423 1375
2689 1 575 1227 1385 1313
2690 2 575 1227 1385 1337
2691 1 1394 1227 1385 1313
2692 2 1394 1227 1385 1337
2693 1 580 1227 1385 1313
2694 2 580 1227 1385 1337
2695 1 1385 1227 1394 1322
2696 2 1385 1227 1394 1342
2697 1 575 1227 1394 1322
2698 2 575 1227 1394 1342
2699 1 580 1227 1394 1322
2700 2 580 1227 1394 1342
2701 1 1412 1440 1620 1560
2702 2 1412 1440 1620 1584
2703 1 1626 1440 1620 1560
2704 2 1626 1440 1620 1584
2705 1 1426 1440 1620 1560
2706 2 1426 1440 1620 1584
2707 1 1412 1440 1626 1566
2708 2 1412 1440 1626 1573
2709 1 1620 1440 1626 1566
2710 2 1620 1440 1626 1573
2711 1 1426 1440 1626 1566
2712 2 1426 1440 1626 1573
2713 3 1245 1317 1367 1295
2714 4 1245 1317 1367 1427
2715 4 1389 1317 1367 1295
2716 5 1389 1317 1367 1427
2717 6 1245 1317 1389 1229
2718 7 1245 1317 1389 1341
2719 8 1367 1317 1389 1229
2720 9 1367 1317 1389 1341
2721 3 1250 1322 1354 1282
2722 4 1250 1322 1354 1414
2723 4 1394 1322 1354 1282
2724 5 1394 1322 1354 1414
2725 6 1250 1322 1394 1227
2726 7 1250 1322 1394 1342
2727 8 1354 1322 1394 1227
2728 9 1354 1322 1394 1342
2729 10 1263 1341 1389 1229
2730 11 1263 1341 1389 1317
2731 12 1427 1341 1389 1229
2732 13 1427 1341 1389 1317
2733 10 1263 1341 1427 824
2734 11 1263 1341 1427 1367
2735 12 1389 1341 1427 824
2736 13 1389 1341 1427 1367
2737 10 1267 1342 1394 1227
2738 11 1267 1342 1394 1322
2739 12 1414 1342 1394 1227
2740 13 1414 1342 1394 1322
2741 10 1267 1342 1414 826
2742 11 1267 1342 1414 1354
2743 12 1394 1342 1414 826
2744 13 1394 1342 1414 1354
2745 3 1273 1345 1362 1290
2746 4 1273 1345 1362 1422
2747 4 1405 1345 1362 1290
2748 5 1405 1345 1362 1422
2749 6 1273 1345 1405 1231
2750 7 1273 1345 1405 1369
2751 8 1362 1345 1405 1231
2752 9 1362 1345 1405 1369
2753 6 1282 1354 1414 826
2754 7 1282 1354 1414 1342
2755 8 1322 1354 1414 826
2756 9 1322 1354 1414 1342
2757 6 1290 1362 1422 1236
2758 7 1290 1362 1422 1369
2759 8 1345 1362 1422 1236
2760 9 1345 1362 1422 1369
2761 6 1295 1367 1427 824
2762 7 1295 1367 1427 1341
2763 8 1317 1367 1427 824
2764 9 1317 1367 1427 1341
2765 10 1302 1369 1405 1231
2766 11 1302 1369 1405 1345
2767 12 1422 1369 1405 1231
2768 13 1422 1369 1405 1345
2769 10 1302 1369 1422 1236
2770 11 1302 1369 1422 1362
2771 12 1405 1369 1422 1236
2772 13 1405 1369 1422 1362
2773 3 1239 1311 1365 1293
2774 4 1239 1311 1365 1425
2775 4 1383 1311 1365 1293
2776 5 1383 1311 1365 1425
2777 6 1239 1311 1383 817
2778 7 1239 1311 1383 1335
2779 8 1365 1311 1383 817
2780 9 1365 1311 1383 1335
2781 3 1241 1313 1325 1253
2782 4 1241 1313 1325 1397
2783 4 1385 1313 1325 1253
2784 5 1385 1313 1325 1397
2785 6 1241 1313 1385 1227
2786 7 1241 1313 1385 1337
2787 8 1325 1313 1385 1227
2788 9 1325 1313 1385 1337
2789 3 1251 1323 1352 1280
2790 4 1251 1323 1352 1412
2791 4 1395 1323 1352 1280
2792 5 1395 1323 1352 1412
2793 6 1251 1323 1395 1433
2794 7 1251 1323 1395 1376
2795 8 1352 1323 1395 1433
2796 9 1352 1323 1395 1376
2797 6 1253 1325 1397 1226
2798 7 1253 1325 1397 1337
2799 8 1313 1325 1397 1226
2800 9 1313 1325 1397 1337
2801 10 864 1335 1383 817
2802 11 864 1335 1383 1311
2803 12 1425 1335 1383 817
2804 13 1425 1335 1383 1311
2805 10 864 1335 1425 826
2806 11 864 1335 1425 1365
2807 12 1383 1335 1425 826
2808 13 1383 1335 1425 1365
2809 10 445 1337 1385 1227
2810 11 445 1337 1385 1313
2811 12 1397 1337 1385 1227
2812 13 1397 1337 1385 1313
2813 10 445 1337 1397 1226
2814 11 445 1337 1397 1325
2815 12 1385 1337 1397 1226
2816 13 1385 1337 1397 1325
2817 6 1280 1352 1412 1440
2818 7 1280 1352 1412 1376
2819 8 1323 1352 1412 1440
2820 9 1323 1352 1412 1376
2821 6 1293 1365 1425 826
2822 7 1293 1365 1425 1335
2823 8 1311 1365 1425 826
2824 9 1311 1365 1425 1335
2825 10 1511 1376 1395 1433
2826 11 1511 1376 1395 1323
2827 12 1412 1376 1395 1433
2828 13 1412 1376 1395 1323
2829 10 1511 1376 1412 1440
2830 11 1511 1376 1412 1352
2831 12 1395 1376 1412 1440
2832 13 1395 1376 1412 1352
2833 1 1323 1395 1433 1387
2834 1 1323 1395 1433 1593
2835 1 1323 1395 1433 1597
2836 2 1376 1395 1433 1387
2837 2 1376 1395 1433 1593
2838 2 1376 1395 1433 1597
2839 1 1352 1412 1440 1620
2840 1 1352 1412 1440 1626
2841 1 1352 1412 1440 1426
2842 2 1376 1412 1440 1620
2843 2 1376 1412 1440 1626
2844 2 1376 1412 1440 1426
2845 1 1387 1433 1593 1521
2846 2 1387 1433 1593 1545
2847 1 1597 1433 1593 1521
2848 2 1597 1433 1593 1545
2849 1 1395 1433 1593 1521
2850 2 1395 1433 1593 1545
2851 1 1387 1433 1597 1525
2852 2 1387 1433 1597 1542
2853 1 1593 1433 1597 1525
2854 2 1593 1433 1597 1542
2855 1 1395 1433 1597 1525
2856 2 1395 1433 1597 1542
2857 1 1332 1404 1432 1590
2858 1 1332 1404 1432 1390
2859 1 1332 1404 1432 1605
2860 2 1336 1404 1432 1590
2861 2 1336 1404 1432 1390
2862 2 1336 1404 1432 1605
2863 3 1242 1314 1321 1249
2864 4 1242 1314 1321 1393
2865 4 1386 1314 1321 1249
2866 5 1386 1314 1321 1393
2867 6 1242 1314 1386 1228
2868 7 1242 1314 1386 1338
2869 8 1321 1314 1386 1228
2870 9 1321 1314 1386 1338
2871 3 1247 1319 1364 1292
2872 4 1247 1319 1364 1424
2873 4 1391 1319 1364 1292
2874 5 1391 1319 1364 1424
2875 6 1247 1319 1391 411
2876 7 1247 1319 1391 1379
2877 8 1364 1319 1391 411
2878 9 1364 1319 1391 1379
2879 6 1249 1321 1393 1229
2880 7 1249 1321 1393 1338
2881 8 1314 1321 1393 1229
2882 9 1314 1321 1393 1338
2883 3 1258 1330 1346 1274
2884 4 1258 1330 1346 1406
2885 4 1402 1330 1346 1274
2886 5 1402 1330 1346 1406
2887 6 1258 1330 1402 822
2888 7 1258 1330 1402 1334
2889 8 1346 1330 1402 822
2890 9 1346 1330 1402 1334
2891 10 862 1334 1402 822
2892 11 862 1334 1402 1330
2893 12 1406 1334 1402 822
2894 13 1406 1334 1402 1330
2895 10 862 1334 1406 824
2896 11 862 1334 1406 1346
2897 12 1402 1334 1406 824
2898 13 1402 1334 1406 1346
2899 10 1469 1338 1386 1228
2900 11 1469 1338 1386 1314
2901 12 1393 1338 1386 1228
2902 13 1393 1338 1386 1314
2903 10 1469 1338 1393 1229
2904 11 1469 1338 1393 1321
2905 12 1386 1338 1393 1229
2906 13 1386 1338 1393 1321
2907 6 1274 1346 1406 824
2908 7 1274 1346 1406 1334
2909 8 1330 1346 1406 824
2910 9 1330 1346 1406 1334
2911 6 1292 1364 1424 415
2912 7 1292 1364 1424 1379
2913 8 1319 1364 1424 415
2914 9 1319 1364 1424 1379
2915 10 484 1379 1391 411
2916 11 484 1379 1391 1319
2917 12 1424 1379 1391 411
2918 13 1424 1379 1391 1319
2919 10 484 1379 1424 415
2920 11 484 1379 1424 1364
2921 12 1391 1379 1424 415
2922 13 1391 1379 1424 1364
2923 1 1384 410 566 494
2924 2 1384 410 566 554
2925 1 581 410 566 494
2926 2 581 410 566 554
2927 1 1403 410 566 494
2928 2 1403 410 566 554
2929 1 566 410 1384 1312
2930 2 566 410 1384 1336
2931 1 581 410 1384 1312
2932 2 581 410 1384 1336
2933 1 1403 410 1384 1312
2934 2 1403 410 1384 1336
2935 1 566 410 581 509
2936 2 566 410 581 521
2937 1 1384 410 581 509
2938 2 1384 410 581 521
2939 1 1403 410 581 509
2940 2 1403 410 581 521
2941 1 566 410 1403 1331
2942 2 566 410 1403 1377
2943 1 1384 410 1403 1331
2944 2 1384 410 1403 1377
2945 1 581 410 1403 1331
2946 2 581 410 1403 1377
2947 3 1240 1312 1332 1260
2948 4 1240 1312 1332 1404
2949 4 1384 1312 1332 1260
2950 5 1384 1312 1332 1404
2951 6 1240 1312 1384 410
2952 7 1240 1312 1384 1336
2953 8 1332 1312 1384 410
2954 9 1332 1312 1384 1336
2955 3 1243 1315 1327 1255
2956 4 1243 1315 1327 1399
2957 4 1387 1315 1327 1255
2958 5 1387 1315 1327 1399
2959 6 1243 1315 1387 1433
2960 7 1243 1315 1387 1339
2961 8 1327 1315 1387 1433
2962 9 1327 1315 1387 1339
2963 3 1248 1320 1324 1252
2964 4 1248 1320 1324 1396
2965 4 1392 1320 1324 1252
2966 5 1392 1320 1324 1396
2967 6 1248 1320 1392 822
2968 7 1248 1320 1392 1344
2969 8 1324 1320 1392 822
2970 9 1324 1320 1392 1344
2971 6 1252 1324 1396 411
2972 7 1252 1324 1396 1344
2973 8 1320 1324 1396 411
2974 9 1320 1324 1396 1344
2975 6 1255 1327 1399 817
2976 7 1255 1327 1399 1339
2977 8 1315 1327 1399 817
2978 9 1315 1327 1399 1339
2979 6 1260 1332 1404 1432
2980 7 1260 1332 1404 1336
2981 8 1312 1332 1404 1432
2982 9 1312 1332 1404 1336
2983 10 1268 1336 1384 410
2984 11 1268 1336 1384 1312
2985 12 1404 1336 1384 410
2986 13 1404 1336 1384 1312
2987 10 1268 1336 1404 1432
2988 11 1268 1336 1404 1332
2989 12 1384 1336 1404 1432
2990 13 1384 1336 1404 1332
2991 10 1262 1339 1387 1433
2992 11 1262 1339 1387 1315
2993 12 1399 1339 1387 1433
2994 13 1399 1339 1387 1315
2995 10 1262 1339 1399 817
2996 11 1262 1339 1399 1327
2997 12 1387 1339 1399 817
2998 13 1387 1339 1399 1327
2999 10 1269 1344 1392 822
3000 11 1269 1344 1392 1320
3001 12 1396 1344 1392 822
3002 13 1396 1344 1392 1320
3003 10 1269 1344 1396 411
3004 11 1269 1344 1396 1324
3005 12 1392 1344 1396 411
3006 13 1392 1344 1396 1324
3007 1 1315 1387 1433 1593
3008 1 1315 1387 1433 1597
3009 1 1315 1387 1433 1395
3010 2 1339 1387 1433 1593
3011 2 1339 1387 1433 1597
3012 2 1339 1387 1433 1395
3013 1 1390 1432 1590 1518
3014 2 1390 1432 1590 1542
3015 1 1605 1432 1590 1518
3016 2 1605 1432 1590 1542
3017 1 1404 1432 1590 1518
3018 2 1404 1432 1590 1542
3019 1 1590 1432 1605 1533
3020 2 1590 1432 1605 1575
3021 1 1390 1432 1605 1533
3022 2 1390 1432 1605 1575
3023 1 1404 1432 1605 1533
3024 2 1404 1432 1605 1575
3025 1 1407 415 589 529
3026 2 1407 415 589 553
3027 1 607 415 589 529
3028 2 607 415 589 553
3029 1 1424 415 589 529
3030 2 1424 415 589 553
3031 1 589 415 1407 1347
3032 2 589 415 1407 1371
3033 1 607 415 1407 1347
3034 2 607 415 1407 1371
3035 1 1424 415 1407 1347
3036 2 1424 415 1407 1371
3037 1 589 415 607 547
3038 2 589 415 607 559
3039 1 1407 415 607 547
3040 2 1407 415 607 559
3041 1 1424 415 607 547
3042 2 1424 415 607 559
3043 1 589 415 1424 1364
3044 2 589 415 1424 1379
3045 1 1407 415 1424 1364
3046 2 1407 415 1424 1379
3047 1 607 415 1424 1364
3048 2 607 415 1424 1379
3049 1 1391 411 569 497
3050 2 1391 411 569 521
3051 1 578 411 569 497
3052 2 578 411 569 521
3053 1 1396 411 569 497
3054 2 1396 411 569 521
3055 1 569 411 1391 1319
3056 2 569 411 1391 1379
3057 1 578 411 1391 1319
3058 2 578 411 1391 1379
3059 1 1396 411 1391 1319
3060 2 1396 411 1391 1379
3061 1 569 411 578 506
3062 2 569 411 578 526
3063 1 1391 411 578 506
3064 2 1391 411 578 526
3065 1 1396 411 578 506
3066 2 1396 411 578 526
3067 1 569 411 1396 1324
3068 2 569 411 1396 1344
3069 1 1391 411 1396 1324
3070 2 1391 411 1396 1344
3071 1 578 411 1396 1324
3072 2 578 411 1396 1344
3073 1 802 214 390 330
3074 2 802 214 390 354
3075 1 813 214 390 330
3076 2 813 214 390 354
3077 1 408 214 390 330
3078 2 408 214 390 354
3079 2 390 214 802 730
3080 1 390 214 802 742
3081 2 813 214 802 730
3082 1 813 214 802 742
3083 2 408 214 802 730
3084 1 408 214 802 742
3085 2 390 214 813 723
3086 1 390 214 813 753
3087 2 802 214 813 723
3088 1 802 214 813 753
3089 2 408 214 813 723
3090 1 408 214 813 753
3091 1 390 214 408 348
3092 2 390 214 408 352
3093 1 802 214 408 348
3094 2 802 214 408 352
3095 1 813 214 408 348
3096 2 813 214 408 352
3097 3 256 328 348 276
3098 4 256 328 348 408
3099 4 388 328 348 276
3100 5 388 328 348 408
3101 6 256 328 388 212
3102 7 256 328 388 352
3103 8 348 328 388 212
3104 9 348 328 388 352
3105 3 259 331 343 271
3106 4 259 331 343 403
3107 4 391 331 343 271
3108 5 391 331 343 403
3109 6 259 331 391 215
3110 7 259 331 391 355
3111 8 343 331 391 215
3112 9 343 331 391 355
3113 3 264 336 340 268
3114 4 264 336 340 400
3115 4 396 336 340 268
3116 5 396 336 340 400
3117 6 264 336 396 216
3118 7 264 336 396 360
3119 8 340 336 396 216
3120 9 340 336 396 360
3121 6 268 340 400 213
3122 7 268 340 400 360
3123 8 336 340 400 213
3124 9 336 340 400 360
3125 6 271 343 403 211
3126 7 271 343 403 355
3127 8 331 343 403 211
3128 9 331 343 403 355
3129 6 276 348 408 214
3130 7 276 348 408 352
3131 8 328 348 408 214
3132 9 328 348 408 352
3133 10 692 352 388 212
3134 11 692 352 388 328
3135 12 408 352 388 212
3136 13 408 352 388 328
3137 10 692 352 408 214
3138 11 692 352 408 348
3139 12 388 352 408 214
3140 13 388 352 408 348
3141 10 1094 355 391 215
3142 11 1094 355 391 331
3143 12 403 355 391 215
3144 13 403 355 391 331
3145 10 1094 355 403 211
3146 11 1094 355 403 343
3147 12 391 355 403 211
3148 13 391 355 403 343
3149 10 81 360 396 216
3150 11 81 360 396 336
3151 12 400 360 396 216
3152 13 400 360 396 336
3153 10 81 360 400 213
3154 11 81 360 400 340
3155 12 396 360 400 213
3156 13 396 360 400 340
3157 1 395 9 185 125
3158 2 395 9 185 149
3159 1 398 9 185 125
3160 2 398 9 185 149
3161 1 196 9 185 125
3162 2 196 9 185 149
3163 2 185 9 395 323
3164 1 185 9 395 335
3165 2 398 9 395 323
3166 1 398 9 395 335
3167 2 196 9 395 323
3168 1 196 9 395 335
3169 1 185 9 398 338
3170 2 185 9 398 358
3171 1 395 9 398 338
3172 2 395 9 398 358
3173 1 196 9 398 338
3174 2 196 9 398 358
3175 1 185 9 196 136
3176 2 185 9 196 156
3177 1 395 9 196 136
3178 2 395 9 196 156
3179 1 398 9 196 136
3180 2 398 9 196 156
3181 3 218 290 346 274
3182 4 218 290 346 406
3183 4 362 290 346 274
3184 5 362 290 346 406
3185 6 218 290 362 206
3186 7 218 290 362 350
3187 8 346 290 362 206
3188 9 346 290 362 350
3189 3 236 308 335 263
3190 4 236 308 335 395
3191 4 380 308 335 263
3192 5 380 308 335 395
3193 6 236 308 380 205
3194 7 236 308 380 323
3195 8 335 308 380 205
3196 9 335 308 380 323
3197 10 244 323 380 205
3198 11 244 323 380 308
3199 12 395 323 380 205
3200 13 395 323 380 308
3201 10 244 323 395 9
3202 11 244 323 395 335
3203 12 380 323 395 9
3204 13 380 323 395 335
3205 3 258 330 337 265
3206 4 258 330 337 397
3207 4 390 330 337 265
3208 5 390 330 337 397
3209 6 258 330 390 214
3210 7 258 330 390 354
3211 8 337 330 390 214
3212 9 337 330 390 354
3213 6 263 335 395 9
3214 7 263 335 395 323
3215 8 308 335 395 9
3216 9 308 335 395 323
3217 6 265 337 397 215
3218 7 265 337 397 354
3219 8 330 337 397 215
3220 9 330 337 397 354
3221 6 274 346 406 12
3222 7 274 346 406 350
3223 8 290 346 406 12
3224 9 290 346 406 350
3225 10 286 350 362 206
3226 11 286 350 362 290
3227 12 406 350 362 206
3228 13 406 350 362 290
3229 10 286 350 406 12
3230 11 286 350 406 346
3231 12 362 350 406 12
3232 13 362 350 406 346
3233 10 281 354 390 214
3234 11 281 354 390 330
3235 12 397 354 390 214
3236 13 397 354 390 330
3237 10 281 354 397 215
3238 11 281 354 397 337
3239 12 390 354 397 215
3240 13 390 354 397 337
3241 2 388 212 794 722
3242 1 388 212 794 734
3243 2 401 212 794 722
3244 1 401 212 794 734
3245 2 815 212 794 722
3246 1 815 212 794 734
3247 1 794 212 388 328
3248 2 794 212 388 352
3249 1 401 212 388 328
3250 2 401 212 388 352
3251 1 815 212 388 328
3252 2 815 212 388 352
3253 1 794 212 401 341
3254 2 794 212 401 353
3255 1 388 212 401 341
3256 2 388 212 401 353
3257 1 815 212 401 341
3258 2 815 212 401 353
3259 2 794 212 815 729
3260 1 794 212 815 755
3261 2 388 212 815 729
3262 1 388 212 815 755
3263 2 401 212 815 729
3264 1 401 212 815 755
3265 1 771 205 361 289
3266 2 771 205 361 313
3267 1 787 205 361 289
3268 2 787 205 361 313
3269 1 380 205 361 289
3270 2 380 205 361 313
3271 1 361 205 771 699
3272 2 361 205 771 723
3273 1 787 205 771 699
3274 2 787 205 771 723
3275 1 380 205 771 699
3276 2 380 205 771 723
3277 1 361 205 787 715
3278 2 361 205 787 727
3279 1 771 205 787 715
3280 2 771 205 787 727
3281 1 380 205 787 715
3282 2 380 205 787 727
3283 1 361 205 380 308
3284 2 361 205 380 323
3285 1 771 205 380 308
3286 2 771 205 380 323
3287 1 787 205 380 308
3288 2 787 205 380 323
3289 3 224 296 339 267
3290 4 224 296 339 399
3291 4 368 296 339 267
3292 5 368 296 339 399
3293 6 224 296 368 210
3294 7 224 296 368 320
3295 8 339 296 368 210
3296 9 339 296 368 320
3297 3 237 309 327 255
3298 4 237 309 327 387
3299 4 381 309 327 255
3300 5 381 309 327 387
3301 6 237 309 381 208
3302 7 237 309 381 351
3303 8 327 309 381 208
3304 9 327 309 381 351
3305 10 251 320 368 210
3306 11 251 320 368 296
3307 12 399 320 368 210
3308 13 399 320 368 296
3309 10 251 320 399 1031
3310 11 251 320 399 339
3311 12 368 320 399 1031
3312 13 368 320 399 339
3313 6 255 327 387 1027
3314 7 255 327 387 351
3315 8 309 327 387 1027
3316 9 309 327 387 351
3317 3 257 329 341 269
3318 4 257 329 341 401
3319 4 389 329 341 269
3320 5 389 329 341 401
3321 6 257 329 389 213
3322 7 257 329 389 353
3323 8 341 329 389 213
3324 9 341 329 389 353
3325 6 267 339 399 1031
3326 7 267 339 399 320
3327 8 296 339 399 1031
3328 9 296 339 399 320
3329 6 269 341 401 212
3330 7 269 341 401 353
3331 8 329 341 401 212
3332 9 329 341 401 353
3333 10 288 351 381 208
3334 11 288 351 381 309
3335 12 387 351 381 208
3336 13 387 351 381 309
3337 10 288 351 387 1027
3338 11 288 351 387 327
3339 12 381 351 387 1027
3340 13 381 351 387 327
3341 10 277 353 389 213
3342 11 277 353 389 329
3343 12 401 353 389 213
3344 13 401 353 389 329
3345 10 277 353 401 212
3346 11 277 353 401 341
3347 12 389 353 401 212
3348 13 389 353 401 341
3349 1 327 387 1027 1201
3350 1 327 387 1027 1219
3351 1 327 387 1027 404
3352 2 351 387 1027 1201
3353 2 351 387 1027 1219
3354 2 351 387 1027 404
3355 2 320 399 1031 1207
3356 2 320 399 1031 393
3357 2 320 399 1031 1213
3358 1 339 399 1031 1207
3359 1 339 399 1031 393
3360 1 339 399 1031 1213
3361 1 333 393 1031 1207
3362 1 333 393 1031 1213
3363 1 333 393 1031 399
3364 2 357 393 1031 1207
3365 2 357 393 1031 1213
3366 2 357 393 1031 399
3367 1 780 210 368 296
3368 2 780 210 368 320
3369 1 378 210 368 296
3370 2 378 210 368 320
3371 1 790 210 368 296
3372 2 790 210 368 320
3373 1 368 210 780 708
3374 2 368 210 780 732
3375 1 378 210 780 708
3376 2 378 210 780 732
3377 1 790 210 780 708
3378 2 790 210 780 732
3379 1 368 210 378 306
3380 2 368 210 378 313
3381 1 780 210 378 306
3382 2 780 210 378 313
3383 1 790 210 378 306
3384 2 790 210 378 313
3385 1 368 210 790 718
3386 2 368 210 790 722
3387 1 780 210 790 718
3388 2 780 210 790 722
3389 1 378 210 790 718
3390 2 378 210 790 722
3391 3 217 289 306 234
3392 4 217 289 306 378
3393 4 361 289 306 234
3394 5 361 289 306 378
3395 6 217 289 361 205
3396 7 217 289 361 313
3397 8 306 289 361 205
3398 9 306 289 361 313
3399 3 226 298 338 266
3400 4 226 298 338 398
3401 4 370 298 338 266
3402 5 370 298 338 398
3403 6 226 298 370 4
3404 7 226 298 370 358
3405 8 338 298 370 4
3406 9 338 298 370 358
3407 6 234 306 378 210
3408 7 234 306 378 313
3409 8 289 306 378 210
3410 9 289 306 378 313
3411 3 239 311 333 261
3412 4 239 311 333 393
3413 4 383 311 333 261
3414 5 383 311 333 393
3415 6 239 311 383 1022
3416 7 239 311 383 357
3417 8 333 311 383 1022
3418 9 333 311 383 357
3419 10 654 313 361 205
3420 11 654 313 361 289
3421 12 378 313 361 205
3422 13 378 313 361 289
3423 10 654 313 378 210
3424 11 654 313 378 306
3425 12 361 313 378 210
3426 13 361 313 378 306
3427 6 261 333 393 1031
3428 7 261 333 393 357
3429 8 311 333 393 1031
3430 9 311 333 393 357
3431 6 266 338 398 9
3432 7 266 338 398 358
3433 8 298 338 398 9
3434 9 298 338 398 358
3435 10 1095 357 383 1022
3436 11 1095 357 383 311
3437 12 393 357 383 1022
3438 13 393 357 383 311
3439 10 1095 357 393 1031
3440 11 1095 357 393 333
3441 12 383 357 393 1031
3442 13 383 357 393 333
3443 10 79 358 370 4
3444 11 79 358 370 298
3445 12 398 358 370 4
3446 13 398 358 370 298
3447 10 79 358 398 9
3448 11 79 358 398 338
3449 12 370 358 398 9
3450 13 370 358 398 338
3451 1 311 383 1022 1178
3452 1 311 383 1022 364
3453 1 311 383 1022 1193
3454 2 357 383 1022 1178
3455 2 357 383 1022 364
3456 2 357 383 1022 1193
3457 1 393 1031 1207 1147
3458 2 393 1031 1207 1171
3459 1 1213 1031 1207 1147
3460 2 1213 1031 1207 1171
3461 1 399 1031 1207 1147
3462 2 399 1031 1207 1171
3463 1 1207 1031 1213 1153
3464 2 1207 1031 1213 1170
3465 1 393 1031 1213 1153
3466 2 393 1031 1213 1170
3467 1 399 1031 1213 1153
3468 2 399 1031 1213 1170
3469 1 1618 1030 1206 1146
3470 2 1618 1030 1206 1170
3471 1 1629 1030 1206 1146
3472 2 1629 1030 1206 1170
3473 1 1224 1030 1206 1146
3474 2 1224 1030 1206 1170
3475 2 1206 1030 1618 1546
3476 1 1206 1030 1618 1558
3477 2 1629 1030 1618 1546
3478 1 1629 1030 1618 1558
3479 2 1224 1030 1618 1546
3480 1 1224 1030 1618 1558
3481 2 1206 1030 1629 1539
3482 1 1206 1030 1629 1569
3483 2 1618 1030 1629 1539
3484 1 1618 1030 1629 1569
3485 2 1224 1030 1629 1539
3486 1 1224 1030 1629 1569
3487 1 1206 1030 1224 1164
3488 2 1206 1030 1224 1168
3489 1 1618 1030 1224 1164
3490 2 1618 1030 1224 1168
3491 1 1629 1030 1224 1164
3492 2 1629 1030 1224 1168
3493 3 1072 1144 1164 1092
3494 4 1072 1144 1164 1224
3495 4 1204 1144 1164 1092
3496 5 1204 1144 1164 1224
3497 6 1072 1144 1204 1028
3498 7 1072 1144 1204 1168
3499 8 1164 1144 1204 1028
3500 9 1164 1144 1204 1168
3501 3 1075 1147 1159 1087
3502 4 1075 1147 1159 1219
3503 4 1207 1147 1159 1087
3504 5 1207 1147 1159 1219
3505 6 1075 1147 1207 1031
3506 7 1075 1147 1207 1171
3507 8 1159 1147 1207 1031
3508 9 1159 1147 1207 1171
3509 3 1080 1152 1156 1084
3510 4 1080 1152 1156 1216
3511 4 1212 1152 1156 1084
3512 5 1212 1152 1156 1216
3513 6 1080 1152 1212 1032
3514 7 1080 1152 1212 1176
3515 8 1156 1152 1212 1032
3516 9 1156 1152 1212 1176
3517 6 1084 1156 1216 1029
3518 7 1084 1156 1216 1176
3519 8 1152 1156 1216 1029
3520 9 1152 1156 1216 1176
3521 6 1087 1159 1219 1027
3522 7 1087 1159 1219 1171
3523 8 1147 1159 1219 1027
3524 9 1147 1159 1219 1171
3525 6 1092 1164 1224 1030
3526 7 1092 1164 1224 1168
3527 8 1144 1164 1224 1030
3528 9 1144 1164 1224 1168
3529 10 1508 1168 1204 1028
3530 11 1508 1168 1204 1144
3531 12 1224 1168 1204 1028
3532 13 1224 1168 1204 1144
3533 10 1508 1168 1224 1030
3534 11 1508 1168 1224 1164
3535 12 1204 1168 1224 1030
3536 13 1204 1168 1224 1164
3537 10 278 1171 1207 1031
3538 11 278 1171 1207 1147
3539 12 1219 1171 1207 1031
3540 13 1219 1171 1207 1147
3541 10 278 1171 1219 1027
3542 11 278 1171 1219 1159
3543 12 1207 1171 1219 1027
3544 13 1207 1171 1219 1159
3545 10 897 1176 1212 1032
3546 11 897 1176 1212 1152
3547 12 1216 1176 1212 1032
3548 13 1216 1176 1212 1152
3549 10 897 1176 1216 1029
3550 11 897 1176 1216 1156
3551 12 1212 1176 1216 1029
3552 13 1212 1176 1216 1156
3553 1 1211 825 1001 941
3554 2 1211 825 1001 965
3555 1 1214 825 1001 941
3556 2 1214 825 1001 965
3557 1 1012 825 1001 941
3558 2 1012 825 1001 965
3559 2 1001 825 1211 1139
3560 1 1001 825 1211 1151
3561 2 1214 825 1211 1139
3562 1 1214 825 1211 1151
3563 2 1012 825 1211 1139
3564 1 1012 825 1211 1151
3565 1 1001 825 1214 1154
3566 2 1001 825 1214 1174
3567 1 1211 825 1214 1154
3568 2 1211 825 1214 1174
3569 1 1012 825 1214 1154
3570 2 1012 825 1214 1174
3571 1 1001 825 1012 952
3572 2 1001 825 1012 972
3573 1 1211 825 1012 952
3574 2 1211 825 1012 972
3575 1 1214 825 1012 952
3576 2 1214 825 1012 972
3577 3 1034 1106 1162 1090
3578 4 1034 1106 1162 1222
3579 4 1178 1106 1162 1090
3580 5 1178 1106 1162 1222
3581 6 1034 1106 1178 1022
3582 7 1034 1106 1178 1166
3583 8 1162 1106 1178 1022
3584 9 1162 1106 1178 1166
3585 3 1052 1124 1151 1079
3586 4 1052 1124 1151 1211
3587 4 1196 1124 1151 1079
3588 5 1196 1124 1151 1211
3589 6 1052 1124 1196 1021
3590 7 1052 1124 1196 1139
3591 8 1151 1124 1196 1021
3592 9 1151 1124 1196 1139
3593 10 1060 1139 1196 1021
3594 11 1060 1139 1196 1124
3595 12 1211 1139 1196 1021
3596 13 1211 1139 1196 1124
3597 10 1060 1139 1211 825
3598 11 1060 1139 1211 1151
3599 12 1196 1139 1211 825
3600 13 1196 1139 1211 1151
3601 3 1074 1146 1153 1081
3602 4 1074 1146 1153 1213
3603 4 1206 1146 1153 1081
3604 5 1206 1146 1153 1213
3605 6 1074 1146 1206 1030
3606 7 1074 1146 1206 1170
3607 8 1153 1146 1206 1030
3608 9 1153 1146 1206 1170
3609 6 1079 1151 1211 825
3610 7 1079 1151 1211 1139
3611 8 1124 1151 1211 825
3612 9 1124 1151 1211 1139
3613 6 1081 1153 1213 1031
3614 7 1081 1153 1213 1170
3615 8 1146 1153 1213 1031
3616 9 1146 1153 1213 1170
3617 6 1090 1162 1222 828
3618 7 1090 1162 1222 1166
3619 8 1106 1162 1222 828
3620 9 1106 1162 1222 1166
3621 10 1102 1166 1178 1022
3622 11 1102 1166 1178 1106
3623 12 1222 1166 1178 1022
3624 13 1222 1166 1178 1106
3625 10 1102 1166 1222 828
3626 11 1102 1166 1222 1162
3627 12 1178 1166 1222 828
3628 13 1178 1166 1222 1162
3629 10 1097 1170 1206 1030
3630 11 1097 1170 1206 1146
3631 12 1213 1170 1206 1030
3632 13 1213 1170 1206 1146
3633 10 1097 1170 1213 1031
3634 11 1097 1170 1213 1153
3635 12 1206 1170 1213 1031
3636 13 1206 1170 1213 1153
3637 2 1204 1028 1610 1538
3638 1 1204 1028 1610 1550
3639 2 1217 1028 1610 1538
3640 1 1217 1028 1610 1550
3641 2 1631 1028 1610 1538
3642 1 1631 1028 1610 1550
3643 1 1610 1028 1204 1144
3644 2 1610 1028 1204 1168
3645 1 1217 1028 1204 1144
3646 2 1217 1028 1204 1168
3647 1 1631 1028 1204 1144
3648 2 1631 1028 1204 1168
3649 1 1610 1028 1217 1157
3650 2 1610 1028 1217 1169
3651 1 1204 1028 1217 1157
3652 2 1204 1028 1217 1169
3653 1 1631 1028 1217 1157
3654 2 1631 1028 1217 1169
3655 2 1610 1028 1631 1545
3656 1 1610 1028 1631 1571
3657 2 1204 1028 1631 1545
3658 1 1204 1028 1631 1571
3659 2 1217 1028 1631 1545
3660 1 1217 1028 1631 1571
3661 1 1587 1021 1177 1105
3662 2 1587 1021 1177 1129
3663 1 1603 1021 1177 1105
3664 2 1603 1021 1177 1129
3665 1 1196 1021 1177 1105
3666 2 1196 1021 1177 1129
3667 1 1177 1021 1587 1515
3668 2 1177 1021 1587 1539
3669 1 1603 1021 1587 1515
3670 2 1603 1021 1587 1539
3671 1 1196 1021 1587 1515
3672 2 1196 1021 1587 1539
3673 1 1177 1021 1603 1531
3674 2 1177 1021 1603 1543
3675 1 1587 1021 1603 1531
3676 2 1587 1021 1603 1543
3677 1 1196 1021 1603 1531
3678 2 1196 1021 1603 1543
3679 1 1177 1021 1196 1124
3680 2 1177 1021 1196 1139
3681 1 1587 1021 1196 1124
3682 2 1587 1021 1196 1139
3683 1 1603 1021 1196 1124
3684 2 1603 1021 1196 1139
3685 3 1040 1112 1155 1083
3686 4 1040 1112 1155 1215
3687 4 1184 1112 1155 1083
3688 5 1184 1112 1155 1215
3689 6 1040 1112 1184 1026
3690 7 1040 1112 1184 1136
3691 8 1155 1112 1184 1026
3692 9 1155 1112 1184 1136
3693 3 1053 1125 1143 1071
3694 4 1053 1125 1143 1203
3695 4 1197 1125 1143 1071
3696 5 1197 1125 1143 1203
3697 6 1053 1125 1197 1024
3698 7 1053 1125 1197 1167
3699 8 1143 1125 1197 1024
3700 9 1143 1125 1197 1167
3701 10 1067 1136 1184 1026
3702 11 1067 1136 1184 1112
3703 12 1215 1136 1184 1026
3704 13 1215 1136 1184 1112
3705 10 1067 1136 1215 215
3706 11 1067 1136 1215 1155
3707 12 1184 1136 1215 215
3708 13 1184 1136 1215 1155
3709 6 1071 1143 1203 211
3710 7 1071 1143 1203 1167
3711 8 1125 1143 1203 211
3712 9 1125 1143 1203 1167
3713 3 1073 1145 1157 1085
3714 4 1073 1145 1157 1217
3715 4 1205 1145 1157 1085
3716 5 1205 1145 1157 1217
3717 6 1073 1145 1205 1029
3718 7 1073 1145 1205 1169
3719 8 1157 1145 1205 1029
3720 9 1157 1145 1205 1169
3721 6 1083 1155 1215 215
3722 7 1083 1155 1215 1136
3723 8 1112 1155 1215 215
3724 9 1112 1155 1215 1136
3725 6 1085 1157 1217 1028
3726 7 1085 1157 1217 1169
3727 8 1145 1157 1217 1028
3728 9 1145 1157 1217 1169
3729 10 1104 1167 1197 1024
3730 11 1104 1167 1197 1125
3731 12 1203 1167 1197 1024
3732 13 1203 1167 1197 1125
3733 10 1104 1167 1203 211
3734 11 1104 1167 1203 1143
3735 12 1197 1167 1203 211
3736 13 1197 1167 1203 1143
3737 10 1093 1169 1205 1029
3738 11 1093 1169 1205 1145
3739 12 1217 1169 1205 1029
3740 13 1217 1169 1205 1145
3741 10 1093 1169 1217 1028
3742 11 1093 1169 1217 1157
3743 12 1205 1169 1217 1028
3744 13 1205 1169 1217 1157
3745 1 1596 1026 1184 1112
3746 2 1596 1026 1184 1136
3747 1 1194 1026 1184 1112
3748 2 1194 1026 1184 1136
3749 1 1606 1026 1184 1112
3750 2 1606 1026 1184 1136
3751 1 1184 1026 1596 1524
3752 2 1184 1026 1596 1548
3753 1 1194 1026 1596 1524
3754 2 1194 1026 1596 1548
3755 1 1606 1026 1596 1524
3756 2 1606 1026 1596 1548
3757 1 1184 1026 1194 1122
3758 2 1184 1026 1194 1129
3759 1 1596 1026 1194 1122
3760 2 1596 1026 1194 1129
3761 1 1606 1026 1194 1122
3762 2 1606 1026 1194 1129
3763 1 1184 1026 1606 1534
3764 2 1184 1026 1606 1538
3765 1 1596 1026 1606 1534
3766 2 1596 1026 1606 1538
3767 1 1194 1026 1606 1534
3768 2 1194 1026 1606 1538
3769 3 1033 1105 1122 1050
3770 4 1033 1105 1122 1194
3771 4 1177 1105 1122 1050
3772 5 1177 1105 1122 1194
3773 6 1033 1105 1177 1021
3774 7 1033 1105 1177 1129
3775 8 1122 1105 1177 1021
3776 9 1122 1105 1177 1129
3777 3 1042 1114 1154 1082
3778 4 1042 1114 1154 1214
3779 4 1186 1114 1154 1082
3780 5 1186 1114 1154 1214
3781 6 1042 1114 1186 820
3782 7 1042 1114 1186 1174
3783 8 1154 1114 1186 820
3784 9 1154 1114 1186 1174
3785 6 1050 1122 1194 1026
3786 7 1050 1122 1194 1129
3787 8 1105 1122 1194 1026
3788 9 1105 1122 1194 1129
3789 3 1055 1127 1149 1077
3790 4 1055 1127 1149 1209
3791 4 1199 1127 1149 1077
3792 5 1199 1127 1149 1209
3793 6 1055 1127 1199 206
3794 7 1055 1127 1199 1173
3795 8 1149 1127 1199 206
3796 9 1149 1127 1199 1173
3797 10 1470 1129 1177 1021
3798 11 1470 1129 1177 1105
3799 12 1194 1129 1177 1021
3800 13 1194 1129 1177 1105
3801 10 1470 1129 1194 1026
3802 11 1470 1129 1194 1122
3803 12 1177 1129 1194 1026
3804 13 1177 1129 1194 1122
3805 6 1077 1149 1209 215
3806 7 1077 1149 1209 1173
3807 8 1127 1149 1209 215
3808 9 1127 1149 1209 1173
3809 6 1082 1154 1214 825
3810 7 1082 1154 1214 1174
3811 8 1114 1154 1214 825
3812 9 1114 1154 1214 1174
3813 10 279 1173 1199 206
3814 11 279 1173 1199 1127
3815 12 1209 1173 1199 206
3816 13 1209 1173 1199 1127
3817 10 279 1173 1209 215
3818 11 279 1173 1209 1149
3819 12 1199 1173 1209 215
3820 13 1199 1173 1209 1149
3821 10 895 1174 1186 820
3822 11 895 1174 1186 1114
3823 12 1214 1174 1186 820
3824 13 1214 1174 1186 1114
3825 10 895 1174 1214 825
3826 11 895 1174 1214 1154
3827 12 1186 1174 1214 825
3828 13 1186 1174 1214 1154
3829 1 1209 215 391 331
3830 2 1209 215 391 355
3831 1 397 215 391 331
3832 2 397 215 391 355
3833 1 1215 215 391 331
3834 2 1215 215 391 355
3835 1 391 215 1209 1149
3836 2 391 215 1209 1173
3837 1 397 215 1209 1149
3838 2 397 215 1209 1173
3839 1 1215 215 1209 1149
3840 2 1215 215 1209 1173
3841 1 391 215 397 337
3842 2 391 215 397 354
3843 1 1209 215 397 337
3844 2 1209 215 397 354
3845 1 1215 215 397 337
3846 2 1215 215 397 354
3847 2 391 215 1215 1136
3848 1 391 215 1215 1155
3849 2 1209 215 1215 1136
3850 1 1209 215 1215 1155
3851 2 397 215 1215 1136
3852 1 397 215 1215 1155
3853 1 192 12 392 332
3854 2 192 12 392 356
3855 1 198 12 392 332
3856 2 198 12 392 356
3857 1 406 12 392 332
3858 2 406 12 392 356
3859 1 392 12 192 132
3860 2 392 12 192 156
3861 1 198 12 192 132
3862 2 198 12 192 156
3863 1 406 12 192 132
3864 2 406 12 192 156
3865 1 392 12 198 138
3866 2 392 12 198 145
3867 1 192 12 198 138
3868 2 192 12 198 145
3869 1 406 12 198 138
3870 2 406 12 198 145
3871 1 392 12 406 346
3872 2 392 12 406 350
3873 1 192 12 406 346
3874 2 192 12 406 350
3875 1 198 12 406 346
3876 2 198 12 406 350
3877 3 225 297 347 275
3878 4 225 297 347 407
3879 4 369 297 347 275
3880 5 369 297 347 407
3881 6 225 297 369 209
3882 7 225 297 369 321
3883 8 347 297 369 209
3884 9 347 297 369 321
3885 3 230 302 334 262
3886 4 230 302 334 394
3887 4 374 302 334 262
3888 5 374 302 334 394
3889 6 230 302 374 207
3890 7 230 302 374 322
3891 8 334 302 374 207
3892 9 334 302 374 322
3893 10 243 321 369 209
3894 11 243 321 369 297
3895 12 407 321 369 209
3896 13 407 321 369 297
3897 10 243 321 407 620
3898 11 243 321 407 347
3899 12 369 321 407 620
3900 13 369 321 407 347
3901 10 247 322 374 207
3902 11 247 322 374 302
3903 12 394 322 374 207
3904 13 394 322 374 302
3905 10 247 322 394 622
3906 11 247 322 394 334
3907 12 374 322 394 622
3908 13 374 322 394 334
3909 3 253 325 342 270
3910 4 253 325 342 402
3911 4 385 325 342 270
3912 5 385 325 342 402
3913 6 253 325 385 211
3914 7 253 325 385 349
3915 8 342 325 385 211
3916 9 342 325 385 349
3917 6 262 334 394 622
3918 7 262 334 394 322
3919 8 302 334 394 622
3920 9 302 334 394 322
3921 6 270 342 402 216
3922 7 270 342 402 349
3923 8 325 342 402 216
3924 9 325 342 402 349
3925 6 275 347 407 620
3926 7 275 347 407 321
3927 8 297 347 407 620
3928 9 297 347 407 321
3929 10 282 349 385 211
3930 11 282 349 385 325
3931 12 402 349 385 211
3932 13 402 349 385 325
3933 10 282 349 402 216
3934 11 282 349 402 342
3935 12 385 349 402 216
3936 13 385 349 402 342
3937 2 322 394 622 798
3938 2 322 394 622 405
3939 2 322 394 622 816
3940 1 334 394 622 798
3941 1 334 394 622 405
3942 1 334 394 622 816
3943 2 321 407 620 386
3944 2 321 407 620 796
3945 2 321 407 620 809
3946 1 347 407 620 386
3947 1 347 407 620 796
3948 1 347 407 620 809
3949 2 315 405 622 798
3950 2 315 405 622 394
3951 2 315 405 622 816
3952 1 345 405 622 798
3953 1 345 405 622 394
3954 1 345 405 622 816
3955 3 219 291 345 273
3956 4 219 291 345 405
3957 4 363 291 345 273
3958 5 363 291 345 405
3959 6 219 291 363 613
3960 7 219 291 363 315
3961 8 345 291 363 613
3962 9 345 291 363 315
3963 3 221 293 305 233
3964 4 221 293 305 377
3965 4 365 293 305 233
3966 5 365 293 305 377
3967 6 221 293 365 207
3968 7 221 293 365 317
3969 8 305 293 365 207
3970 9 305 293 365 317
3971 3 231 303 332 260
3972 4 231 303 332 392
3973 4 375 303 332 260
3974 5 375 303 332 392
3975 6 231 303 375 5
3976 7 231 303 375 356
3977 8 332 303 375 5
3978 9 332 303 375 356
3979 6 233 305 377 206
3980 7 233 305 377 317
3981 8 293 305 377 206
3982 9 293 305 377 317
3983 10 660 315 363 613
3984 11 660 315 363 291
3985 12 405 315 363 613
3986 13 405 315 363 291
3987 10 660 315 405 622
3988 11 660 315 405 345
3989 12 363 315 405 622
3990 13 363 315 405 345
3991 10 1057 317 365 207
3992 11 1057 317 365 293
3993 12 377 317 365 207
3994 13 377 317 365 293
3995 10 1057 317 377 206
3996 11 1057 317 377 305
3997 12 365 317 377 206
3998 13 365 317 377 305
3999 6 260 332 392 12
4000 7 260 332 392 356
4001 8 303 332 392 12
4002 9 303 332 392 356
4003 6 273 345 405 622
4004 7 273 345 405 315
4005 8 291 345 405 622
4006 9 291 345 405 315
4007 10 83 356 375 5
4008 11 83 356 375 303
4009 12 392 356 375 5
4010 13 392 356 375 303
4011 10 83 356 392 12
4012 11 83 356 392 332
4013 12 375 356 392 12
4014 13 375 356 392 332
4015 1 291 363 613 769
4016 1 291 363 613 379
4017 1 291 363 613 788
4018 2 315 363 613 769
4019 2 315 363 613 379
4020 2 315 363 613 788
4021 1 165 5 367 295
4022 2 165 5 367 319
4023 1 169 5 367 295
4024 2 169 5 367 319
4025 1 375 5 367 295
4026 2 375 5 367 319
4027 1 367 5 165 93
4028 2 367 5 165 117
4029 1 169 5 165 93
4030 2 169 5 165 117
4031 1 375 5 165 93
4032 2 375 5 165 117
4033 1 367 5 169 97
4034 2 367 5 169 114
4035 1 165 5 169 97
4036 2 165 5 169 114
4037 1 375 5 169 97
4038 2 375 5 169 114
4039 1 367 5 375 303
4040 2 367 5 375 356
4041 1 165 5 375 303
4042 2 165 5 375 356
4043 1 169 5 375 303
4044 2 169 5 375 356
4045 1 364 1022 1178 1106
4046 2 364 1022 1178 1166
4047 1 1193 1022 1178 1106
4048 2 1193 1022 1178 1166
4049 1 383 1022 1178 1106
4050 2 383 1022 1178 1166
4051 1 1178 1022 1193 1121
4052 2 1178 1022 1193 1133
4053 1 364 1022 1193 1121
4054 2 364 1022 1193 1133
4055 1 383 1022 1193 1121
4056 2 383 1022 1193 1133
4057 3 222 294 301 229
4058 4 222 294 301 373
4059 4 366 294 301 229
4060 5 366 294 301 373
4061 6 222 294 366 208
4062 7 222 294 366 318
4063 8 301 294 366 208
4064 9 301 294 366 318
4065 3 227 299 344 272
4066 4 227 299 344 404
4067 4 371 299 344 272
4068 5 371 299 344 404
4069 6 227 299 371 1023
4070 7 227 299 371 359
4071 8 344 299 371 1023
4072 9 344 299 371 359
4073 6 229 301 373 209
4074 7 229 301 373 318
4075 8 294 301 373 209
4076 9 294 301 373 318
4077 3 238 310 326 254
4078 4 238 310 326 386
4079 4 382 310 326 254
4080 5 382 310 326 386
4081 6 238 310 382 618
4082 7 238 310 382 314
4083 8 326 310 382 618
4084 9 326 310 382 314
4085 10 658 314 382 618
4086 11 658 314 382 310
4087 12 386 314 382 618
4088 13 386 314 382 310
4089 10 658 314 386 620
4090 11 658 314 386 326
4091 12 382 314 386 620
4092 13 382 314 386 326
4093 10 41 318 366 208
4094 11 41 318 366 294
4095 12 373 318 366 208
4096 13 373 318 366 294
4097 10 41 318 373 209
4098 11 41 318 373 301
4099 12 366 318 373 209
4100 13 366 318 373 301
4101 6 254 326 386 620
4102 7 254 326 386 314
4103 8 310 326 386 620
4104 9 310 326 386 314
4105 6 272 344 404 1027
4106 7 272 344 404 359
4107 8 299 344 404 1027
4108 9 299 344 404 359
4109 10 1096 359 371 1023
4110 11 1096 359 371 299
4111 12 404 359 371 1023
4112 13 404 359 371 299
4113 10 1096 359 404 1027
4114 11 1096 359 404 344
4115 12 371 359 404 1027
4116 13 371 359 404 344
4117 1 299 371 1023 1181
4118 1 299 371 1023 1190
4119 1 299 371 1023 376
4120 2 359 371 1023 1181
4121 2 359 371 1023 1190
4122 2 359 371 1023 376
4123 1 310 382 618 776
4124 1 310 382 618 372
4125 1 310 382 618 786
4126 2 314 382 618 776
4127 2 314 382 618 372
4128 2 314 382 618 786
4129 2 314 386 620 796
4130 2 314 386 620 809
4131 2 314 386 620 407
4132 1 326 386 620 796
4133 1 326 386 620 809
4134 1 326 386 620 407
4135 1 344 404 1027 1201
4136 1 344 404 1027 387
4137 1 344 404 1027 1219
4138 2 359 404 1027 1201
4139 2 359 404 1027 387
4140 2 359 404 1027 1219
4141 3 220 292 312 240
4142 4 220 292 312 384
4143 4 364 292 312 240
4144 5 364 292 312 384
4145 6 220 292 364 1022
4146 7 220 292 364 316
4147 8 312 292 364 1022
4148 9 312 292 364 316
4149 3 223 295 307 235
4150 4 223 295 307 379
4151 4 367 295 307 235
4152 5 367 295 307 379
4153 6 223 295 367 5
4154 7 223 295 367 319
4155 8 307 295 367 5
4156 9 307 295 367 319
4157 3 228 300 304 232
4158 4 228 300 304 376
4159 4 372 300 304 232
4160 5 372 300 304 376
4161 6 228 300 372 618
4162 7 228 300 372 324
4163 8 304 300 372 618
4164 9 304 300 372 324
4165 6 232 304 376 1023
4166 7 232 304 376 324
4167 8 300 304 376 1023
4168 9 300 304 376 324
4169 6 235 307 379 613
4170 7 235 307 379 319
4171 8 295 307 379 613
4172 9 295 307 379 319
4173 6 240 312 384 4
4174 7 240 312 384 316
4175 8 292 312 384 4
4176 9 292 312 384 316
4177 10 248 316 364 1022
4178 11 248 316 364 292
4179 12 384 316 364 1022
4180 13 384 316 364 292
4181 10 248 316 384 4
4182 11 248 316 384 312
4183 12 364 316 384 4
4184 13 364 316 384 312
4185 10 242 319 367 5
4186 11 242 319 367 295
4187 12 379 319 367 5
4188 13 379 319 367 295
4189 10 242 319 379 613
4190 11 242 319 379 307
4191 12 367 319 379 613
4192 13 367 319 379 307
4193 10 249 324 372 618
4194 11 249 324 372 300
4195 12 376 324 372 618
4196 13 376 324 372 300
4197 10 249 324 376 1023
4198 11 249 324 376 304
4199 12 372 324 376 1023
4200 13 372 324 376 304
4201 1 292 364 1022 1178
4202 1 292 364 1022 1193
4203 1 292 364 1022 383
4204 2 316 364 1022 1178
4205 2 316 364 1022 1193
4206 2 316 364 1022 383
4207 1 300 372 618 776
4208 1 300 372 618 786
4209 1 300 372 618 382
4210 2 324 372 618 776
4211 2 324 372 618 786
4212 2 324 372 618 382
4213 1 304 376 1023 1181
4214 1 304 376 1023 371
4215 1 304 376 1023 1190
4216 2 324 376 1023 1181
4217 2 324 376 1023 371
4218 2 324 376 1023 1190
4219 1 307 379 613 769
4220 1 307 379 613 363
4221 1 307 379 613 788
4222 2 319 379 613 769
4223 2 319 379 613 363
4224 2 319 379 613 788
4225 1 370 4 162 90
4226 2 370 4 162 114
4227 1 177 4 162 90
4228 2 177 4 162 114
4229 1 384 4 162 90
4230 2 384 4 162 114
4231 1 162 4 370 298
4232 2 162 4 370 358
4233 1 177 4 370 298
4234 2 177 4 370 358
4235 1 384 4 370 298
4236 2 384 4 370 358
4237 1 162 4 177 105
4238 2 162 4 177 147
4239 1 370 4 177 105
4240 2 370 4 177 147
4241 1 384 4 177 105
4242 2 384 4 177 147
4243 1 162 4 384 312
4244 2 162 4 384 316
4245 1 370 4 384 312
4246 2 370 4 384 316
4247 1 177 4 384 312
4248 2 177 4 384 316
4249 1 387 1027 1201 1141
4250 2 387 1027 1201 1165
4251 1 1219 1027 1201 1141
4252 2 1219 1027 1201 1165
4253 1 404 1027 1201 1141
4254 2 404 1027 1201 1165
4255 1 1201 1027 1219 1159
4256 2 1201 1027 1219 1171
4257 1 387 1027 1219 1159
4258 2 387 1027 1219 1171
4259 1 404 1027 1219 1159
4260 2 404 1027 1219 1171
4261 1 371 1023 1181 1109
4262 2 371 1023 1181 1133
4263 1 1190 1023 1181 1109
4264 2 1190 1023 1181 1133
4265 1 376 1023 1181 1109
4266 2 376 1023 1181 1133
4267 1 1181 1023 1190 1118
4268 2 1181 1023 1190 1138
4269 1 371 1023 1190 1118
4270 2 371 1023 1190 1138
4271 1 376 1023 1190 1118
4272 2 376 1023 1190 1138
4273 1 1008 828 1208 1148
4274 2 1008 828 1208 1172
4275 1 1014 828 1208 1148
4276 2 1014 828 1208 1172
4277 1 1222 828 1208 1148
4278 2 1222 828 1208 1172
4279 1 1208 828 1008 948
4280 2 1208 828 1008 972
4281 1 1014 828 1008 948
4282 2 1014 828 1008 972
4283 1 1222 828 1008 948
4284 2 1222 828 1008 972
4285 1 1208 828 1014 954
4286 2 1208 828 1014 961
4287 1 1008 828 1014 954
4288 2 1008 828 1014 961
4289 1 1222 828 1014 954
4290 2 1222 828 1014 961
4291 1 1208 828 1222 1162
4292 2 1208 828 1222 1166
4293 1 1008 828 1222 1162
4294 2 1008 828 1222 1166
4295 1 1014 828 1222 1162
4296 2 1014 828 1222 1166
4297 3 1041 1113 1163 1091
4298 4 1041 1113 1163 1223
4299 4 1185 1113 1163 1091
4300 5 1185 1113 1163 1223
4301 6 1041 1113 1185 1025
4302 7 1041 1113 1185 1137
4303 8 1163 1113 1185 1025
4304 9 1163 1113 1185 1137
4305 3 1046 1118 1150 1078
4306 4 1046 1118 1150 1210
4307 4 1190 1118 1150 1078
4308 5 1190 1118 1150 1210
4309 6 1046 1118 1190 1023
4310 7 1046 1118 1190 1138
4311 8 1150 1118 1190 1023
4312 9 1150 1118 1190 1138
4313 10 1059 1137 1185 1025
4314 11 1059 1137 1185 1113
4315 12 1223 1137 1185 1025
4316 13 1223 1137 1185 1113
4317 10 1059 1137 1223 1436
4318 11 1059 1137 1223 1163
4319 12 1185 1137 1223 1436
4320 13 1185 1137 1223 1163
4321 10 1063 1138 1190 1023
4322 11 1063 1138 1190 1118
4323 12 1210 1138 1190 1023
4324 13 1210 1138 1190 1118
4325 10 1063 1138 1210 1438
4326 11 1063 1138 1210 1150
4327 12 1190 1138 1210 1438
4328 13 1190 1138 1210 1150
4329 3 1069 1141 1158 1086
4330 4 1069 1141 1158 1218
4331 4 1201 1141 1158 1086
4332 5 1201 1141 1158 1218
4333 6 1069 1141 1201 1027
4334 7 1069 1141 1201 1165
4335 8 1158 1141 1201 1027
4336 9 1158 1141 1201 1165
4337 6 1078 1150 1210 1438
4338 7 1078 1150 1210 1138
4339 8 1118 1150 1210 1438
4340 9 1118 1150 1210 1138
4341 6 1086 1158 1218 1032
4342 7 1086 1158 1218 1165
4343 8 1141 1158 1218 1032
4344 9 1141 1158 1218 1165
4345 6 1091 1163 1223 1436
4346 7 1091 1163 1223 1137
4347 8 1113 1163 1223 1436
4348 9 1113 1163 1223 1137
4349 10 1098 1165 1201 1027
4350 11 1098 1165 1201 1141
4351 12 1218 1165 1201 1027
4352 13 1218 1165 1201 1141
4353 10 1098 1165 1218 1032
4354 11 1098 1165 1218 1158
4355 12 1201 1165 1218 1032
4356 13 1201 1165 1218 1158
4357 2 1138 1210 1438 1614
4358 2 1138 1210 1438 1221
4359 2 1138 1210 1438 1632
4360 1 1150 1210 1438 1614
4361 1 1150 1210 1438 1221
4362 1 1150 1210 1438 1632
4363 2 1137 1223 1436 1202
4364 2 1137 1223 1436 1612
4365 2 1137 1223 1436 1625
4366 1 1163 1223 1436 1202
4367 1 1163 1223 1436 1612
4368 1 1163 1223 1436 1625
4369 2 1131 1221 1438 1614
4370 2 1131 1221 1438 1210
4371 2 1131 1221 1438 1632
4372 1 1161 1221 1438 1614
4373 1 1161 1221 1438 1210
4374 1 1161 1221 1438 1632
4375 3 1035 1107 1161 1089
4376 4 1035 1107 1161 1221
4377 4 1179 1107 1161 1089
4378 5 1179 1107 1161 1221
4379 6 1035 1107 1179 1429
4380 7 1035 1107 1179 1131
4381 8 1161 1107 1179 1429
4382 9 1161 1107 1179 1131
4383 3 1037 1109 1121 1049
4384 4 1037 1109 1121 1193
4385 4 1181 1109 1121 1049
4386 5 1181 1109 1121 1193
4387 6 1037 1109 1181 1023
4388 7 1037 1109 1181 1133
4389 8 1121 1109 1181 1023
4390 9 1121 1109 1181 1133
4391 3 1047 1119 1148 1076
4392 4 1047 1119 1148 1208
4393 4 1191 1119 1148 1076
4394 5 1191 1119 1148 1208
4395 6 1047 1119 1191 821
4396 7 1047 1119 1191 1172
4397 8 1148 1119 1191 821
4398 9 1148 1119 1191 1172
4399 6 1049 1121 1193 1022
4400 7 1049 1121 1193 1133
4401 8 1109 1121 1193 1022
4402 9 1109 1121 1193 1133
4403 10 1476 1131 1179 1429
4404 11 1476 1131 1179 1107
4405 12 1221 1131 1179 1429
4406 13 1221 1131 1179 1107
4407 10 1476 1131 1221 1438
4408 11 1476 1131 1221 1161
4409 12 1179 1131 1221 1438
4410 13 1179 1131 1221 1161
4411 10 241 1133 1181 1023
4412 11 241 1133 1181 1109
4413 12 1193 1133 1181 1023
4414 13 1193 1133 1181 1109
4415 10 241 1133 1193 1022
4416 11 241 1133 1193 1121
4417 12 1181 1133 1193 1022
4418 13 1181 1133 1193 1121
4419 6 1076 1148 1208 828
4420 7 1076 1148 1208 1172
4421 8 1119 1148 1208 828
4422 9 1119 1148 1208 1172
4423 6 1089 1161 1221 1438
4424 7 1089 1161 1221 1131
4425 8 1107 1161 1221 1438
4426 9 1107 1161 1221 1131
4427 10 899 1172 1191 821
4428 11 899 1172 1191 1119
4429 12 1208 1172 1191 821
4430 13 1208 1172 1191 1119
4431 10 899 1172 1208 828
4432 11 899 1172 1208 1148
4433 12 1191 1172 1208 828
4434 13 1191 1172 1208 1148
4435 1 1107 1179 1429 1585
4436 1 1107 1179 1429 1195
4437 1 1107 1179 1429 1604
4438 2 1131 1179 1429 1585
4439 2 1131 1179 1429 1195
4440 2 1131 1179 1429 1604
4441 1 981 821 1183 1111
4442 2 981 821 1183 1135
4443 1 985 821 1183 1111
4444 2 985 821 1183 1135
4445 1 1191 821 1183 1111
4446 2 1191 821 1183 1135
4447 1 1183 821 981 909
4448 2 1183 821 981 933
4449 1 985 821 981 909
4450 2 985 821 981 933
4451 1 1191 821 981 909
4452 2 1191 821 981 933
4453 1 1183 821 985 913
4454 2 1183 821 985 930
4455 1 981 821 985 913
4456 2 981 821 985 930
4457 1 1191 821 985 913
4458 2 1191 821 985 930
4459 1 1183 821 1191 1119
4460 2 1183 821 1191 1172
4461 1 981 821 1191 1119
4462 2 981 821 1191 1172
4463 1 985 821 1191 1119
4464 2 985 821 1191 1172
4465 1 1123 1195 1429 1585
4466 1 1123 1195 1429 1179
4467 1 1123 1195 1429 1604
4468 2 1135 1195 1429 1585
4469 2 1135 1195 1429 1179
4470 2 1135 1195 1429 1604
4471 3 1038 1110 1117 1045
4472 4 1038 1110 1117 1189
4473 4 1182 1110 1117 1045
4474 5 1182 1110 1117 1189
4475 6 1038 1110 1182 1024
4476 7 1038 1110 1182 1134
4477 8 1117 1110 1182 1024
4478 9 1117 1110 1182 1134
4479 3 1043 1115 1160 1088
4480 4 1043 1115 1160 1220
4481 4 1187 1115 1160 1088
4482 5 1187 1115 1160 1220
4483 6 1043 1115 1187 207
4484 7 1043 1115 1187 1175
4485 8 1160 1115 1187 207
4486 9 1160 1115 1187 1175
4487 6 1045 1117 1189 1025
4488 7 1045 1117 1189 1134
4489 8 1110 1117 1189 1025
4490 9 1110 1117 1189 1134
4491 3 1054 1126 1142 1070
4492 4 1054 1126 1142 1202
4493 4 1198 1126 1142 1070
4494 5 1198 1126 1142 1202
4495 6 1054 1126 1198 1434
4496 7 1054 1126 1198 1130
4497 8 1142 1126 1198 1434
4498 9 1142 1126 1198 1130
4499 10 1474 1130 1198 1434
4500 11 1474 1130 1198 1126
4501 12 1202 1130 1198 1434
4502 13 1202 1130 1198 1126
4503 10 1474 1130 1202 1436
4504 11 1474 1130 1202 1142
4505 12 1198 1130 1202 1436
4506 13 1198 1130 1202 1142
4507 10 857 1134 1182 1024
4508 11 857 1134 1182 1110
4509 12 1189 1134 1182 1024
4510 13 1189 1134 1182 1110
4511 10 857 1134 1189 1025
4512 11 857 1134 1189 1117
4513 12 1182 1134 1189 1025
4514 13 1182 1134 1189 1117
4515 6 1070 1142 1202 1436
4516 7 1070 1142 1202 1130
4517 8 1126 1142 1202 1436
4518 9 1126 1142 1202 1130
4519 6 1088 1160 1220 211
4520 7 1088 1160 1220 1175
4521 8 1115 1160 1220 211
4522 9 1115 1160 1220 1175
4523 10 280 1175 1187 207
4524 11 280 1175 1187 1115
4525 12 1220 1175 1187 207
4526 13 1220 1175 1187 1115
4527 10 280 1175 1220 211
4528 11 280 1175 1220 1160
4529 12 1187 1175 1220 211
4530 13 1187 1175 1220 1160
4531 1 1126 1198 1434 1592
4532 1 1126 1198 1434 1188
4533 1 1126 1198 1434 1602
4534 2 1130 1198 1434 1592
4535 2 1130 1198 1434 1188
4536 2 1130 1198 1434 1602
4537 2 1130 1202 1436 1612
4538 2 1130 1202 1436 1625
4539 2 1130 1202 1436 1223
4540 1 1142 1202 1436 1612
4541 1 1142 1202 1436 1625
4542 1 1142 1202 1436 1223
4543 1 1180 206 362 290
4544 2 1180 206 362 350
4545 1 377 206 362 290
4546 2 377 206 362 350
4547 1 1199 206 362 290
4548 2 1199 206 362 350
4549 1 362 206 1180 1108
4550 2 362 206 1180 1132
4551 1 377 206 1180 1108
4552 2 377 206 1180 1132
4553 1 1199 206 1180 1108
4554 2 1199 206 1180 1132
4555 1 362 206 377 305
4556 2 362 206 377 317
4557 1 1180 206 377 305
4558 2 1180 206 377 317
4559 1 1199 206 377 305
4560 2 1199 206 377 317
4561 1 362 206 1199 1127
4562 2 362 206 1199 1173
4563 1 1180 206 1199 1127
4564 2 1180 206 1199 1173
4565 1 377 206 1199 1127
4566 2 377 206 1199 1173
4567 3 1036 1108 1128 1056
4568 4 1036 1108 1128 1200
4569 4 1180 1108 1128 1056
4570 5 1180 1108 1128 1200
4571 6 1036 1108 1180 206
4572 7 1036 1108 1180 1132
4573 8 1128 1108 1180 206
4574 9 1128 1108 1180 1132
4575 3 1039 1111 1123 1051
4576 4 1039 1111 1123 1195
4577 4 1183 1111 1123 1051
4578 5 1183 1111 1123 1195
4579 6 1039 1111 1183 821
4580 7 1039 1111 1183 1135
4581 8 1123 1111 1183 821
4582 9 1123 1111 1183 1135
4583 3 1044 1116 1120 1048
4584 4 1044 1116 1120 1192
4585 4 1188 1116 1120 1048
4586 5 1188 1116 1120 1192
4587 6 1044 1116 1188 1434
4588 7 1044 1116 1188 1140
4589 8 1120 1116 1188 1434
4590 9 1120 1116 1188 1140
4591 6 1048 1120 1192 207
4592 7 1048 1120 1192 1140
4593 8 1116 1120 1192 207
4594 9 1116 1120 1192 1140
4595 6 1051 1123 1195 1429
4596 7 1051 1123 1195 1135
4597 8 1111 1123 1195 1429
4598 9 1111 1123 1195 1135
4599 6 1056 1128 1200 820
4600 7 1056 1128 1200 1132
4601 8 1108 1128 1200 820
4602 9 1108 1128 1200 1132
4603 10 1064 1132 1180 206
4604 11 1064 1132 1180 1108
4605 12 1200 1132 1180 206
4606 13 1200 1132 1180 1108
4607 10 1064 1132 1200 820
4608 11 1064 1132 1200 1128
4609 12 1180 1132 1200 820
4610 13 1180 1132 1200 1128
4611 10 1058 1135 1183 821
4612 11 1058 1135 1183 1111
4613 12 1195 1135 1183 821
4614 13 1195 1135 1183 1111
4615 10 1058 1135 1195 1429
4616 11 1058 1135 1195 1123
4617 12 1183 1135 1195 1429
4618 13 1183 1135 1195 1123
4619 10 1065 1140 1188 1434
4620 11 1065 1140 1188 1116
4621 12 1192 1140 1188 1434
4622 13 1192 1140 1188 1116
4623 10 1065 1140 1192 207
4624 11 1065 1140 1192 1120
4625 12 1188 1140 1192 207
4626 13 1188 1140 1192 1120
4627 1 1116 1188 1434 1592
4628 1 1116 1188 1434 1602
4629 1 1116 1188 1434 1198
4630 2 1140 1188 1434 1592
4631 2 1140 1188 1434 1602
4632 2 1140 1188 1434 1198
4633 1 1186 820 978 906
4634 2 1186 820 978 930
4635 1 993 820 978 906
4636 2 993 820 978 930
4637 1 1200 820 978 906
4638 2 1200 820 978 930
4639 1 978 820 1186 1114
4640 2 978 820 1186 1174
4641 1 993 820 1186 1114
4642 2 993 820 1186 1174
4643 1 1200 820 1186 1114
4644 2 1200 820 1186 1174
4645 1 978 820 993 921
4646 2 978 820 993 963
4647 1 1186 820 993 921
4648 2 1186 820 993 963
4649 1 1200 820 993 921
4650 2 1200 820 993 963
4651 1 978 820 1200 1128
4652 2 978 820 1200 1132
4653 1 1186 820 1200 1128
4654 2 1186 820 1200 1132
4655 1 993 820 1200 1128
4656 2 993 820 1200 1132
4657 1 1203 211 385 325
4658 2 1203 211 385 349
4659 1 403 211 385 325
4660 2 403 211 385 349
4661 1 1220 211 385 325
4662 2 1220 211 385 349
4663 1 385 211 1203 1143
4664 2 385 211 1203 1167
4665 1 403 211 1203 1143
4666 2 403 211 1203 1167
4667 1 1220 211 1203 1143
4668 2 1220 211 1203 1167
4669 1 385 211 403 343
4670 2 385 211 403 355
4671 1 1203 211 403 343
4672 2 1203 211 403 355
4673 1 1220 211 403 343
4674 2 1220 211 403 355
4675 1 385 211 1220 1160
4676 2 385 211 1220 1175
4677 1 1203 211 1220 1160
4678 2 1203 211 1220 1175
4679 1 403 211 1220 1160
4680 2 403 211 1220 1175
4681 1 1187 207 365 293
4682 2 1187 207 365 317
4683 1 374 207 365 293
4684 2 374 207 365 317
4685 1 1192 207 365 293
4686 2 1192 207 365 317
4687 1 365 207 1187 1115
4688 2 365 207 1187 1175
4689 1 374 207 1187 1115
4690 2 374 207 1187 1175
4691 1 1192 207 1187 1115
4692 2 1192 207 1187 1175
4693 1 365 207 374 302
4694 2 365 207 374 322
4695 1 1187 207 374 302
4696 2 1187 207 374 322
4697 1 1192 207 374 302
4698 2 1192 207 374 322
4699 1 365 207 1192 1120
4700 2 365 207 1192 1140
4701 1 1187 207 1192 1120
4702 2 1187 207 1192 1140
4703 1 374 207 1192 1120
4704 2 374 207 1192 1140
4705 1 394 622 798 738
4706 2 394 622 798 762
4707 1 405 622 798 738
4708 2 405 622 798 762
4709 1 816 622 798 738
4710 2 816 622 798 762
4711 1 798 622 816 756
4712 2 798 622 816 760
4713 1 394 622 816 756
4714 2 394 622 816 760
4715 1 405 622 816 756
4716 2 405 622 816 760
4717 3 664 736 756 684
4718 4 664 736 756 816
4719 4 796 736 756 684
4720 5 796 736 756 816
4721 6 664 736 796 620
4722 7 664 736 796 760
4723 8 756 736 796 620
4724 9 756 736 796 760
4725 3 667 739 751 679
4726 4 667 739 751 811
4727 4 799 739 751 679
4728 5 799 739 751 811
4729 6 667 739 799 623
4730 7 667 739 799 763
4731 8 751 739 799 623
4732 9 751 739 799 763
4733 3 672 744 748 676
4734 4 672 744 748 808
4735 4 804 744 748 676
4736 5 804 744 748 808
4737 6 672 744 804 624
4738 7 672 744 804 768
4739 8 748 744 804 624
4740 9 748 744 804 768
4741 6 676 748 808 621
4742 7 676 748 808 768
4743 8 744 748 808 621
4744 9 744 748 808 768
4745 6 679 751 811 619
4746 7 679 751 811 763
4747 8 739 751 811 619
4748 9 739 751 811 763
4749 6 684 756 816 622
4750 7 684 756 816 760
4751 8 736 756 816 622
4752 9 736 756 816 760
4753 10 284 760 796 620
4754 11 284 760 796 736
4755 12 816 760 796 620
4756 13 816 760 796 736
4757 10 284 760 816 622
4758 11 284 760 816 756
4759 12 796 760 816 622
4760 13 796 760 816 756
4761 10 1502 763 799 623
4762 11 1502 763 799 739
4763 12 811 763 799 623
4764 13 811 763 799 739
4765 10 1502 763 811 619
4766 11 1502 763 811 751
4767 12 799 763 811 619
4768 13 799 763 811 751
4769 10 489 768 804 624
4770 11 489 768 804 744
4771 12 808 768 804 624
4772 13 808 768 804 744
4773 10 489 768 808 621
4774 11 489 768 808 748
4775 12 804 768 808 621
4776 13 804 768 808 748
4777 1 803 417 593 533
4778 2 803 417 593 557
4779 1 806 417 593 533
4780 2 806 417 593 557
4781 1 604 417 593 533
4782 2 604 417 593 557
4783 2 593 417 803 731
4784 1 593 417 803 743
4785 2 806 417 803 731
4786 1 806 417 803 743
4787 2 604 417 803 731
4788 1 604 417 803 743
4789 1 593 417 806 746
4790 2 593 417 806 766
4791 1 803 417 806 746
4792 2 803 417 806 766
4793 1 604 417 806 746
4794 2 604 417 806 766
4795 1 593 417 604 544
4796 2 593 417 604 564
4797 1 803 417 604 544
4798 2 803 417 604 564
4799 1 806 417 604 544
4800 2 806 417 604 564
4801 3 626 698 754 682
4802 4 626 698 754 814
4803 4 770 698 754 682
4804 5 770 698 754 814
4805 6 626 698 770 614
4806 7 626 698 770 758
4807 8 754 698 770 614
4808 9 754 698 770 758
4809 3 644 716 743 671
4810 4 644 716 743 803
4811 4 788 716 743 671
4812 5 788 716 743 803
4813 6 644 716 788 613
4814 7 644 716 788 731
4815 8 743 716 788 613
4816 9 743 716 788 731
4817 10 652 731 788 613
4818 11 652 731 788 716
4819 12 803 731 788 613
4820 13 803 731 788 716
4821 10 652 731 803 417
4822 11 652 731 803 743
4823 12 788 731 803 417
4824 13 788 731 803 743
4825 3 666 738 745 673
4826 4 666 738 745 805
4827 4 798 738 745 673
4828 5 798 738 745 805
4829 6 666 738 798 622
4830 7 666 738 798 762
4831 8 745 738 798 622
4832 9 745 738 798 762
4833 6 671 743 803 417
4834 7 671 743 803 731
4835 8 716 743 803 417
4836 9 716 743 803 731
4837 6 673 745 805 623
4838 7 673 745 805 762
4839 8 738 745 805 623
4840 9 738 745 805 762
4841 6 682 754 814 420
4842 7 682 754 814 758
4843 8 698 754 814 420
4844 9 698 754 814 758
4845 10 694 758 770 614
4846 11 694 758 770 698
4847 12 814 758 770 614
4848 13 814 758 770 698
4849 10 694 758 814 420
4850 11 694 758 814 754
4851 12 770 758 814 420
4852 13 770 758 814 754
4853 10 689 762 798 622
4854 11 689 762 798 738
4855 12 805 762 798 622
4856 13 805 762 798 738
4857 10 689 762 805 623
4858 11 689 762 805 745
4859 12 798 762 805 623
4860 13 798 762 805 745
4861 1 386 620 796 736
4862 2 386 620 796 760
4863 1 809 620 796 736
4864 2 809 620 796 760
4865 1 407 620 796 736
4866 2 407 620 796 760
4867 1 386 620 809 749
4868 2 386 620 809 761
4869 1 796 620 809 749
4870 2 796 620 809 761
4871 1 407 620 809 749
4872 2 407 620 809 761
4873 1 363 613 769 697
4874 2 363 613 769 721
4875 1 379 613 769 697
4876 2 379 613 769 721
4877 1 788 613 769 697
4878 2 788 613 769 721
4879 1 769 613 788 716
4880 2 769 613 788 731
4881 1 363 613 788 716
4882 2 363 613 788 731
4883 1 379 613 788 716
4884 2 379 613 788 731
4885 3 632 704 747 675
4886 4 632 704 747 807
4887 4 776 704 747 675
4888 5 776 704 747 807
4889 6 632 704 776 618
4890 7 632 704 776 728
4891 8 747 704 776 618
4892 9 747 704 776 728
4893 3 645 717 735 663
4894 4 645 717 735 795
4895 4 789 717 735 663
4896 5 789 717 735 795
4897 6 645 717 789 616
4898 7 645 717 789 759
4899 8 735 717 789 616
4900 9 735 717 789 759
4901 10 659 728 776 618
4902 11 659 728 776 704
4903 12 807 728 776 618
4904 13 807 728 776 704
4905 10 659 728 807 1439
4906 11 659 728 807 747
4907 12 776 728 807 1439
4908 13 776 728 807 747
4909 6 663 735 795 1435
4910 7 663 735 795 759
4911 8 717 735 795 1435
4912 9 717 735 795 759
4913 3 665 737 749 677
4914 4 665 737 749 809
4915 4 797 737 749 677
4916 5 797 737 749 809
4917 6 665 737 797 621
4918 7 665 737 797 761
4919 8 749 737 797 621
4920 9 749 737 797 761
4921 6 675 747 807 1439
4922 7 675 747 807 728
4923 8 704 747 807 1439
4924 9 704 747 807 728
4925 6 677 749 809 620
4926 7 677 749 809 761
4927 8 737 749 809 620
4928 9 737 749 809 761
4929 10 696 759 789 616
4930 11 696 759 789 717
4931 12 795 759 789 616
4932 13 795 759 789 717
4933 10 696 759 795 1435
4934 11 696 759 795 735
4935 12 789 759 795 1435
4936 13 789 759 795 735
4937 10 685 761 797 621
4938 11 685 761 797 737
4939 12 809 761 797 621
4940 13 809 761 797 737
4941 10 685 761 809 620
4942 11 685 761 809 749
4943 12 797 761 809 620
4944 13 797 761 809 749
4945 1 735 795 1435 1609
4946 1 735 795 1435 1627
4947 1 735 795 1435 812
4948 2 759 795 1435 1609
4949 2 759 795 1435 1627
4950 2 759 795 1435 812
4951 2 728 807 1439 1615
4952 2 728 807 1439 801
4953 2 728 807 1439 1621
4954 1 747 807 1439 1615
4955 1 747 807 1439 801
4956 1 747 807 1439 1621
4957 1 741 801 1439 1615
4958 1 741 801 1439 1621
4959 1 741 801 1439 807
4960 2 765 801 1439 1615
4961 2 765 801 1439 1621
4962 2 765 801 1439 807
4963 1 372 618 776 704
4964 2 372 618 776 728
4965 1 786 618 776 704
4966 2 786 618 776 728
4967 1 382 618 776 704
4968 2 382 618 776 728
4969 1 776 618 786 714
4970 2 776 618 786 721
4971 1 372 618 786 714
4972 2 372 618 786 721
4973 1 382 618 786 714
4974 2 382 618 786 721
4975 3 625 697 714 642
4976 4 625 697 714 786
4977 4 769 697 714 642
4978 5 769 697 714 786
4979 6 625 697 769 613
4980 7 625 697 769 721
4981 8 714 697 769 613
4982 9 714 697 769 721
4983 3 634 706 746 674
4984 4 634 706 746 806
4985 4 778 706 746 674
4986 5 778 706 746 806
4987 6 634 706 778 412
4988 7 634 706 778 766
4989 8 746 706 778 412
4990 9 746 706 778 766
4991 6 642 714 786 618
4992 7 642 714 786 721
4993 8 697 714 786 618
4994 9 697 714 786 721
4995 3 647 719 741 669
4996 4 647 719 741 801
4997 4 791 719 741 669
4998 5 791 719 741 801
4999 6 647 719 791 1430
5000 7 647 719 791 765
5001 8 741 719 791 1430
5002 9 741 719 791 765
5003 10 246 721 769 613
5004 11 246 721 769 697
5005 12 786 721 769 613
5006 13 786 721 769 697
5007 10 246 721 786 618
5008 11 246 721 786 714
5009 12 769 721 786 618
5010 13 769 721 786 714
5011 6 669 741 801 1439
5012 7 669 741 801 765
5013 8 719 741 801 1439
5014 9 719 741 801 765
5015 6 674 746 806 417
5016 7 674 746 806 766
5017 8 706 746 806 417
5018 9 706 746 806 766
5019 10 1503 765 791 1430
5020 11 1503 765 791 719
5021 12 801 765 791 1430
5022 13 801 765 791 719
5023 10 1503 765 801 1439
5024 11 1503 765 801 741
5025 12 791 765 801 1439
5026 13 791 765 801 741
5027 10 487 766 778 412
5028 11 487 766 778 706
5029 12 806 766 778 412
5030 13 806 766 778 706
5031 10 487 766 806 417
5032 11 487 766 806 746
5033 12 778 766 806 417
5034 13 778 766 806 746
5035 1 719 791 1430 1586
5036 1 719 791 1430 772
5037 1 719 791 1430 1601
5038 2 765 791 1430 1586
5039 2 765 791 1430 772
5040 2 765 791 1430 1601
5041 1 801 1439 1615 1555
5042 2 801 1439 1615 1579
5043 1 1621 1439 1615 1555
5044 2 1621 1439 1615 1579
5045 1 807 1439 1615 1555
5046 2 807 1439 1615 1579
5047 1 1615 1439 1621 1561
5048 2 1615 1439 1621 1578
5049 1 801 1439 1621 1561
5050 2 801 1439 1621 1578
5051 1 807 1439 1621 1561
5052 2 807 1439 1621 1578
5053 1 1210 1438 1614 1554
5054 2 1210 1438 1614 1578
5055 1 1221 1438 1614 1554
5056 2 1221 1438 1614 1578
5057 1 1632 1438 1614 1554
5058 2 1632 1438 1614 1578
5059 1 1614 1438 1632 1572
5060 2 1614 1438 1632 1576
5061 1 1210 1438 1632 1572
5062 2 1210 1438 1632 1576
5063 1 1221 1438 1632 1572
5064 2 1221 1438 1632 1576
5065 3 1480 1552 1572 1500
5066 4 1480 1552 1572 1632
5067 4 1612 1552 1572 1500
5068 5 1612 1552 1572 1632
5069 6 1480 1552 1612 1436
5070 7 1480 1552 1612 1576
5071 8 1572 1552 1612 1436
5072 9 1572 1552 1612 1576
5073 3 1483 1555 1567 1495
5074 4 1483 1555 1567 1627
5075 4 1615 1555 1567 1495
5076 5 1615 1555 1567 1627
5077 6 1483 1555 1615 1439
5078 7 1483 1555 1615 1579
5079 8 1567 1555 1615 1439
5080 9 1567 1555 1615 1579
5081 3 1488 1560 1564 1492
5082 4 1488 1560 1564 1624
5083 4 1620 1560 1564 1492
5084 5 1620 1560 1564 1624
5085 6 1488 1560 1620 1440
5086 7 1488 1560 1620 1584
5087 8 1564 1560 1620 1440
5088 9 1564 1560 1620 1584
5089 6 1492 1564 1624 1437
5090 7 1492 1564 1624 1584
5091 8 1560 1564 1624 1437
5092 9 1560 1564 1624 1584
5093 6 1495 1567 1627 1435
5094 7 1495 1567 1627 1579
5095 8 1555 1567 1627 1435
5096 9 1555 1567 1627 1579
5097 6 1500 1572 1632 1438
5098 7 1500 1572 1632 1576
5099 8 1552 1572 1632 1438
5100 9 1552 1572 1632 1576
5101 10 1100 1576 1612 1436
5102 11 1100 1576 1612 1552
5103 12 1632 1576 1612 1436
5104 13 1632 1576 1612 1552
5105 10 1100 1576 1632 1438
5106 11 1100 1576 1632 1572
5107 12 1612 1576 1632 1438
5108 13 1612 1576 1632 1572
5109 10 686 1579 1615 1439
5110 11 686 1579 1615 1555
5111 12 1627 1579 1615 1439
5112 13 1627 1579 1615 1555
5113 10 686 1579 1627 1435
5114 11 686 1579 1627 1567
5115 12 1615 1579 1627 1435
5116 13 1615 1579 1627 1567
5117 10 1305 1584 1620 1440
5118 11 1305 1584 1620 1560
5119 12 1624 1584 1620 1440
5120 13 1624 1584 1620 1560
5121 10 1305 1584 1624 1437
5122 11 1305 1584 1624 1564
5123 12 1620 1584 1624 1437
5124 13 1620 1584 1624 1564
5125 1 1619 1233 1409 1349
5126 2 1619 1233 1409 1373
5127 1 1622 1233 1409 1349
5128 2 1622 1233 1409 1373
5129 1 1420 1233 1409 1349
5130 2 1420 1233 1409 1373
5131 2 1409 1233 1619 1547
5132 1 1409 1233 1619 1559
5133 2 1622 1233 1619 1547
5134 1 1622 1233 1619 1559
5135 2 1420 1233 1619 1547
5136 1 1420 1233 1619 1559
5137 1 1409 1233 1622 1562
5138 2 1409 1233 1622 1582
5139 1 1619 1233 1622 1562
5140 2 1619 1233 1622 1582
5141 1 1420 1233 1622 1562
5142 2 1420 1233 1622 1582
5143 1 1409 1233 1420 1360
5144 2 1409 1233 1420 1380
5145 1 1619 1233 1420 1360
5146 2 1619 1233 1420 1380
5147 1 1622 1233 1420 1360
5148 2 1622 1233 1420 1380
5149 3 1442 1514 1570 1498
5150 4 1442 1514 1570 1630
5151 4 1586 1514 1570 1498
5152 5 1586 1514 1570 1630
5153 6 1442 1514 1586 1430
5154 7 1442 1514 1586 1574
5155 8 1570 1514 1586 1430
5156 9 1570 1514 1586 1574
5157 3 1460 1532 1559 1487
5158 4 1460 1532 1559 1619
5159 4 1604 1532 1559 1487
5160 5 1604 1532 1559 1619
5161 6 1460 1532 1604 1429
5162 7 1460 1532 1604 1547
5163 8 1559 1532 1604 1429
5164 9 1559 1532 1604 1547
5165 10 1468 1547 1604 1429
5166 11 1468 1547 1604 1532
5167 12 1619 1547 1604 1429
5168 13 1619 1547 1604 1532
5169 10 1468 1547 1619 1233
5170 11 1468 1547 1619 1559
5171 12 1604 1547 1619 1233
5172 13 1604 1547 1619 1559
5173 3 1482 1554 1561 1489
5174 4 1482 1554 1561 1621
5175 4 1614 1554 1561 1489
5176 5 1614 1554 1561 1621
5177 6 1482 1554 1614 1438
5178 7 1482 1554 1614 1578
5179 8 1561 1554 1614 1438
5180 9 1561 1554 1614 1578
5181 6 1487 1559 1619 1233
5182 7 1487 1559 1619 1547
5183 8 1532 1559 1619 1233
5184 9 1532 1559 1619 1547
5185 6 1489 1561 1621 1439
5186 7 1489 1561 1621 1578
5187 8 1554 1561 1621 1439
5188 9 1554 1561 1621 1578
5189 6 1498 1570 1630 1236
5190 7 1498 1570 1630 1574
5191 8 1514 1570 1630 1236
5192 9 1514 1570 1630 1574
5193 10 1510 1574 1586 1430
5194 11 1510 1574 1586 1514
5195 12 1630 1574 1586 1430
5196 13 1630 1574 1586 1514
5197 10 1510 1574 1630 1236
5198 11 1510 1574 1630 1570
5199 12 1586 1574 1630 1236
5200 13 1586 1574 1630 1570
5201 10 1505 1578 1614 1438
5202 11 1505 1578 1614 1554
5203 12 1621 1578 1614 1438
5204 13 1621 1578 1614 1554
5205 10 1505 1578 1621 1439
5206 11 1505 1578 1621 1561
5207 12 1614 1578 1621 1439
5208 13 1614 1578 1621 1561
5209 1 1202 1436 1612 1552
5210 2 1202 1436 1612 1576
5211 1 1625 1436 1612 1552
5212 2 1625 1436 1612 1576
5213 1 1223 1436 1612 1552
5214 2 1223 1436 1612 1576
5215 1 1202 1436 1625 1565
5216 2 1202 1436 1625 1577
5217 1 1612 1436 1625 1565
5218 2 1612 1436 1625 1577
5219 1 1223 1436 1625 1565
5220 2 1223 1436 1625 1577
5221 1 1179 1429 1585 1513
5222 2 1179 1429 1585 1537
5223 1 1195 1429 1585 1513
5224 2 1195 1429 1585 1537
5225 1 1604 1429 1585 1513
5226 2 1604 1429 1585 1537
5227 1 1585 1429 1604 1532
5228 2 1585 1429 1604 1547
5229 1 1179 1429 1604 1532
5230 2 1179 1429 1604 1547
5231 1 1195 1429 1604 1532
5232 2 1195 1429 1604 1547
5233 3 1448 1520 1563 1491
5234 4 1448 1520 1563 1623
5235 4 1592 1520 1563 1491
5236 5 1592 1520 1563 1623
5237 6 1448 1520 1592 1434
5238 7 1448 1520 1592 1544
5239 8 1563 1520 1592 1434
5240 9 1563 1520 1592 1544
5241 3 1461 1533 1551 1479
5242 4 1461 1533 1551 1611
5243 4 1605 1533 1551 1479
5244 5 1605 1533 1551 1611
5245 6 1461 1533 1605 1432
5246 7 1461 1533 1605 1575
5247 8 1551 1533 1605 1432
5248 9 1551 1533 1605 1575
5249 10 1475 1544 1592 1434
5250 11 1475 1544 1592 1520
5251 12 1623 1544 1592 1434
5252 13 1623 1544 1592 1520
5253 10 1475 1544 1623 623
5254 11 1475 1544 1623 1563
5255 12 1592 1544 1623 623
5256 13 1592 1544 1623 1563
5257 6 1479 1551 1611 619
5258 7 1479 1551 1611 1575
5259 8 1533 1551 1611 619
5260 9 1533 1551 1611 1575
5261 3 1481 1553 1565 1493
5262 4 1481 1553 1565 1625
5263 4 1613 1553 1565 1493
5264 5 1613 1553 1565 1625
5265 6 1481 1553 1613 1437
5266 7 1481 1553 1613 1577
5267 8 1565 1553 1613 1437
5268 9 1565 1553 1613 1577
5269 6 1491 1563 1623 623
5270 7 1491 1563 1623 1544
5271 8 1520 1563 1623 623
5272 9 1520 1563 1623 1544
5273 6 1493 1565 1625 1436
5274 7 1493 1565 1625 1577
5275 8 1553 1565 1625 1436
5276 9 1553 1565 1625 1577
5277 10 1512 1575 1605 1432
5278 11 1512 1575 1605 1533
5279 12 1611 1575 1605 1432
5280 13 1611 1575 1605 1533
5281 10 1512 1575 1611 619
5282 11 1512 1575 1611 1551
5283 12 1605 1575 1611 619
5284 13 1605 1575 1611 1551
5285 10 1501 1577 1613 1437
5286 11 1501 1577 1613 1553
5287 12 1625 1577 1613 1437
5288 13 1625 1577 1613 1553
5289 10 1501 1577 1625 1436
5290 11 1501 1577 1625 1565
5291 12 1613 1577 1625 1436
5292 13 1613 1577 1625 1565
5293 1 1188 1434 1592 1520
5294 2 1188 1434 1592 1544
5295 1 1602 1434 1592 1520
5296 2 1602 1434 1592 1544
5297 1 1198 1434 1592 1520
5298 2 1198 1434 1592 1544
5299 1 1592 1434 1602 1530
5300 2 1592 1434 1602 1537
5301 1 1188 1434 1602 1530
5302 2 1188 1434 1602 1537
5303 1 1198 1434 1602 1530
5304 2 1198 1434 1602 1537
5305 3 1441 1513 1530 1458
5306 4 1441 1513 1530 1602
5307 4 1585 1513 1530 1458
5308 5 1585 1513 1530 1602
5309 6 1441 1513 1585 1429
5310 7 1441 1513 1585 1537
5311 8 1530 1513 1585 1429
5312 9 1530 1513 1585 1537
5313 3 1450 1522 1562 1490
5314 4 1450 1522 1562 1622
5315 4 1594 1522 1562 1490
5316 5 1594 1522 1562 1622
5317 6 1450 1522 1594 1228
5318 7 1450 1522 1594 1582
5319 8 1562 1522 1594 1228
5320 9 1562 1522 1594 1582
5321 6 1458 1530 1602 1434
5322 7 1458 1530 1602 1537
5323 8 1513 1530 1602 1434
5324 9 1513 1530 1602 1537
5325 3 1463 1535 1557 1485
5326 4 1463 1535 1557 1617
5327 4 1607 1535 1557 1485
5328 5 1607 1535 1557 1617
5329 6 1463 1535 1607 614
5330 7 1463 1535 1607 1581
5331 8 1557 1535 1607 614
5332 9 1557 1535 1607 1581
5333 10 1062 1537 1585 1429
5334 11 1062 1537 1585 1513
5335 12 1602 1537 1585 1429
5336 13 1602 1537 1585 1513
5337 10 1062 1537 1602 1434
5338 11 1062 1537 1602 1530
5339 12 1585 1537 1602 1434
5340 13 1585 1537 1602 1530
5341 6 1485 1557 1617 623
5342 7 1485 1557 1617 1581
5343 8 1535 1557 1617 623
5344 9 1535 1557 1617 1581
5345 6 1490 1562 1622 1233
5346 7 1490 1562 1622 1582
5347 8 1522 1562 1622 1233
5348 9 1522 1562 1622 1582
5349 10 687 1581 1607 614
5350 11 687 1581 1607 1535
5351 12 1617 1581 1607 614
5352 13 1617 1581 1607 1535
5353 10 687 1581 1617 623
5354 11 687 1581 1617 1557
5355 12 1607 1581 1617 623
5356 13 1607 1581 1617 1557
5357 10 1303 1582 1594 1228
5358 11 1303 1582 1594 1522
5359 12 1622 1582 1594 1228
5360 13 1622 1582 1594 1522
5361 10 1303 1582 1622 1233
5362 11 1303 1582 1622 1562
5363 12 1594 1582 1622 1233
5364 13 1594 1582 1622 1562
5365 1 1617 623 799 739
5366 2 1617 623 799 763
5367 1 805 623 799 739
5368 2 805 623 799 763
5369 1 1623 623 799 739
5370 2 1623 623 799 763
5371 1 799 623 1617 1557
5372 2 799 623 1617 1581
5373 1 805 623 1617 1557
5374 2 805 623 1617 1581
5375 1 1623 623 1617 1557
5376 2 1623 623 1617 1581
5377 1 799 623 805 745
5378 2 799 623 805 762
5379 1 1617 623 805 745
5380 2 1617 623 805 762
5381 1 1623 623 805 745
5382 2 1623 623 805 762
5383 2 799 623 1623 1544
5384 1 799 623 1623 1563
5385 2 1617 623 1623 1544
5386 1 1617 623 1623 1563
5387 2 805 623 1623 1544
5388 1 805 623 1623 1563
5389 1 600 420 800 740
5390 2 600 420 800 764
5391 1 606 420 800 740
5392 2 606 420 800 764
5393 1 814 420 800 740
5394 2 814 420 800 764
5395 1 800 420 600 540
5396 2 800 420 600 564
5397 1 606 420 600 540
5398 2 606 420 600 564
5399 1 814 420 600 540
5400 2 814 420 600 564
5401 1 800 420 606 546
5402 2 800 420 606 553
5403 1 600 420 606 546
5404 2 600 420 606 553
5405 1 814 420 606 546
5406 2 814 420 606 553
5407 1 800 420 814 754
5408 2 800 420 814 758
5409 1 600 420 814 754
5410 2 600 420 814 758
5411 1 606 420 814 754
5412 2 606 420 814 758
5413 3 633 705 755 683
5414 4 633 705 755 815
5415 4 777 705 755 683
5416 5 777 705 755 815
5417 6 633 705 777 617
5418 7 633 705 777 729
5419 8 755 705 777 617
5420 9 755 705 777 729
5421 3 638 710 742 670
5422 4 638 710 742 802
5423 4 782 710 742 670
5424 5 782 710 742 802
5425 6 638 710 782 615
5426 7 638 710 782 730
5427 8 742 710 782 615
5428 9 742 710 782 730
5429 10 651 729 777 617
5430 11 651 729 777 705
5431 12 815 729 777 617
5432 13 815 729 777 705
5433 10 651 729 815 212
5434 11 651 729 815 755
5435 12 777 729 815 212
5436 13 777 729 815 755
5437 10 655 730 782 615
5438 11 655 730 782 710
5439 12 802 730 782 615
5440 13 802 730 782 710
5441 10 655 730 802 214
5442 11 655 730 802 742
5443 12 782 730 802 214
5444 13 782 730 802 742
5445 3 661 733 750 678
5446 4 661 733 750 810
5447 4 793 733 750 678
5448 5 793 733 750 810
5449 6 661 733 793 619
5450 7 661 733 793 757
5451 8 750 733 793 619
5452 9 750 733 793 757
5453 6 670 742 802 214
5454 7 670 742 802 730
5455 8 710 742 802 214
5456 9 710 742 802 730
5457 6 678 750 810 624
5458 7 678 750 810 757
5459 8 733 750 810 624
5460 9 733 750 810 757
5461 6 683 755 815 212
5462 7 683 755 815 729
5463 8 705 755 815 212
5464 9 705 755 815 729
5465 10 690 757 793 619
5466 11 690 757 793 733
5467 12 810 757 793 619
5468 13 810 757 793 733
5469 10 690 757 810 624
5470 11 690 757 810 750
5471 12 793 757 810 624
5472 13 793 757 810 750
5473 3 627 699 753 681
5474 4 627 699 753 813
5475 4 771 699 753 681
5476 5 771 699 753 813
5477 6 627 699 771 205
5478 7 627 699 771 723
5479 8 753 699 771 205
5480 9 753 699 771 723
5481 3 629 701 713 641
5482 4 629 701 713 785
5483 4 773 701 713 641
5484 5 773 701 713 785
5485 6 629 701 773 615
5486 7 629 701 773 725
5487 8 713 701 773 615
5488 9 713 701 773 725
5489 3 639 711 740 668
5490 4 639 711 740 800
5491 4 783 711 740 668
5492 5 783 711 740 800
5493 6 639 711 783 413
5494 7 639 711 783 764
5495 8 740 711 783 413
5496 9 740 711 783 764
5497 6 641 713 785 614
5498 7 641 713 785 725
5499 8 701 713 785 614
5500 9 701 713 785 725
5501 10 252 723 771 205
5502 11 252 723 771 699
5503 12 813 723 771 205
5504 13 813 723 771 699
5505 10 252 723 813 214
5506 11 252 723 813 753
5507 12 771 723 813 214
5508 13 771 723 813 753
5509 10 1465 725 773 615
5510 11 1465 725 773 701
5511 12 785 725 773 615
5512 13 785 725 773 701
5513 10 1465 725 785 614
5514 11 1465 725 785 713
5515 12 773 725 785 614
5516 13 773 725 785 713
5517 6 668 740 800 420
5518 7 668 740 800 764
5519 8 711 740 800 420
5520 9 711 740 800 764
5521 6 681 753 813 214
5522 7 681 753 813 723
5523 8 699 753 813 214
5524 9 699 753 813 723
5525 10 491 764 783 413
5526 11 491 764 783 711
5527 12 800 764 783 413
5528 13 800 764 783 711
5529 10 491 764 800 420
5530 11 491 764 800 740
5531 12 783 764 800 420
5532 13 783 764 800 740
5533 1 573 413 775 703
5534 2 573 413 775 727
5535 1 577 413 775 703
5536 2 577 413 775 727
5537 1 783 413 775 703
5538 2 783 413 775 727
5539 1 775 413 573 501
5540 2 775 413 573 525
5541 1 577 413 573 501
5542 2 577 413 573 525
5543 1 783 413 573 501
5544 2 783 413 573 525
5545 1 775 413 577 505
5546 2 775 413 577 522
5547 1 573 413 577 505
5548 2 573 413 577 522
5549 1 783 413 577 505
5550 2 783 413 577 522
5551 1 775 413 783 711
5552 2 775 413 783 764
5553 1 573 413 783 711
5554 2 573 413 783 764
5555 1 577 413 783 711
5556 2 577 413 783 764
5557 1 772 1430 1586 1514
5558 2 772 1430 1586 1574
5559 1 1601 1430 1586 1514
5560 2 1601 1430 1586 1574
5561 1 791 1430 1586 1514
5562 2 791 1430 1586 1574
5563 1 1586 1430 1601 1529
5564 2 1586 1430 1601 1541
5565 1 772 1430 1601 1529
5566 2 772 1430 1601 1541
5567 1 791 1430 1601 1529
5568 2 791 1430 1601 1541
5569 3 630 702 709 637
5570 4 630 702 709 781
5571 4 774 702 709 637
5572 5 774 702 709 781
5573 6 630 702 774 616
5574 7 630 702 774 726
5575 8 709 702 774 616
5576 9 709 702 774 726
5577 3 635 707 752 680
5578 4 635 707 752 812
5579 4 779 707 752 680
5580 5 779 707 752 812
5581 6 635 707 779 1431
5582 7 635 707 779 767
5583 8 752 707 779 1431
5584 9 752 707 779 767
5585 6 637 709 781 617
5586 7 637 709 781 726
5587 8 702 709 781 617
5588 9 702 709 781 726
5589 3 646 718 734 662
5590 4 646 718 734 794
5591 4 790 718 734 662
5592 5 790 718 734 794
5593 6 646 718 790 210
5594 7 646 718 790 722
5595 8 734 718 790 210
5596 9 734 718 790 722
5597 10 250 722 790 210
5598 11 250 722 790 718
5599 12 794 722 790 210
5600 13 794 722 790 718
5601 10 250 722 794 212
5602 11 250 722 794 734
5603 12 790 722 794 212
5604 13 790 722 794 734
5605 10 449 726 774 616
5606 11 449 726 774 702
5607 12 781 726 774 616
5608 13 781 726 774 702
5609 10 449 726 781 617
5610 11 449 726 781 709
5611 12 774 726 781 617
5612 13 774 726 781 709
5613 6 662 734 794 212
5614 7 662 734 794 722
5615 8 718 734 794 212
5616 9 718 734 794 722
5617 6 680 752 812 1435
5618 7 680 752 812 767
5619 8 707 752 812 1435
5620 9 707 752 812 767
5621 10 1504 767 779 1431
5622 11 1504 767 779 707
5623 12 812 767 779 1431
5624 13 812 767 779 707
5625 10 1504 767 812 1435
5626 11 1504 767 812 752
5627 12 779 767 812 1435
5628 13 779 767 812 752
5629 1 707 779 1431 1589
5630 1 707 779 1431 1598
5631 1 707 779 1431 784
5632 2 767 779 1431 1589
5633 2 767 779 1431 1598
5634 2 767 779 1431 784
5635 1 752 812 1435 1609
5636 1 752 812 1435 795
5637 1 752 812 1435 1627
5638 2 767 812 1435 1609
5639 2 767 812 1435 795
5640 2 767 812 1435 1627
5641 3 628 700 720 648
5642 4 628 700 720 792
5643 4 772 700 720 648
5644 5 772 700 720 792
5645 6 628 700 772 1430
5646 7 628 700 772 724
5647 8 720 700 772 1430
5648 9 720 700 772 724
5649 3 631 703 715 643
5650 4 631 703 715 787
5651 4 775 703 715 643
5652 5 775 703 715 787
5653 6 631 703 775 413
5654 7 631 703 775 727
5655 8 715 703 775 413
5656 9 715 703 775 727
5657 3 636 708 712 640
5658 4 636 708 712 784
5659 4 780 708 712 640
5660 5 780 708 712 784
5661 6 636 708 780 210
5662 7 636 708 780 732
5663 8 712 708 780 210
5664 9 712 708 780 732
5665 6 640 712 784 1431
5666 7 640 712 784 732
5667 8 708 712 784 1431
5668 9 708 712 784 732
5669 6 643 715 787 205
5670 7 643 715 787 727
5671 8 703 715 787 205
5672 9 703 715 787 727
5673 6 648 720 792 412
5674 7 648 720 792 724
5675 8 700 720 792 412
5676 9 700 720 792 724
5677 10 656 724 772 1430
5678 11 656 724 772 700
5679 12 792 724 772 1430
5680 13 792 724 772 700
5681 10 656 724 792 412
5682 11 656 724 792 720
5683 12 772 724 792 412
5684 13 772 724 792 720
5685 10 650 727 775 413
5686 11 650 727 775 703
5687 12 787 727 775 413
5688 13 787 727 775 703
5689 10 650 727 787 205
5690 11 650 727 787 715
5691 12 775 727 787 205
5692 13 775 727 787 715
5693 10 657 732 780 210
5694 11 657 732 780 708
5695 12 784 732 780 210
5696 13 784 732 780 708
5697 10 657 732 784 1431
5698 11 657 732 784 712
5699 12 780 732 784 1431
5700 13 780 732 784 712
5701 1 700 772 1430 1586
5702 1 700 772 1430 1601
5703 1 700 772 1430 791
5704 2 724 772 1430 1586
5705 2 724 772 1430 1601
5706 2 724 772 1430 791
5707 1 712 784 1431 1589
5708 1 712 784 1431 779
5709 1 712 784 1431 1598
5710 2 732 784 1431 1589
5711 2 732 784 1431 779
5712 2 732 784 1431 1598
5713 1 778 412 570 498
5714 2 778 412 570 522
5715 1 585 412 570 498
5716 2 585 412 570 522
5717 1 792 412 570 498
5718 2 792 412 570 522
5719 1 570 412 778 706
5720 2 570 412 778 766
5721 1 585 412 778 706
5722 2 585 412 778 766
5723 1 792 412 778 706
5724 2 792 412 778 766
5725 1 570 412 585 513
5726 2 570 412 585 555
5727 1 778 412 585 513
5728 2 778 412 585 555
5729 1 792 412 585 513
5730 2 792 412 585 555
5731 1 570 412 792 720
5732 2 570 412 792 724
5733 1 778 412 792 720
5734 2 778 412 792 724
5735 1 585 412 792 720
5736 2 585 412 792 724
5737 1 795 1435 1609 1549
5738 2 795 1435 1609 1573
5739 1 1627 1435 1609 1549
5740 2 1627 1435 1609 1573
5741 1 812 1435 1609 1549
5742 2 812 1435 1609 1573
5743 1 1609 1435 1627 1567
5744 2 1609 1435 1627 1579
5745 1 795 1435 1627 1567
5746 2 795 1435 1627 1579
5747 1 812 1435 1627 1567
5748 2 812 1435 1627 1579
5749 1 779 1431 1589 1517
5750 2 779 1431 1589 1541
5751 1 1598 1431 1589 1517
5752 2 1598 1431 1589 1541
5753 1 784 1431 1589 1517
5754 2 784 1431 1589 1541
5755 1 1589 1431 1598 1526
5756 2 1589 1431 1598 1546
5757 1 779 1431 1598 1526
5758 2 779 1431 1598 1546
5759 1 784 1431 1598 1526
5760 2 784 1431 1598 1546
5761 1 1416 1236 1616 1556
5762 2 1416 1236 1616 1580
5763 1 1422 1236 1616 1556
5764 2 1422 1236 1616 1580
5765 1 1630 1236 1616 1556
5766 2 1630 1236 1616 1580
5767 1 1616 1236 1416 1356
5768 2 1616 1236 1416 1380
5769 1 1422 1236 1416 1356
5770 2 1422 1236 1416 1380
5771 1 1630 1236 1416 1356
5772 2 1630 1236 1416 1380
5773 1 1616 1236 1422 1362
5774 2 1616 1236 1422 1369
5775 1 1416 1236 1422 1362
5776 2 1416 1236 1422 1369
5777 1 1630 1236 1422 1362
5778 2 1630 1236 1422 1369
5779 1 1616 1236 1630 1570
5780 2 1616 1236 1630 1574
5781 1 1416 1236 1630 1570
5782 2 1416 1236 1630 1574
5783 1 1422 1236 1630 1570
5784 2 1422 1236 1630 1574
5785 3 1449 1521 1571 1499
5786 4 1449 1521 1571 1631
5787 4 1593 1521 1571 1499
5788 5 1593 1521 1571 1631
5789 6 1449 1521 1593 1433
5790 7 1449 1521 1593 1545
5791 8 1571 1521 1593 1433
5792 9 1571 1521 1593 1545
5793 3 1454 1526 1558 1486
5794 4 1454 1526 1558 1618
5795 4 1598 1526 1558 1486
5796 5 1598 1526 1558 1618
5797 6 1454 1526 1598 1431
5798 7 1454 1526 1598 1546
5799 8 1558 1526 1598 1431
5800 9 1558 1526 1598 1546
5801 10 1467 1545 1593 1433
5802 11 1467 1545 1593 1521
5803 12 1631 1545 1593 1433
5804 13 1631 1545 1593 1521
5805 10 1467 1545 1631 1028
5806 11 1467 1545 1631 1571
5807 12 1593 1545 1631 1028
5808 13 1593 1545 1631 1571
5809 10 1471 1546 1598 1431
5810 11 1471 1546 1598 1526
5811 12 1618 1546 1598 1431
5812 13 1618 1546 1598 1526
5813 10 1471 1546 1618 1030
5814 11 1471 1546 1618 1558
5815 12 1598 1546 1618 1030
5816 13 1598 1546 1618 1558
5817 3 1477 1549 1566 1494
5818 4 1477 1549 1566 1626
5819 4 1609 1549 1566 1494
5820 5 1609 1549 1566 1626
5821 6 1477 1549 1609 1435
5822 7 1477 1549 1609 1573
5823 8 1566 1549 1609 1435
5824 9 1566 1549 1609 1573
5825 6 1486 1558 1618 1030
5826 7 1486 1558 1618 1546
5827 8 1526 1558 1618 1030
5828 9 1526 1558 1618 1546
5829 6 1494 1566 1626 1440
5830 7 1494 1566 1626 1573
5831 8 1549 1566 1626 1440
5832 9 1549 1566 1626 1573
5833 6 1499 1571 1631 1028
5834 7 1499 1571 1631 1545
5835 8 1521 1571 1631 1028
5836 9 1521 1571 1631 1545
5837 10 1506 1573 1609 1435
5838 11 1506 1573 1609 1549
5839 12 1626 1573 1609 1435
5840 13 1626 1573 1609 1549
5841 10 1506 1573 1626 1440
5842 11 1506 1573 1626 1566
5843 12 1609 1573 1626 1440
5844 13 1609 1573 1626 1566
5845 3 1443 1515 1569 1497
5846 4 1443 1515 1569 1629
5847 4 1587 1515 1569 1497
5848 5 1587 1515 1569 1629
5849 6 1443 1515 1587 1021
5850 7 1443 1515 1587 1539
5851 8 1569 1515 1587 1021
5852 9 1569 1515 1587 1539
5853 3 1445 1517 1529 1457
5854 4 1445 1517 1529 1601
5855 4 1589 1517 1529 1457
5856 5 1589 1517 1529 1601
5857 6 1445 1517 1589 1431
5858 7 1445 1517 1589 1541
5859 8 1529 1517 1589 1431
5860 9 1529 1517 1589 1541
5861 3 1455 1527 1556 1484
5862 4 1455 1527 1556 1616
5863 4 1599 1527 1556 1484
5864 5 1599 1527 1556 1616
5865 6 1455 1527 1599 1229
5866 7 1455 1527 1599 1580
5867 8 1556 1527 1599 1229
5868 9 1556 1527 1599 1580
5869 6 1457 1529 1601 1430
5870 7 1457 1529 1601 1541
5871 8 1517 1529 1601 1430
5872 9 1517 1529 1601 1541
5873 10 1068 1539 1587 1021
5874 11 1068 1539 1587 1515
5875 12 1629 1539 1587 1021
5876 13 1629 1539 1587 1515
5877 10 1068 1539 1629 1030
5878 11 1068 1539 1629 1569
5879 12 1587 1539 1629 1030
5880 13 1587 1539 1629 1569
5881 10 649 1541 1589 1431
5882 11 649 1541 1589 1517
5883 12 1601 1541 1589 1431
5884 13 1601 1541 1589 1517
5885 10 649 1541 1601 1430
5886 11 649 1541 1601 1529
5887 12 1589 1541 1601 1430
5888 13 1589 1541 1601 1529
5889 6 1484 1556 1616 1236
5890 7 1484 1556 1616 1580
5891 8 1527 1556 1616 1236
5892 9 1527 1556 1616 1580
5893 6 1497 1569 1629 1030
5894 7 1497 1569 1629 1539
5895 8 1515 1569 1629 1030
5896 9 1515 1569 1629 1539
5897 10 1307 1580 1599 1229
5898 11 1307 1580 1599 1527
5899 12 1616 1580 1599 1229
5900 13 1616 1580 1599 1527
5901 10 1307 1580 1616 1236
5902 11 1307 1580 1616 1556
5903 12 1599 1580 1616 1236
5904 13 1599 1580 1616 1556
5905 1 1389 1229 1591 1519
5906 2 1389 1229 1591 1543
5907 1 1393 1229 1591 1519
5908 2 1393 1229 1591 1543
5909 1 1599 1229 1591 1519
5910 2 1599 1229 1591 1543
5911 1 1591 1229 1389 1317
5912 2 1591 1229 1389 1341
5913 1 1393 1229 1389 1317
5914 2 1393 1229 1389 1341
5915 1 1599 1229 1389 1317
5916 2 1599 1229 1389 1341
5917 1 1591 1229 1393 1321
5918 2 1591 1229 1393 1338
5919 1 1389 1229 1393 1321
5920 2 1389 1229 1393 1338
5921 1 1599 1229 1393 1321
5922 2 1599 1229 1393 1338
5923 1 1591 1229 1599 1527
5924 2 1591 1229 1599 1580
5925 1 1389 1229 1599 1527
5926 2 1389 1229 1599 1580
5927 1 1393 1229 1599 1527
5928 2 1393 1229 1599 1580
5929 3 1446 1518 1525 1453
5930 4 1446 1518 1525 1597
5931 4 1590 1518 1525 1453
5932 5 1590 1518 1525 1597
5933 6 1446 1518 1590 1432
5934 7 1446 1518 1590 1542
5935 8 1525 1518 1590 1432
5936 9 1525 1518 1590 1542
5937 3 1451 1523 1568 1496
5938 4 1451 1523 1568 1628
5939 4 1595 1523 1568 1496
5940 5 1595 1523 1568 1628
5941 6 1451 1523 1595 615
5942 7 1451 1523 1595 1583
5943 8 1568 1523 1595 615
5944 9 1568 1523 1595 1583
5945 6 1453 1525 1597 1433
5946 7 1453 1525 1597 1542
5947 8 1518 1525 1597 1433
5948 9 1518 1525 1597 1542
5949 3 1462 1534 1550 1478
5950 4 1462 1534 1550 1610
5951 4 1606 1534 1550 1478
5952 5 1606 1534 1550 1610
5953 6 1462 1534 1606 1026
5954 7 1462 1534 1606 1538
5955 8 1550 1534 1606 1026
5956 9 1550 1534 1606 1538
5957 10 1066 1538 1606 1026
5958 11 1066 1538 1606 1534
5959 12 1610 1538 1606 1026
5960 13 1610 1538 1606 1534
5961 10 1066 1538 1610 1028
5962 11 1066 1538 1610 1550
5963 12 1606 1538 1610 1028
5964 13 1606 1538 1610 1550
5965 10 1265 1542 1590 1432
5966 11 1265 1542 1590 1518
5967 12 1597 1542 1590 1432
5968 13 1597 1542 1590 1518
5969 10 1265 1542 1597 1433
5970 11 1265 1542 1597 1525
5971 12 1590 1542 1597 1433
5972 13 1590 1542 1597 1525
5973 6 1478 1550 1610 1028
5974 7 1478 1550 1610 1538
5975 8 1534 1550 1610 1028
5976 9 1534 1550 1610 1538
5977 6 1496 1568 1628 619
5978 7 1496 1568 1628 1583
5979 8 1523 1568 1628 619
5980 9 1523 1568 1628 1583
5981 10 688 1583 1595 615
5982 11 688 1583 1595 1523
5983 12 1628 1583 1595 615
5984 13 1628 1583 1595 1523
5985 10 688 1583 1628 619
5986 11 688 1583 1628 1568
5987 12 1595 1583 1628 619
5988 13 1595 1583 1628 1568
5989 1 1588 614 770 698
5990 2 1588 614 770 758
5991 1 785 614 770 698
5992 2 785 614 770 758
5993 1 1607 614 770 698
5994 2 1607 614 770 758
5995 1 770 614 1588 1516
5996 2 770 614 1588 1540
5997 1 785 614 1588 1516
5998 2 785 614 1588 1540
5999 1 1607 614 1588 1516
6000 2 1607 614 1588 1540
6001 1 770 614 785 713
6002 2 770 614 785 725
6003 1 1588 614 785 713
6004 2 1588 614 785 725
6005 1 1607 614 785 713
6006 2 1607 614 785 725
6007 1 770 614 1607 1535
6008 2 770 614 1607 1581
6009 1 1588 614 1607 1535
6010 2 1588 614 1607 1581
6011 1 785 614 1607 1535
6012 2 785 614 1607 1581
6013 3 1444 1516 1536 1464
6014 4 1444 1516 1536 1608
6015 4 1588 1516 1536 1464
6016 5 1588 1516 1536 1608
6017 6 1444 1516 1588 614
6018 7 1444 1516 1588 1540
6019 8 1536 1516 1588 614
6020 9 1536 1516 1588 1540
6021 3 1447 1519 1531 1459
6022 4 1447 1519 1531 1603
6023 4 1591 1519 1531 1459
6024 5 1591 1519 1531 1603
6025 6 1447 1519 1591 1229
6026 7 1447 1519 1591 1543
6027 8 1531 1519 1591 1229
6028 9 1531 1519 1591 1543
6029 3 1452 1524 1528 1456
6030 4 1452 1524 1528 1600
6031 4 1596 1524 1528 1456
6032 5 1596 1524 1528 1600
6033 6 1452 1524 1596 1026
6034 7 1452 1524 1596 1548
6035 8 1528 1524 1596 1026
6036 9 1528 1524 1596 1548
6037 6 1456 1528 1600 615
6038 7 1456 1528 1600 1548
6039 8 1524 1528 1600 615
6040 9 1524 1528 1600 1548
6041 6 1459 1531 1603 1021
6042 7 1459 1531 1603 1543
6043 8 1519 1531 1603 1021
6044 9 1519 1531 1603 1543
6045 6 1464 1536 1608 1228
6046 7 1464 1536 1608 1540
6047 8 1516 1536 1608 1228
6048 9 1516 1536 1608 1540
6049 10 1472 1540 1588 614
6050 11 1472 1540 1588 1516
6051 12 1608 1540 1588 614
6052 13 1608 1540 1588 1516
6053 10 1472 1540 1608 1228
6054 11 1472 1540 1608 1536
6055 12 1588 1540 1608 1228
6056 13 1588 1540 1608 1536
6057 10 1466 1543 1591 1229
6058 11 1466 1543 1591 1519
6059 12 1603 1543 1591 1229
6060 13 1603 1543 1591 1519
6061 10 1466 1543 1603 1021
6062 11 1466 1543 1603 1531
6063 12 1591 1543 1603 1021
6064 13 1591 1543 1603 1531
6065 10 1473 1548 1596 1026
6066 11 1473 1548 1596 1524
6067 12 1600 1548 1596 1026
6068 13 1600 1548 1596 1524
6069 10 1473 1548 1600 615
6070 11 1473 1548 1600 1528
6071 12 1596 1548 1600 615
6072 13 1596 1548 1600 1528
6073 1 1594 1228 1386 1314
6074 2 1594 1228 1386 1338
6075 1 1401 1228 1386 1314
6076 2 1401 1228 1386 1338
6077 1 1608 1228 1386 1314
6078 2 1608 1228 1386 1338
6079 1 1386 1228 1594 1522
6080 2 1386 1228 1594 1582
6081 1 1401 1228 1594 1522
6082 2 1401 1228 1594 1582
6083 1 1608 1228 1594 1522
6084 2 1608 1228 1594 1582
6085 1 1386 1228 1401 1329
6086 2 1386 1228 1401 1371
6087 1 1594 1228 1401 1329
6088 2 1594 1228 1401 1371
6089 1 1608 1228 1401 1329
6090 2 1608 1228 1401 1371
6091 1 1386 1228 1608 1536
6092 2 1386 1228 1608 1540
6093 1 1594 1228 1608 1536
6094 2 1594 1228 1608 1540
6095 1 1401 1228 1608 1536
6096 2 1401 1228 1608 1540
6097 1 1611 619 793 733
6098 2 1611 619 793 757
6099 1 811 619 793 733
6100 2 811 619 793 757
6101 1 1628 619 793 733
6102 2 1628 619 793 757
6103 1 793 619 1611 1551
6104 2 793 619 1611 1575
6105 1 811 619 1611 1551
6106 2 811 619 1611 1575
6107 1 1628 619 1611 1551
6108 2 1628 619 1611 1575
6109 1 793 619 811 751
6110 2 793 619 811 763
6111 1 1611 619 811 751
6112 2 1611 619 811 763
6113 1 1628 619 811 751
6114 2 1628 619 811 763
6115 1 793 619 1628 1568
6116 2 793 619 1628 1583
6117 1 1611 619 1628 1568
6118 2 1611 619 1628 1583
6119 1 811 619 1628 1568
6120 2 811 619 1628 1583
6121 1 1595 615 773 701
6122 2 1595 615 773 725
6123 1 782 615 773 701
6124 2 782 615 773 725
6125 1 1600 615 773 701
6126 2 1600 615 773 725
6127 1 773 615 1595 1523
6128 2 773 615 1595 1583
6129 1 782 615 1595 1523
6130 2 782 615 1595 1583
6131 1 1600 615 1595 1523
6132 2 1600 615 1595 1583
6133 1 773 615 782 710
6134 2 773 615 782 730
6135 1 1595 615 782 710
6136 2 1595 615 782 730
6137 1 1600 615 782 710
6138 2 1600 615 782 730
6139 1 773 615 1600 1528
6140 2 773 615 1600 1548
6141 1 1595 615 1600 1528
6142 2 1595 615 1600 1548
6143 1 782 615 1600 1528
6144 2 782 615 1600 1548

Impropers

1 3 186 10 126 150
2 3 204 10 144 148
3 3 598 10 526 538
4 3 609 10 519 549
5 1 124 52 144 184
6 1 127 55 139 187
7 1 132 60 136 192
8 1 136 64 132 196
9 1 139 67 127 199
10 1 144 72 124 204
11 2 149 73 185 197
12 2 150 77 186 193
13 2 145 78 181 198
14 3 191 213 119 131
15 3 194 213 134 154
16 3 389 213 329 353
17 3 400 213 340 360
18 1 86 14 142 158
19 1 104 32 131 176
20 2 519 48 567 609
21 1 126 54 133 186
22 1 131 59 104 191
23 1 133 61 126 193
24 1 142 70 86 202
25 2 969 75 995 1005
26 2 360 81 396 400
27 3 184 8 124 148
28 3 197 8 137 149
29 3 590 8 518 530
30 3 611 8 525 551
31 3 157 1 85 109
32 3 176 1 104 119
33 3 567 1 495 519
34 3 583 1 511 523
35 1 92 20 135 164
36 1 105 33 123 177
37 2 518 46 586 590
38 1 123 51 105 183
39 1 125 53 137 185
40 1 135 63 92 195
41 1 137 65 125 197
42 2 967 74 1003 1015
43 2 358 79 370 398
44 3 164 6 92 116
45 3 174 6 102 109
46 3 576 6 504 528
47 3 586 6 514 518
48 1 85 13 102 157
49 1 94 22 134 166
50 1 102 30 85 174
51 1 107 35 129 179
52 2 119 40 176 191
53 2 112 44 160 180
54 2 116 47 164 195
55 1 129 57 107 189
56 1 134 62 94 194
57 3 189 827 129 153
58 3 195 827 116 135
59 3 1003 827 943 967
60 3 1009 827 949 966
61 3 1002 826 942 966
62 3 1020 826 960 964
63 3 1414 826 1342 1354
64 3 1425 826 1335 1365
65 1 940 868 960 1000
66 1 943 871 955 1003
67 1 948 876 952 1008
68 1 952 880 948 1012
69 1 955 883 943 1015
70 1 960 888 940 1020
71 2 965 889 1001 1013
72 2 966 893 1002 1009
73 2 961 894 997 1014
74 3 1007 1029 935 947
75 3 1010 1029 950 970
76 3 1205 1029 1145 1169
77 3 1216 1029 1156 1176
78 1 902 830 958 974
79 1 920 848 947 992
80 2 1335 864 1383 1425
81 1 942 870 949 1002
82 1 947 875 920 1007
83 1 949 877 942 1009
84 1 958 886 902 1018
85 2 153 891 179 189
86 2 1176 897 1212 1216
87 3 1000 824 940 964
88 3 1013 824 953 965
89 3 1406 824 1334 1346
90 3 1427 824 1341 1367
91 3 973 817 901 925
92 3 992 817 920 935
93 3 1383 817 1311 1335
94 3 1399 817 1327 1339
95 1 908 836 951 980
96 1 921 849 939 993
97 2 1334 862 1402 1406
98 1 939 867 921 999
99 1 941 869 953 1001
100 1 951 879 908 1011
101 1 953 881 941 1013
102 2 151 890 187 199
103 2 1174 895 1186 1214
104 3 980 822 908 932
105 3 990 822 918 925
106 3 1392 822 1320 1344
107 3 1402 822 1330 1334
108 1 901 829 918 973
109 1 910 838 950 982
110 1 918 846 901 990
111 1 923 851 945 995
112 2 935 856 992 1007
113 2 928 860 976 996
114 2 932 863 980 1011
115 1 945 873 923 1005
116 1 950 878 910 1010
117 3 187 11 127 151
118 3 193 11 133 150
119 3 1005 11 945 969
120 3 1011 11 932 951
121 3 188 216 128 152
122 3 202 216 142 146
123 3 396 216 336 360
124 3 402 216 342 349
125 1 93 21 143 165
126 1 98 26 130 170
127 1 121 49 138 181
128 1 130 58 98 190
129 1 138 66 121 198
130 1 143 71 93 203
131 2 971 76 983 1016
132 2 556 80 592 612
133 2 356 83 375 392
134 1 87 15 141 159
135 1 89 17 101 161
136 1 99 27 128 171
137 1 101 29 89 173
138 2 115 38 163 175
139 2 118 43 170 190
140 1 128 56 99 188
141 1 141 69 87 201
142 2 146 82 158 202
143 3 163 209 91 115
144 3 171 209 99 152
145 3 369 209 297 321
146 3 373 209 301 318
147 3 160 818 88 112
148 3 179 818 107 153
149 3 974 818 902 962
150 3 989 818 917 929
151 1 90 18 97 162
152 1 95 23 140 167
153 1 97 25 90 169
154 1 106 34 122 178
155 2 117 39 165 203
156 2 120 45 168 172
157 1 122 50 106 182
158 1 140 68 95 200
159 2 147 84 177 183
160 1 88 16 108 160
161 1 91 19 103 163
162 1 96 24 100 168
163 1 100 28 96 172
164 1 103 31 91 175
165 1 108 36 88 180
166 2 929 37 977 989
167 2 318 41 366 373
168 2 517 42 565 582
169 3 166 208 94 154
170 3 180 208 108 112
171 3 366 208 294 318
172 3 381 208 309 351
173 3 183 823 123 147
174 3 200 823 140 155
175 3 997 823 937 961
176 3 1015 823 955 967
177 3 167 819 95 155
178 3 172 819 100 120
179 3 977 819 905 929
180 3 986 819 914 934
181 3 1004 1032 944 968
182 3 1018 1032 958 962
183 3 1212 1032 1152 1176
184 3 1218 1032 1158 1165
185 1 909 837 959 981
186 1 914 842 946 986
187 1 937 865 954 997
188 1 946 874 914 1006
189 1 954 882 937 1014
190 1 959 887 909 1019
191 2 155 892 167 200
192 2 1372 896 1408 1428
193 2 1172 899 1191 1208
194 1 903 831 957 975
195 1 905 833 917 977
196 1 915 843 944 987
197 1 917 845 905 989
198 2 931 854 979 991
199 2 934 859 986 1006
200 1 944 872 915 1004
201 1 957 885 903 1017
202 2 962 898 974 1018
203 3 979 1025 907 931
204 3 987 1025 915 968
205 3 1185 1025 1113 1137
206 3 1189 1025 1117 1134
207 1 906 834 913 978
208 1 911 839 956 983
209 1 913 841 906 985
210 1 922 850 938 994
211 2 933 855 981 1019
212 2 936 861 984 988
213 1 938 866 922 998
214 1 956 884 911 1016
215 2 963 900 993 999
216 3 158 2 86 146
217 3 173 2 101 113
218 3 976 2 904 928
219 3 995 2 923 969
220 1 904 832 924 976
221 1 907 835 919 979
222 1 912 840 916 984
223 1 916 844 912 988
224 1 919 847 907 991
225 1 924 852 904 996
226 2 113 853 161 173
227 2 1134 857 1182 1189
228 2 1333 858 1381 1398
229 3 982 1024 910 970
230 3 996 1024 924 928
231 3 1182 1024 1110 1134
232 3 1197 1024 1125 1167
233 3 181 7 121 145
234 3 199 7 139 151
235 3 999 7 939 963
236 3 1016 7 956 971
237 3 161 3 89 113
238 3 170 3 98 118
239 3 983 3 911 971
240 3 988 3 916 936
241 3 190 418 118 130
242 3 201 418 111 141
243 3 594 418 534 558
244 3 612 418 552 556
245 1 532 460 552 592
246 1 535 463 547 595
247 1 540 468 544 600
248 1 544 472 540 604
249 1 547 475 535 607
250 1 552 480 532 612
251 2 557 481 593 605
252 2 558 485 594 601
253 2 553 486 589 606
254 3 599 621 527 539
255 3 602 621 542 562
256 3 797 621 737 761
257 3 808 621 748 768
258 1 494 422 550 566
259 1 512 440 539 584
260 2 111 456 159 201
261 1 534 462 541 594
262 1 539 467 512 599
263 1 541 469 534 601
264 1 550 478 494 610
265 2 1377 483 1403 1413
266 2 768 489 804 808
267 3 182 416 110 122
268 3 203 416 117 143
269 3 592 416 532 556
270 3 605 416 545 557
271 3 159 409 87 111
272 3 175 409 103 115
273 3 565 409 493 517
274 3 584 409 512 527
275 1 500 428 543 572
276 1 513 441 531 585
277 2 110 454 178 182
278 1 531 459 513 591
279 1 533 461 545 593
280 1 543 471 500 603
281 1 545 473 533 605
282 2 1375 482 1411 1423
283 2 766 487 778 806
284 3 168 414 96 120
285 3 178 414 106 110
286 3 572 414 500 524
287 3 582 414 510 517
288 1 493 421 510 565
289 1 502 430 542 574
290 1 510 438 493 582
291 1 515 443 537 587
292 2 527 448 584 599
293 2 520 452 568 588
294 2 524 455 572 603
295 1 537 465 515 597
296 1 542 470 502 602
297 3 597 1235 537 561
298 3 603 1235 524 543
299 3 1411 1235 1351 1375
300 3 1417 1235 1357 1374
301 3 1006 1234 934 946
302 3 1017 1234 927 957
303 3 1410 1234 1350 1374
304 3 1428 1234 1368 1372
305 1 1348 1276 1368 1408
306 1 1351 1279 1363 1411
307 1 1356 1284 1360 1416
308 1 1360 1288 1356 1420
309 1 1363 1291 1351 1423
310 1 1368 1296 1348 1428
311 2 1373 1297 1409 1421
312 2 1374 1301 1410 1417
313 2 1369 1302 1405 1422
314 3 1415 1437 1343 1355
315 3 1418 1437 1358 1378
316 3 1613 1437 1553 1577
317 3 1624 1437 1564 1584
318 1 1310 1238 1366 1382
319 1 1328 1256 1355 1400
320 2 927 1272 975 1017
321 1 1350 1278 1357 1410
322 1 1355 1283 1328 1415
323 1 1357 1285 1350 1417
324 1 1366 1294 1310 1426
325 2 561 1299 587 597
326 2 1584 1305 1620 1624
327 3 998 1232 926 938
328 3 1019 1232 933 959
329 3 1408 1232 1348 1372
330 3 1421 1232 1361 1373
331 3 975 1225 903 927
332 3 991 1225 919 931
333 3 1381 1225 1309 1333
334 3 1400 1225 1328 1343
335 1 1316 1244 1359 1388
336 1 1329 1257 1347 1401
337 2 926 1270 994 998
338 1 1347 1275 1329 1407
339 1 1349 1277 1361 1409
340 1 1359 1287 1316 1419
341 1 1361 1289 1349 1421
342 2 559 1298 595 607
343 2 1582 1303 1594 1622
344 3 984 1230 912 936
345 3 994 1230 922 926
346 3 1388 1230 1316 1340
347 3 1398 1230 1326 1333
348 1 1309 1237 1326 1381
349 1 1318 1246 1358 1390
350 1 1326 1254 1309 1398
351 1 1331 1259 1353 1403
352 2 1343 1264 1400 1415
353 2 1336 1268 1384 1404
354 2 1340 1271 1388 1419
355 1 1353 1281 1331 1413
356 1 1358 1286 1318 1418
357 3 595 419 535 559
358 3 601 419 541 558
359 3 1413 419 1353 1377
360 3 1419 419 1340 1359
361 3 596 624 536 560
362 3 610 624 550 554
363 3 804 624 744 768
364 3 810 624 750 757
365 1 501 429 551 573
366 1 506 434 538 578
367 1 529 457 546 589
368 1 538 466 506 598
369 1 546 474 529 606
370 1 551 479 501 611
371 2 1379 484 1391 1424
372 2 148 488 184 204
373 2 764 491 783 800
374 1 495 423 549 567
375 1 497 425 509 569
376 1 507 435 536 579
377 1 509 437 497 581
378 2 523 446 571 583
379 2 526 451 578 598
380 1 536 464 507 596
381 1 549 477 495 609
382 2 554 490 566 610
383 3 571 617 499 523
384 3 579 617 507 560
385 3 777 617 705 729
386 3 781 617 709 726
387 3 568 1226 496 520
388 3 587 1226 515 561
389 3 1382 1226 1310 1370
390 3 1397 1226 1325 1337
391 1 498 426 505 570
392 1 503 431 548 575
393 1 505 433 498 577
394 1 514 442 530 586
395 2 525 447 573 611
396 2 528 453 576 580
397 1 530 458 514 590
398 1 548 476 503 608
399 2 555 492 585 591
400 1 496 424 516 568
401 1 499 427 511 571
402 1 504 432 508 576
403 1 508 436 504 580
404 1 511 439 499 583
405 1 516 444 496 588
406 2 1337 445 1385 1397
407 2 726 449 774 781
408 2 109 450 157 174
409 3 574 616 502 562
410 3 588 616 516 520
411 3 774 616 702 726
412 3 789 616 717 759
413 3 591 1231 531 555
414 3 608 1231 548 563
415 3 1405 1231 1345 1369
416 3 1423 1231 1363 1375
417 3 575 1227 503 563
418 3 580 1227 508 528
419 3 1385 1227 1313 1337
420 3 1394 1227 1322 1342
421 3 1412 1440 1352 1376
422 3 1426 1440 1366 1370
423 3 1620 1440 1560 1584
424 3 1626 1440 1566 1573
425 1 1317 1245 1367 1389
426 1 1322 1250 1354 1394
427 1 1345 1273 1362 1405
428 1 1354 1282 1322 1414
429 1 1362 1290 1345 1422
430 1 1367 1295 1317 1427
431 2 563 1300 575 608
432 2 964 1304 1000 1020
433 2 1580 1307 1599 1616
434 1 1311 1239 1365 1383
435 1 1313 1241 1325 1385
436 1 1323 1251 1352 1395
437 1 1325 1253 1313 1397
438 2 1339 1262 1387 1399
439 2 1342 1267 1394 1414
440 1 1352 1280 1323 1412
441 1 1365 1293 1311 1425
442 2 1370 1306 1382 1426
443 3 1387 1433 1315 1339
444 3 1395 1433 1323 1376
445 3 1593 1433 1521 1545
446 3 1597 1433 1525 1542
447 1 1314 1242 1321 1386
448 1 1319 1247 1364 1391
449 1 1321 1249 1314 1393
450 1 1330 1258 1346 1402
451 2 1341 1263 1389 1427
452 2 1344 1269 1392 1396
453 1 1346 1274 1330 1406
454 1 1364 1292 1319 1424
455 2 1371 1308 1401 1407
456 3 566 410 494 554
457 3 581 410 509 521
458 3 1384 410 1312 1336
459 3 1403 410 1331 1377
460 1 1312 1240 1332 1384
461 1 1315 1243 1327 1387
462 1 1320 1248 1324 1392
463 1 1324 1252 1320 1396
464 1 1327 1255 1315 1399
465 1 1332 1260 1312 1404
466 2 521 1261 569 581
467 2 1542 1265 1590 1597
468 2 925 1266 973 990
469 3 1390 1432 1318 1378
470 3 1404 1432 1332 1336
471 3 1590 1432 1518 1542
472 3 1605 1432 1533 1575
473 3 589 415 529 553
474 3 607 415 547 559
475 3 1407 415 1347 1371
476 3 1424 415 1364 1379
477 3 569 411 497 521
478 3 578 411 506 526
479 3 1391 411 1319 1379
480 3 1396 411 1324 1344
481 3 390 214 330 354
482 3 408 214 348 352
483 3 802 214 730 742
484 3 813 214 723 753
485 1 328 256 348 388
486 1 331 259 343 391
487 1 336 264 340 396
488 1 340 268 336 400
489 1 343 271 331 403
490 1 348 276 328 408
491 2 353 277 389 401
492 2 354 281 390 397
493 2 349 282 385 402
494 3 185 9 125 149
495 3 196 9 136 156
496 3 395 9 323 335
497 3 398 9 338 358
498 1 290 218 346 362
499 1 308 236 335 380
500 2 723 252 771 813
501 1 330 258 337 390
502 1 335 263 308 395
503 1 337 265 330 397
504 1 346 274 290 406
505 2 1173 279 1199 1209
506 2 156 285 192 196
507 3 388 212 328 352
508 3 401 212 341 353
509 3 794 212 722 734
510 3 815 212 729 755
511 3 361 205 289 313
512 3 380 205 308 323
513 3 771 205 699 723
514 3 787 205 715 727
515 1 296 224 339 368
516 1 309 237 327 381
517 2 722 250 790 794
518 1 327 255 309 387
519 1 329 257 341 389
520 1 339 267 296 399
521 1 341 269 329 401
522 2 1171 278 1207 1219
523 2 154 283 166 194
524 3 368 210 296 320
525 3 378 210 306 313
526 3 780 210 708 732
527 3 790 210 718 722
528 1 289 217 306 361
529 1 298 226 338 370
530 1 306 234 289 378
531 1 311 239 333 383
532 2 323 244 380 395
533 2 316 248 364 384
534 2 320 251 368 399
535 1 333 261 311 393
536 1 338 266 298 398
537 3 393 1031 333 357
538 3 399 1031 320 339
539 3 1207 1031 1147 1171
540 3 1213 1031 1153 1170
541 3 1206 1030 1146 1170
542 3 1224 1030 1164 1168
543 3 1618 1030 1546 1558
544 3 1629 1030 1539 1569
545 1 1144 1072 1164 1204
546 1 1147 1075 1159 1207
547 1 1152 1080 1156 1212
548 1 1156 1084 1152 1216
549 1 1159 1087 1147 1219
550 1 1164 1092 1144 1224
551 2 1169 1093 1205 1217
552 2 1170 1097 1206 1213
553 2 1165 1098 1201 1218
554 3 1001 825 941 965
555 3 1012 825 952 972
556 3 1211 825 1139 1151
557 3 1214 825 1154 1174
558 1 1106 1034 1162 1178
559 1 1124 1052 1151 1196
560 2 1539 1068 1587 1629
561 1 1146 1074 1153 1206
562 1 1151 1079 1124 1211
563 1 1153 1081 1146 1213
564 1 1162 1090 1106 1222
565 2 357 1095 383 393
566 2 972 1101 1008 1012
567 3 1204 1028 1144 1168
568 3 1217 1028 1157 1169
569 3 1610 1028 1538 1550
570 3 1631 1028 1545 1571
571 3 1177 1021 1105 1129
572 3 1196 1021 1124 1139
573 3 1587 1021 1515 1539
574 3 1603 1021 1531 1543
575 1 1112 1040 1155 1184
576 1 1125 1053 1143 1197
577 2 1538 1066 1606 1610
578 1 1143 1071 1125 1203
579 1 1145 1073 1157 1205
580 1 1155 1083 1112 1215
581 1 1157 1085 1145 1217
582 2 355 1094 391 403
583 2 970 1099 982 1010
584 3 1184 1026 1112 1136
585 3 1194 1026 1122 1129
586 3 1596 1026 1524 1548
587 3 1606 1026 1534 1538
588 1 1105 1033 1122 1177
589 1 1114 1042 1154 1186
590 1 1122 1050 1105 1194
591 1 1127 1055 1149 1199
592 2 1139 1060 1196 1211
593 2 1132 1064 1180 1200
594 2 1136 1067 1184 1215
595 1 1149 1077 1127 1209
596 1 1154 1082 1114 1214
597 3 391 215 331 355
598 3 397 215 337 354
599 3 1209 215 1149 1173
600 3 1215 215 1136 1155
601 3 192 12 132 156
602 3 198 12 138 145
603 3 392 12 332 356
604 3 406 12 346 350
605 1 297 225 347 369
606 1 302 230 334 374
607 1 325 253 342 385
608 1 334 262 302 394
609 1 342 270 325 402
610 1 347 275 297 407
611 2 1175 280 1187 1220
612 2 760 284 796 816
613 2 152 287 171 188
614 1 291 219 345 363
615 1 293 221 305 365
616 1 303 231 332 375
617 1 305 233 293 377
618 2 319 242 367 379
619 2 322 247 374 394
620 1 332 260 303 392
621 1 345 273 291 405
622 2 350 286 362 406
623 3 165 5 93 117
624 3 169 5 97 114
625 3 367 5 295 319
626 3 375 5 303 356
627 3 364 1022 292 316
628 3 383 1022 311 357
629 3 1178 1022 1106 1166
630 3 1193 1022 1121 1133
631 1 294 222 301 366
632 1 299 227 344 371
633 1 301 229 294 373
634 1 310 238 326 382
635 2 321 243 369 407
636 2 324 249 372 376
637 1 326 254 310 386
638 1 344 272 299 404
639 2 351 288 381 387
640 1 292 220 312 364
641 1 295 223 307 367
642 1 300 228 304 372
643 1 304 232 300 376
644 1 307 235 295 379
645 1 312 240 292 384
646 2 1133 241 1181 1193
647 2 114 245 162 169
648 2 721 246 769 786
649 3 162 4 90 114
650 3 177 4 105 147
651 3 370 4 298 358
652 3 384 4 312 316
653 3 387 1027 327 351
654 3 404 1027 344 359
655 3 1201 1027 1141 1165
656 3 1219 1027 1159 1171
657 3 371 1023 299 359
658 3 376 1023 304 324
659 3 1181 1023 1109 1133
660 3 1190 1023 1118 1138
661 3 1008 828 948 972
662 3 1014 828 954 961
663 3 1208 828 1148 1172
664 3 1222 828 1162 1166
665 1 1113 1041 1163 1185
666 1 1118 1046 1150 1190
667 1 1141 1069 1158 1201
668 1 1150 1078 1118 1210
669 1 1158 1086 1141 1218
670 1 1163 1091 1113 1223
671 2 359 1096 371 404
672 2 1576 1100 1612 1632
673 2 968 1103 987 1004
674 1 1107 1035 1161 1179
675 1 1109 1037 1121 1181
676 1 1119 1047 1148 1191
677 1 1121 1049 1109 1193
678 2 1135 1058 1183 1195
679 2 1138 1063 1190 1210
680 1 1148 1076 1119 1208
681 1 1161 1089 1107 1221
682 2 1166 1102 1178 1222
683 3 981 821 909 933
684 3 985 821 913 930
685 3 1183 821 1111 1135
686 3 1191 821 1119 1172
687 1 1110 1038 1117 1182
688 1 1115 1043 1160 1187
689 1 1117 1045 1110 1189
690 1 1126 1054 1142 1198
691 2 1137 1059 1185 1223
692 2 1140 1065 1188 1192
693 1 1142 1070 1126 1202
694 1 1160 1088 1115 1220
695 2 1167 1104 1197 1203
696 3 362 206 290 350
697 3 377 206 305 317
698 3 1180 206 1108 1132
699 3 1199 206 1127 1173
700 1 1108 1036 1128 1180
701 1 1111 1039 1123 1183
702 1 1116 1044 1120 1188
703 1 1120 1048 1116 1192
704 1 1123 1051 1111 1195
705 1 1128 1056 1108 1200
706 2 317 1057 365 377
707 2 930 1061 978 985
708 2 1537 1062 1585 1602
709 3 978 820 906 930
710 3 993 820 921 963
711 3 1186 820 1114 1174
712 3 1200 820 1128 1132
713 3 385 211 325 349
714 3 403 211 343 355
715 3 1203 211 1143 1167
716 3 1220 211 1160 1175
717 3 365 207 293 317
718 3 374 207 302 322
719 3 1187 207 1115 1175
720 3 1192 207 1120 1140
721 3 394 622 322 334
722 3 405 622 315 345
723 3 798 622 738 762
724 3 816 622 756 760
725 1 736 664 756 796
726 1 739 667 751 799
727 1 744 672 748 804
728 1 748 676 744 808
729 1 751 679 739 811
730 1 756 684 736 816
731 2 761 685 797 809
732 2 762 689 798 805
733 2 757 690 793 810
734 3 593 417 533 557
735 3 604 417 544 564
736 3 803 417 731 743
737 3 806 417 746 766
738 1 698 626 754 770
739 1 716 644 743 788
740 2 315 660 363 405
741 1 738 666 745 798
742 1 743 671 716 803
743 1 745 673 738 805
744 1 754 682 698 814
745 2 1581 687 1607 1617
746 2 564 693 600 604
747 3 386 620 314 326
748 3 407 620 321 347
749 3 796 620 736 760
750 3 809 620 749 761
751 3 363 613 291 315
752 3 379 613 307 319
753 3 769 613 697 721
754 3 788 613 716 731
755 1 704 632 747 776
756 1 717 645 735 789
757 2 314 658 382 386
758 1 735 663 717 795
759 1 737 665 749 797
760 1 747 675 704 807
761 1 749 677 737 809
762 2 1579 686 1615 1627
763 2 562 691 574 602
764 3 372 618 300 324
765 3 382 618 310 314
766 3 776 618 704 728
767 3 786 618 714 721
768 1 697 625 714 769
769 1 706 634 746 778
770 1 714 642 697 786
771 1 719 647 741 791
772 2 731 652 788 803
773 2 724 656 772 792
774 2 728 659 776 807
775 1 741 669 719 801
776 1 746 674 706 806
777 3 801 1439 741 765
778 3 807 1439 728 747
779 3 1615 1439 1555 1579
780 3 1621 1439 1561 1578
781 3 1210 1438 1138 1150
782 3 1221 1438 1131 1161
783 3 1614 1438 1554 1578
784 3 1632 1438 1572 1576
785 1 1552 1480 1572 1612
786 1 1555 1483 1567 1615
787 1 1560 1488 1564 1620
788 1 1564 1492 1560 1624
789 1 1567 1495 1555 1627
790 1 1572 1500 1552 1632
791 2 1577 1501 1613 1625
792 2 1578 1505 1614 1621
793 2 1573 1506 1609 1626
794 3 1409 1233 1349 1373
795 3 1420 1233 1360 1380
796 3 1619 1233 1547 1559
797 3 1622 1233 1562 1582
798 1 1514 1442 1570 1586
799 1 1532 1460 1559 1604
800 2 1131 1476 1179 1221
801 1 1554 1482 1561 1614
802 1 1559 1487 1532 1619
803 1 1561 1489 1554 1621
804 1 1570 1498 1514 1630
805 2 765 1503 791 801
806 2 1380 1509 1416 1420
807 3 1202 1436 1130 1142
808 3 1223 1436 1137 1163
809 3 1612 1436 1552 1576
810 3 1625 1436 1565 1577
811 3 1179 1429 1107 1131
812 3 1195 1429 1123 1135
813 3 1585 1429 1513 1537
814 3 1604 1429 1532 1547
815 1 1520 1448 1563 1592
816 1 1533 1461 1551 1605
817 2 1130 1474 1198 1202
818 1 1551 1479 1533 1611
819 1 1553 1481 1565 1613
820 1 1563 1491 1520 1623
821 1 1565 1493 1553 1625
822 2 763 1502 799 811
823 2 1378 1507 1390 1418
824 3 1188 1434 1116 1140
825 3 1198 1434 1126 1130
826 3 1592 1434 1520 1544
827 3 1602 1434 1530 1537
828 1 1513 1441 1530 1585
829 1 1522 1450 1562 1594
830 1 1530 1458 1513 1602
831 1 1535 1463 1557 1607
832 2 1547 1468 1604 1619
833 2 1540 1472 1588 1608
834 2 1544 1475 1592 1623
835 1 1557 1485 1535 1617
836 1 1562 1490 1522 1622
837 3 799 623 739 763
838 3 805 623 745 762
839 3 1617 623 1557 1581
840 3 1623 623 1544 1563
841 3 600 420 540 564
842 3 606 420 546 553
843 3 800 420 740 764
844 3 814 420 754 758
845 1 705 633 755 777
846 1 710 638 742 782
847 1 733 661 750 793
848 1 742 670 710 802
849 1 750 678 733 810
850 1 755 683 705 815
851 2 1583 688 1595 1628
852 2 352 692 388 408
853 2 560 695 579 596
854 1 699 627 753 771
855 1 701 629 713 773
856 1 711 639 740 783
857 1 713 641 701 785
858 2 727 650 775 787
859 2 730 655 782 802
860 1 740 668 711 800
861 1 753 681 699 813
862 2 758 694 770 814
863 3 573 413 501 525
864 3 577 413 505 522
865 3 775 413 703 727
866 3 783 413 711 764
867 3 772 1430 700 724
868 3 791 1430 719 765
869 3 1586 1430 1514 1574
870 3 1601 1430 1529 1541
871 1 702 630 709 774
872 1 707 635 752 779
873 1 709 637 702 781
874 1 718 646 734 790
875 2 729 651 777 815
876 2 732 657 780 784
877 1 734 662 718 794
878 1 752 680 707 812
879 2 759 696 789 795
880 1 700 628 720 772
881 1 703 631 715 775
882 1 708 636 712 780
883 1 712 640 708 784
884 1 715 643 703 787
885 1 720 648 700 792
886 2 1541 649 1589 1601
887 2 522 653 570 577
888 2 313 654 361 378
889 3 570 412 498 522
890 3 585 412 513 555
891 3 778 412 706 766
892 3 792 412 720 724
893 3 795 1435 735 759
894 3 812 1435 752 767
895 3 1609 1435 1549 1573
896 3 1627 1435 1567 1579
897 3 779 1431 707 767
898 3 784 1431 712 732
899 3 1589 1431 1517 1541
900 3 1598 1431 1526 1546
901 3 1416 1236 1356 1380
902 3 1422 1236 1362 1369
903 3 1616 1236 1556 1580
904 3 1630 1236 1570 1574
905 1 1521 1449 1571 1593
906 1 1526 1454 1558 1598
907 1 1549 1477 1566 1609
908 1 1558 1486 1526 1618
909 1 1566 1494 1549 1626
910 1 1571 1499 1521 1631
911 2 767 1504 779 812
912 2 1168 1508 1204 1224
913 2 1376 1511 1395 1412
914 1 1515 1443 1569 1587
915 1 1517 1445 1529 1589
916 1 1527 1455 1556 1599
917 1 1529 1457 1517 1601
918 2 1543 1466 1591 1603
919 2 1546 1471 1598 1618
920 1 1556 1484 1527 1616
921 1 1569 1497 1515 1629
922 2 1574 1510 1586 1630
923 3 1389 1229 1317 1341
924 3 1393 1229 1321 1338
925 3 1591 1229 1519 1543
926 3 1599 1229 1527 1580
927 1 1518 1446 1525 1590
928 1 1523 1451 1568 1595
929 1 1525 1453 1518 1597
930 1 1534 1462 1550 1606
931 2 1545 1467 1593 1631
932 2 1548 1473 1596 1600
933 1 1550 1478 1534 1610
934 1 1568 1496 1523 1628
935 2 1575 1512 1605 1611
936 3 770 614 698 758
937 3 785 614 713 725
938 3 1588 614 1516 1540
939 3 1607 614 1535 1581
940 1 1516 1444 1536 1588
941 1 1519 1447 1531 1591
942 1 1524 1452 1528 1596
943 1 1528 1456 1524 1600
944 1 1531 1459 1519 1603
945 1 1536 1464 1516 1608
946 2 725 1465 773 785
947 2 1338 1469 1386 1393
948 2 1129 1470 1177 1194
949 3 1386 1228 1314 1338
950 3 1401 1228 1329 1371
951 3 1594 1228 1522 1582
952 3 1608 1228 1536 1540
953 3 793 619 733 757
954 3 811 619 751 763
955 3 1611 619 1551 1575
956 3 1628 619 1568 1583
957 3 773 615 701 725
958 3 782 615 710 730
959 3 1595 615 1523 1583
960 3 1600 615 1528 1548
