Generated using phonoLAMMPS
1.0
       13.4100000000         0.0000000000         0.0000000000
        0.0000000000        13.4100000000         0.0000000000
        0.0000000000         0.0000000000         7.2000000000
Fe N C H 
2 8 24 16
Direct
1.000000000000000   1.000000000000000   0.250000000000000
1.000000000000000   1.000000000000000   0.750000000000000
1.000000000000000   0.881978156369075   0.909486744094864
0.881978156369075   1.000000000000000   0.409486744094863
0.118021843630925   1.000000000000000   0.409486744094863
1.000000000000000   0.118021843630925   0.090513255905137
1.000000000000000   0.881978156369075   0.090513255905137
0.118021843630925   1.000000000000000   0.590513255905137
0.881978156369075   1.000000000000000   0.590513255905137
1.000000000000000   0.118021843630925   0.909486744094864
0.786261262622209   1.000000000000000   0.349085655115723
0.553010204979553   1.000000000000000   0.333955392574191
0.213738737377791   1.000000000000000   0.349085655115723
0.446989795020447   1.000000000000000   0.333955392574191
1.000000000000000   0.213738737377790   0.150914344884278
1.000000000000000   0.446989795020447   0.166044607425810
1.000000000000000   0.786261262622209   0.150914344884278
1.000000000000000   0.553010204979553   0.166044607425810
1.000000000000000   0.213738737377790   0.849085655115723
0.213738737377791   1.000000000000000   0.650914344884278
0.446989795020447   1.000000000000000   0.666044607425810
0.786261262622209   1.000000000000000   0.650914344884278
0.553010204979553   1.000000000000000   0.666044607425810
1.000000000000000   0.446989795020447   0.833955392574191
1.000000000000000   0.280215095994128   0.000000000000000
1.000000000000000   0.389562878533163   0.000000000000000
1.000000000000000   0.719784904005872   0.000000000000000
1.000000000000000   0.610437121466836   0.000000000000000
0.719784904005872   1.000000000000000   0.500000000000000
0.610437121466836   1.000000000000000   0.500000000000000
0.280215095994128   1.000000000000000   0.500000000000000
0.389562878533163   1.000000000000000   0.500000000000000
1.000000000000000   0.786261262622209   0.849085655115723
1.000000000000000   0.553010204979553   0.833955392574191
1.000000000000000   0.766550701055926   0.712107965893832
1.000000000000000   0.588185172449809   0.708076594491360
0.766550701055926   1.000000000000000   0.212107965893832
0.588185172449809   1.000000000000000   0.208076594491359
0.233449298944073   1.000000000000000   0.212107965893832
0.411814827550191   1.000000000000000   0.208076594491359
1.000000000000000   0.233449298944073   0.287892034106168
1.000000000000000   0.411814827550191   0.291923405508641
1.000000000000000   0.766550701055926   0.287892034106168
1.000000000000000   0.588185172449809   0.291923405508641
0.233449298944073   1.000000000000000   0.787892034106169
0.411814827550191   1.000000000000000   0.791923405508641
0.766550701055926   1.000000000000000   0.787892034106169
0.588185172449809   1.000000000000000   0.791923405508641
1.000000000000000   0.233449298944073   0.712107965893832
1.000000000000000   0.411814827550191   0.708076594491360
