# LAMMPS data file written by OVITO Basic 3.12.4

1728 atoms
2112 bonds
4224 angles
3840 dihedrals
2304 impropers
4 atom types
5 bond types
8 angle types
3 dihedral types
1 improper types

-0.1497676619 32.9661476619 xlo xhi
-0.1262921631 27.7988321631 ylo yhi
-0.1873597495 41.2407397495 zlo zhi

Masses

1 50.9415  # V_6+3
2 15.9994  # O_2
3 12.0107  # C_R
4 1.00794  # H_

Bond Coeffs

    1      246.439309        2.024894  # V_6+3 O_2
    2      714.557442        1.269010  # O_2 C_R
    3      462.655054        1.379256  # C_R C_R
    4      357.440381        1.081418  # C_R H_
    5      391.669513        1.458000  # C_R C_R

Angle Coeffs

    1      112.204783               1               4 # O_2 V_6+3 O_2
    2       85.538740              -1               3 # V_6+3 O_2 C_R
    3       69.053070              -1               3 # V_6+3 O_2 V_6+3
    4      111.297508              -1               3 # C_R C_R C_R
    5       57.289016              -1               3 # C_R C_R H_
    6      102.183280              -1               3 # C_R C_R C_R
    7      206.778426              -1               3 # O_2 C_R O_2
    8      137.714246              -1               3 # O_2 C_R C_R

Dihedral Coeffs

    1        6.737110              -1               2 # V_6+3 O_2 C_R O_2
    2        3.368555              -1               2 # C_R C_R C_R C_R
    3        1.250000              -1               2 # C_R C_R C_R O_2

Improper Coeffs

    1        2.000000        1.000000       -1.000000        0.000000               0 # C_R C_R C_R H_

Pair Coeffs

    1        0.016000        2.800986 # V_6+3 V_6+3
    2        0.060000        3.118146 # O_2 O_2
    3        0.105000        3.430851 # C_R C_R
    4        0.044000        2.571134 # H_ H_

Atoms  # full

1	1	1	0	12.2501690443 	10.3451484250 	1.5385913309 
2	1	1	0	12.2501694716 	10.3454930863 	4.9909331671 
3	1	1	0	3.9711901316 	3.3642123505 	1.5385906389 
4	1	1	0	3.9711908445 	3.3638678046 	4.9909322557 
5	1	2	0	10.7980073169 	9.0745282281 	2.1380293400 
6	1	2	0	2.5190668668 	2.0931916043 	5.5903804659 
7	1	2	0	13.7024912401 	9.0750359556 	4.3916154844 
8	1	2	0	5.4235474917 	2.0938117102 	0.9392825588 
9	1	2	0	2.5295948598 	4.6457972353 	4.3879714526 
10	1	2	0	10.8086109824 	11.6271313843 	0.9356321233 
11	1	2	0	5.4126838357 	4.6460601420 	2.1416989888 
12	1	2	0	13.6917050807 	11.6272886838 	5.5940461945 
13	1	2	0	5.4235124552 	4.6343264204 	4.3916150939 
14	1	2	0	13.7025283215 	11.6155523179 	0.9392828772 
15	1	2	0	2.5190280200 	4.6348345462 	2.1380297278 
16	1	2	0	10.7980439679 	11.6161722001 	5.5903800779 
17	1	2	0	13.6916620203 	9.0633006976 	2.1417003065 
18	1	2	0	5.4127227396 	2.0820750018 	5.5940434306 
19	1	2	0	10.8085737913 	9.0635636443 	4.3879706011 
20	1	2	0	2.5296361778 	2.0822320621 	0.9356344433 
21	1	2	0	12.2502149228 	9.3790699654 	6.7171106040 
22	1	2	0	3.9712727253 	2.3977891815 	3.2647682255 
23	1	2	0	3.9712365293 	4.3302928592 	6.7171100402 
24	1	2	0	12.2502511670 	11.3115735260 	3.2647687427 
25	2	3	0	8.6247226863 	7.3257012883 	2.0539753983 
26	3	3	0	0.3458139212 	0.3443458157 	5.5063130243 
27	4	3	0	15.8750918919 	7.3256388195 	4.4761691632 
28	5	3	0	7.5961836774 	0.3444402472 	1.0238248469 
29	6	3	0	0.4044014185 	6.4536672014 	4.4752134581 
30	7	3	0	8.6834544121 	13.4350262038 	1.0228672891 
31	2	3	0	7.5375177712 	6.4536533536 	2.0549866402 
32	8	3	0	15.8165634757 	13.4348566130 	5.5073267263 
33	2	3	0	7.5961157724 	6.3837206938 	4.4761694877 
34	9	3	0	15.8751665667 	13.3649245325 	1.0238248668 
35	6	3	0	0.3457437281 	6.3836620525 	2.0539742430 
36	10	3	0	8.6247875484 	13.3650168734 	5.5063142733 
37	4	3	0	15.8164956011 	7.2557109333 	2.0549865348 
38	11	3	0	7.5375844360 	0.2745018581 	5.5073244331 
39	2	3	0	8.6833847185 	7.2556937141 	4.4752127379 
40	12	3	0	0.4044738954 	0.2743337059 	1.0228698189 
41	2	3	0	9.2105740110 	7.7366581032 	3.2639780358 
42	2	3	0	10.3484102395 	8.6789507343 	3.2632053636 
43	12	3	0	0.9316536889 	0.7552996006 	-0.1883580443 
44	3	3	0	2.0694957245 	1.6976170128 	6.7155279346 
45	4	3	0	15.2893891510 	7.7365808985 	3.2661993869 
46	4	3	0	14.1518384347 	8.6792231514 	3.2666251054 
47	5	3	0	7.0104673376 	0.7553798707 	-0.1861354697 
48	5	3	0	5.8729308690 	1.6979904261 	-0.1857308571 
49	6	3	0	0.9315937971 	5.9727018332 	3.2639789650 
50	6	3	0	2.0694290146 	5.0304113124 	3.2632008812 
51	7	3	0	9.2106278582 	12.9540624453 	-0.1883564861 
52	10	3	0	10.3484767204 	12.0117407263 	6.7155307020 
53	2	3	0	7.0104123979 	5.9727794805 	3.2661987903 
54	2	3	0	5.8728629673 	5.0301396049 	3.2666267826 
55	9	3	0	15.2894501266 	12.9539817369 	-0.1861378332 
56	9	3	0	14.1519064832 	12.0113666664 	-0.1857313194 
57	2	4	0	9.0015865552 	7.6795473812 	1.1024029540 
58	3	4	0	0.7226829950 	0.6981774385 	4.5547441515 
59	4	4	0	15.4983417371 	7.6799959305 	5.4276213556 
60	5	4	0	7.2194470316 	0.6988129722 	1.9752781142 
61	6	4	0	0.8298517920 	6.1576064983 	5.4259751892 
62	7	4	0	9.1089124727 	13.1389839886 	1.9736323608 
63	2	4	0	7.1124439786 	6.1569866893 	1.1041974618 
64	8	4	0	15.3914995897 	13.1381792101 	4.5565377036 
65	2	4	0	7.2193648859 	6.0293664187 	5.4276213772 
66	9	4	0	15.4984229533 	13.0105537502 	1.9752787161 
67	6	4	0	0.7226114876 	6.0298214375 	1.1024031547 
68	10	4	0	9.0016617729 	13.0111862414 	4.5547430463 
69	4	4	0	15.3914264088 	7.5523827154 	1.1041972110 
70	11	4	0	7.1125194695 	0.5711850088 	4.5565377779 
71	2	4	0	9.1088326082 	7.5517558872 	5.4259755833 
72	12	4	0	0.8299319050 	0.5703836670 	1.9736322558 
73	1	1	0	12.2501690443 	10.3451484250 	8.4432745807 
74	1	1	0	12.2501694716 	10.3454930863 	11.8956164169 
75	1	1	0	3.9711901316 	3.3642123505 	8.4432738888 
76	1	1	0	3.9711908445 	3.3638678046 	11.8956155056 
77	1	2	0	10.7980073169 	9.0745282281 	9.0427125899 
78	1	2	0	2.5190668668 	2.0931916043 	12.4950637157 
79	1	2	0	13.7024912401 	9.0750359555 	11.2962987342 
80	1	2	0	5.4235474917 	2.0938117103 	7.8439658087 
81	1	2	0	2.5295948598 	4.6457972353 	11.2926547024 
82	1	2	0	10.8086109824 	11.6271313843 	7.8403153732 
83	1	2	0	5.4126838357 	4.6460601420 	9.0463822387 
84	1	2	0	13.6917050807 	11.6272886838 	12.4987294443 
85	1	2	0	5.4235124552 	4.6343264204 	11.2962983438 
86	1	2	0	13.7025283215 	11.6155523179 	7.8439661270 
87	1	2	0	2.5190280200 	4.6348345462 	9.0427129777 
88	1	2	0	10.7980439679 	11.6161722001 	12.4950633277 
89	1	2	0	13.6916620202 	9.0633006977 	9.0463835563 
90	1	2	0	5.4127227396 	2.0820750018 	12.4987266804 
91	1	2	0	10.8085737913 	9.0635636443 	11.2926538510 
92	1	2	0	2.5296361778 	2.0822320621 	7.8403176931 
93	1	2	0	12.2502149228 	9.3790699654 	13.6217938539 
94	1	2	0	3.9712727253 	2.3977891815 	10.1694514754 
95	1	2	0	3.9712365293 	4.3302928592 	13.6217932900 
96	1	2	0	12.2502511670 	11.3115735260 	10.1694519925 
97	13	3	0	8.6247226863 	7.3257012883 	8.9586586481 
98	14	3	0	0.3458139212 	0.3443458157 	12.4109962742 
99	15	3	0	15.8750918919 	7.3256388195 	11.3808524131 
100	11	3	0	7.5961836774 	0.3444402472 	7.9285080967 
101	16	3	0	0.4044014185 	6.4536672014 	11.3798967080 
102	10	3	0	8.6834544121 	13.4350262038 	7.9275505389 
103	13	3	0	7.5375177712 	6.4536533536 	8.9596698900 
104	17	3	0	15.8165634757 	13.4348566130 	12.4120099761 
105	13	3	0	7.5961157724 	6.3837206938 	11.3808527375 
106	8	3	0	15.8751665667 	13.3649245325 	7.9285081167 
107	16	3	0	0.3457437281 	6.3836620525 	8.9586574928 
108	18	3	0	8.6247875484 	13.3650168734 	12.4109975231 
109	15	3	0	15.8164956011 	7.2557109333 	8.9596697847 
110	19	3	0	7.5375844360 	0.2745018581 	12.4120076829 
111	13	3	0	8.6833847185 	7.2556937141 	11.3798959877 
112	3	3	0	0.4044738954 	0.2743337059 	7.9275530688 
113	13	3	0	9.2105740110 	7.7366581032 	10.1686612857 
114	13	3	0	10.3484102395 	8.6789507343 	10.1678886133 
115	3	3	0	0.9316536889 	0.7552996006 	6.7163252055 
116	14	3	0	2.0694957245 	1.6976170128 	13.6202111845 
117	15	3	0	15.2893891510 	7.7365808985 	10.1708826367 
118	15	3	0	14.1518384348 	8.6792231514 	10.1713083553 
119	11	3	0	7.0104673376 	0.7553798707 	6.7185477802 
120	11	3	0	5.8729308690 	1.6979904260 	6.7189523926 
121	16	3	0	0.9315937971 	5.9727018332 	10.1686622148 
122	16	3	0	2.0694290146 	5.0304113124 	10.1678841311 
123	10	3	0	9.2106278582 	12.9540624453 	6.7163267638 
124	18	3	0	10.3484767204 	12.0117407263 	13.6202139517 
125	13	3	0	7.0104123979 	5.9727794805 	10.1708820402 
126	13	3	0	5.8728629674 	5.0301396049 	10.1713100323 
127	8	3	0	15.2894501266 	12.9539817369 	6.7185454166 
128	8	3	0	14.1519064832 	12.0113666664 	6.7189519305 
129	13	4	0	9.0015865552 	7.6795473812 	8.0070862038 
130	14	4	0	0.7226829950 	0.6981774385 	11.4594274013 
131	15	4	0	15.4983417371 	7.6799959305 	12.3323046055 
132	11	4	0	7.2194470316 	0.6988129722 	8.8799613640 
133	16	4	0	0.8298517920 	6.1576064983 	12.3306584391 
134	10	4	0	9.1089124727 	13.1389839886 	8.8783156106 
135	13	4	0	7.1124439786 	6.1569866893 	8.0088807117 
136	17	4	0	15.3914995897 	13.1381792101 	11.4612209535 
137	13	4	0	7.2193648859 	6.0293664187 	12.3323046271 
138	8	4	0	15.4984229533 	13.0105537502 	8.8799619659 
139	16	4	0	0.7226114876 	6.0298214375 	8.0070864046 
140	18	4	0	9.0016617729 	13.0111862414 	11.4594262961 
141	15	4	0	15.3914264088 	7.5523827154 	8.0088804608 
142	19	4	0	7.1125194695 	0.5711850088 	11.4612210277 
143	13	4	0	9.1088326082 	7.5517558872 	12.3306588332 
144	3	4	0	0.8299319050 	0.5703836670 	8.8783155056 
145	1	1	0	12.2501690443 	10.3451484250 	15.3479578306 
146	1	1	0	12.2501694716 	10.3454930863 	18.8002996668 
147	1	1	0	3.9711901316 	3.3642123505 	15.3479571386 
148	1	1	0	3.9711908445 	3.3638678046 	18.8002987554 
149	1	2	0	10.7980073169 	9.0745282281 	15.9473958396 
150	1	2	0	2.5190668668 	2.0931916042 	19.3997469657 
151	1	2	0	13.7024912401 	9.0750359556 	18.2009819840 
152	1	2	0	5.4235474917 	2.0938117103 	14.7486490586 
153	1	2	0	2.5295948598 	4.6457972353 	18.1973379522 
154	1	2	0	10.8086109824 	11.6271313843 	14.7449986231 
155	1	2	0	5.4126838357 	4.6460601420 	15.9510654885 
156	1	2	0	13.6917050808 	11.6272886838 	19.4034126943 
157	1	2	0	5.4235124552 	4.6343264205 	18.2009815935 
158	1	2	0	13.7025283215 	11.6155523179 	14.7486493768 
159	1	2	0	2.5190280200 	4.6348345462 	15.9473962275 
160	1	2	0	10.7980439679 	11.6161722001 	19.3997465775 
161	1	2	0	13.6916620202 	9.0633006977 	15.9510668062 
162	1	2	0	5.4127227396 	2.0820750018 	19.4034099303 
163	1	2	0	10.8085737913 	9.0635636443 	18.1973371007 
164	1	2	0	2.5296361778 	2.0822320621 	14.7450009429 
165	1	2	0	12.2502149228 	9.3790699654 	20.5264771037 
166	1	2	0	3.9712727253 	2.3977891815 	17.0741347252 
167	1	2	0	3.9712365293 	4.3302928592 	20.5264765399 
168	1	2	0	12.2502511670 	11.3115735260 	17.0741352424 
169	20	3	0	8.6247226863 	7.3257012883 	15.8633418980 
170	21	3	0	0.3458139212 	0.3443458157 	19.3156795240 
171	22	3	0	15.8750918919 	7.3256388195 	18.2855356629 
172	19	3	0	7.5961836774 	0.3444402472 	14.8331913465 
173	23	3	0	0.4044014185 	6.4536672014 	18.2845799578 
174	18	3	0	8.6834544121 	13.4350262038 	14.8322337888 
175	20	3	0	7.5375177712 	6.4536533536 	15.8643531399 
176	24	3	0	15.8165634757 	13.4348566130 	19.3166932260 
177	20	3	0	7.5961157724 	6.3837206938 	18.2855359874 
178	17	3	0	15.8751665667 	13.3649245325 	14.8331913665 
179	23	3	0	0.3457437281 	6.3836620525 	15.8633407427 
180	25	3	0	8.6247875484 	13.3650168734 	19.3156807729 
181	22	3	0	15.8164956011 	7.2557109333 	15.8643530345 
182	26	3	0	7.5375844360 	0.2745018581 	19.3166909327 
183	20	3	0	8.6833847185 	7.2556937141 	18.2845792375 
184	14	3	0	0.4044738954 	0.2743337059 	14.8322363186 
185	20	3	0	9.2105740110 	7.7366581032 	17.0733445355 
186	20	3	0	10.3484102395 	8.6789507343 	17.0725718633 
187	14	3	0	0.9316536889 	0.7552996006 	13.6210084553 
188	21	3	0	2.0694957245 	1.6976170128 	20.5248944341 
189	22	3	0	15.2893891510 	7.7365808985 	17.0755658866 
190	22	3	0	14.1518384347 	8.6792231514 	17.0759916051 
191	19	3	0	7.0104673376 	0.7553798707 	13.6232310301 
192	19	3	0	5.8729308690 	1.6979904260 	13.6236356424 
193	23	3	0	0.9315937971 	5.9727018332 	17.0733454646 
194	23	3	0	2.0694290146 	5.0304113124 	17.0725673811 
195	18	3	0	9.2106278582 	12.9540624453 	13.6210100137 
196	25	3	0	10.3484767204 	12.0117407263 	20.5248972017 
197	20	3	0	7.0104123979 	5.9727794805 	17.0755652900 
198	20	3	0	5.8728629673 	5.0301396049 	17.0759932823 
199	17	3	0	15.2894501266 	12.9539817369 	13.6232286664 
200	17	3	0	14.1519064832 	12.0113666664 	13.6236351804 
201	20	4	0	9.0015865552 	7.6795473812 	14.9117694537 
202	21	4	0	0.7226829950 	0.6981774385 	18.3641106512 
203	22	4	0	15.4983417371 	7.6799959305 	19.2369878553 
204	19	4	0	7.2194470316 	0.6988129722 	15.7846446138 
205	23	4	0	0.8298517920 	6.1576064983 	19.2353416889 
206	18	4	0	9.1089124727 	13.1389839886 	15.7829988605 
207	20	4	0	7.1124439786 	6.1569866893 	14.9135639615 
208	24	4	0	15.3914995897 	13.1381792101 	18.3659042033 
209	20	4	0	7.2193648859 	6.0293664187 	19.2369878769 
210	17	4	0	15.4984229533 	13.0105537502 	15.7846452158 
211	23	4	0	0.7226114876 	6.0298214375 	14.9117696544 
212	25	4	0	9.0016617729 	13.0111862414 	18.3641095460 
213	22	4	0	15.3914264088 	7.5523827154 	14.9135637107 
214	26	4	0	7.1125194695 	0.5711850088 	18.3659042776 
215	20	4	0	9.1088326082 	7.5517558872 	19.2353420830 
216	14	4	0	0.8299319050 	0.5703836670 	15.7829987555 
217	1	1	0	12.2501690443 	10.3451484250 	22.2526410804 
218	1	1	0	12.2501694716 	10.3454930863 	25.7049829166 
219	1	1	0	3.9711901316 	3.3642123505 	22.2526403885 
220	1	1	0	3.9711908445 	3.3638678046 	25.7049820053 
221	1	2	0	10.7980073169 	9.0745282281 	22.8520790895 
222	1	2	0	2.5190668668 	2.0931916042 	26.3044302155 
223	1	2	0	13.7024912401 	9.0750359555 	25.1056652338 
224	1	2	0	5.4235474917 	2.0938117103 	21.6533323084 
225	1	2	0	2.5295948598 	4.6457972353 	25.1020212021 
226	1	2	0	10.8086109824 	11.6271313843 	21.6496818728 
227	1	2	0	5.4126838357 	4.6460601420 	22.8557487384 
228	1	2	0	13.6917050808 	11.6272886838 	26.3080959441 
229	1	2	0	5.4235124552 	4.6343264205 	25.1056648434 
230	1	2	0	13.7025283215 	11.6155523179 	21.6533326268 
231	1	2	0	2.5190280200 	4.6348345462 	22.8520794774 
232	1	2	0	10.7980439679 	11.6161722001 	26.3044298274 
233	1	2	0	13.6916620202 	9.0633006977 	22.8557500560 
234	1	2	0	5.4127227396 	2.0820750018 	26.3080931801 
235	1	2	0	10.8085737913 	9.0635636443 	25.1020203506 
236	1	2	0	2.5296361778 	2.0822320621 	21.6496841929 
237	1	2	0	12.2502149228 	9.3790699654 	27.4311603536 
238	1	2	0	3.9712727253 	2.3977891815 	23.9788179750 
239	1	2	0	3.9712365293 	4.3302928592 	27.4311597897 
240	1	2	0	12.2502511670 	11.3115735260 	23.9788184922 
241	27	3	0	8.6247226863 	7.3257012883 	22.7680251478 
242	28	3	0	0.3458139212 	0.3443458157 	26.2203627738 
243	29	3	0	15.8750918919 	7.3256388195 	25.1902189127 
244	26	3	0	7.5961836774 	0.3444402472 	21.7378745964 
245	30	3	0	0.4044014185 	6.4536672014 	25.1892632077 
246	25	3	0	8.6834544121 	13.4350262038 	21.7369170386 
247	27	3	0	7.5375177712 	6.4536533536 	22.7690363897 
248	31	3	0	15.8165634757 	13.4348566130 	26.2213764758 
249	27	3	0	7.5961157724 	6.3837206938 	25.1902192372 
250	24	3	0	15.8751665667 	13.3649245325 	21.7378746164 
251	30	3	0	0.3457437281 	6.3836620525 	22.7680239925 
252	32	3	0	8.6247875484 	13.3650168734 	26.2203640228 
253	29	3	0	15.8164956011 	7.2557109333 	22.7690362844 
254	33	3	0	7.5375844360 	0.2745018581 	26.2213741826 
255	27	3	0	8.6833847185 	7.2556937141 	25.1892624874 
256	21	3	0	0.4044738954 	0.2743337059 	21.7369195685 
257	27	3	0	9.2105740110 	7.7366581032 	23.9780277854 
258	27	3	0	10.3484102395 	8.6789507343 	23.9772551131 
259	21	3	0	0.9316536889 	0.7552996006 	20.5256917053 
260	28	3	0	2.0694957245 	1.6976170128 	27.4295776839 
261	29	3	0	15.2893891510 	7.7365808985 	23.9802491364 
262	29	3	0	14.1518384347 	8.6792231514 	23.9806748551 
263	26	3	0	7.0104673375 	0.7553798707 	20.5279142799 
264	26	3	0	5.8729308690 	1.6979904260 	20.5283188923 
265	30	3	0	0.9315937971 	5.9727018332 	23.9780287145 
266	30	3	0	2.0694290146 	5.0304113124 	23.9772506308 
267	25	3	0	9.2106278582 	12.9540624453 	20.5256932634 
268	32	3	0	10.3484767204 	12.0117407263 	27.4295804514 
269	27	3	0	7.0104123979 	5.9727794805 	23.9802485398 
270	27	3	0	5.8728629673 	5.0301396049 	23.9806765322 
271	24	3	0	15.2894501266 	12.9539817369 	20.5279119163 
272	24	3	0	14.1519064832 	12.0113666664 	20.5283184301 
273	27	4	0	9.0015865552 	7.6795473812 	21.8164527035 
274	28	4	0	0.7226829950 	0.6981774385 	25.2687939010 
275	29	4	0	15.4983417371 	7.6799959305 	26.1416711051 
276	26	4	0	7.2194470316 	0.6988129722 	22.6893278637 
277	30	4	0	0.8298517920 	6.1576064983 	26.1400249388 
278	25	4	0	9.1089124727 	13.1389839886 	22.6876821103 
279	27	4	0	7.1124439786 	6.1569866893 	21.8182472113 
280	31	4	0	15.3914995897 	13.1381792101 	25.2705874532 
281	27	4	0	7.2193648859 	6.0293664187 	26.1416711268 
282	24	4	0	15.4984229533 	13.0105537502 	22.6893284656 
283	30	4	0	0.7226114876 	6.0298214375 	21.8164529043 
284	32	4	0	9.0016617729 	13.0111862414 	25.2687927958 
285	29	4	0	15.3914264088 	7.5523827154 	21.8182469605 
286	33	4	0	7.1125194695 	0.5711850088 	25.2705875274 
287	27	4	0	9.1088326082 	7.5517558872 	26.1400253329 
288	21	4	0	0.8299319050 	0.5703836670 	22.6876820053 
289	1	1	0	12.2501690443 	10.3451484250 	29.1573243303 
290	1	1	0	12.2501694716 	10.3454930863 	32.6096661664 
291	1	1	0	3.9711901316 	3.3642123505 	29.1573236383 
292	1	1	0	3.9711908445 	3.3638678046 	32.6096652551 
293	1	2	0	10.7980073169 	9.0745282281 	29.7567623393 
294	1	2	0	2.5190668668 	2.0931916043 	33.2091134652 
295	1	2	0	13.7024912401 	9.0750359555 	32.0103484836 
296	1	2	0	5.4235474917 	2.0938117103 	28.5580155583 
297	1	2	0	2.5295948598 	4.6457972353 	32.0067044519 
298	1	2	0	10.8086109824 	11.6271313843 	28.5543651228 
299	1	2	0	5.4126838357 	4.6460601420 	29.7604319882 
300	1	2	0	13.6917050807 	11.6272886838 	33.2127791939 
301	1	2	0	5.4235124552 	4.6343264205 	32.0103480932 
302	1	2	0	13.7025283215 	11.6155523179 	28.5580158766 
303	1	2	0	2.5190280200 	4.6348345462 	29.7567627272 
304	1	2	0	10.7980439678 	11.6161722001 	33.2091130773 
305	1	2	0	13.6916620202 	9.0633006977 	29.7604333058 
306	1	2	0	5.4127227396 	2.0820750018 	33.2127764300 
307	1	2	0	10.8085737913 	9.0635636443 	32.0067036004 
308	1	2	0	2.5296361778 	2.0822320621 	28.5543674427 
309	1	2	0	12.2502149228 	9.3790699654 	34.3358436034 
310	1	2	0	3.9712727253 	2.3977891815 	30.8835012249 
311	1	2	0	3.9712365293 	4.3302928592 	34.3358430395 
312	1	2	0	12.2502511670 	11.3115735260 	30.8835017420 
313	34	3	0	8.6247226863 	7.3257012883 	29.6727083977 
314	35	3	0	0.3458139212 	0.3443458157 	33.1250460237 
315	36	3	0	15.8750918919 	7.3256388195 	32.0949021626 
316	33	3	0	7.5961836774 	0.3444402472 	28.6425578462 
317	37	3	0	0.4044014185 	6.4536672014 	32.0939464575 
318	32	3	0	8.6834544121 	13.4350262038 	28.6416002885 
319	34	3	0	7.5375177712 	6.4536533536 	29.6737196396 
320	38	3	0	15.8165634757 	13.4348566130 	33.1260597257 
321	34	3	0	7.5961157724 	6.3837206938 	32.0949024871 
322	31	3	0	15.8751665667 	13.3649245325 	28.6425578662 
323	37	3	0	0.3457437281 	6.3836620525 	29.6727072423 
324	39	3	0	8.6247875484 	13.3650168734 	33.1250472726 
325	36	3	0	15.8164956011 	7.2557109333 	29.6737195342 
326	40	3	0	7.5375844360 	0.2745018581 	33.1260574324 
327	34	3	0	8.6833847185 	7.2556937141 	32.0939457372 
328	28	3	0	0.4044738954 	0.2743337059 	28.6416028183 
329	34	3	0	9.2105740110 	7.7366581032 	30.8827110352 
330	34	3	0	10.3484102395 	8.6789507343 	30.8819383630 
331	28	3	0	0.9316536889 	0.7552996006 	27.4303749551 
332	35	3	0	2.0694957245 	1.6976170128 	34.3342609342 
333	36	3	0	15.2893891510 	7.7365808985 	30.8849323862 
334	36	3	0	14.1518384348 	8.6792231514 	30.8853581050 
335	33	3	0	7.0104673375 	0.7553798707 	27.4325975298 
336	33	3	0	5.8729308690 	1.6979904260 	27.4330021421 
337	37	3	0	0.9315937971 	5.9727018332 	30.8827119643 
338	37	3	0	2.0694290146 	5.0304113124 	30.8819338807 
339	32	3	0	9.2106278582 	12.9540624453 	27.4303765133 
340	39	3	0	10.3484767204 	12.0117407263 	34.3342637012 
341	34	3	0	7.0104123979 	5.9727794805 	30.8849317897 
342	34	3	0	5.8728629673 	5.0301396049 	30.8853597820 
343	31	3	0	15.2894501266 	12.9539817369 	27.4325951661 
344	31	3	0	14.1519064832 	12.0113666664 	27.4330016799 
345	34	4	0	9.0015865552 	7.6795473812 	28.7211359533 
346	35	4	0	0.7226829950 	0.6981774385 	32.1734771508 
347	36	4	0	15.4983417372 	7.6799959305 	33.0463543550 
348	33	4	0	7.2194470316 	0.6988129722 	29.5940111135 
349	37	4	0	0.8298517920 	6.1576064983 	33.0447081886 
350	32	4	0	9.1089124727 	13.1389839886 	29.5923653602 
351	34	4	0	7.1124439786 	6.1569866893 	28.7229304612 
352	38	4	0	15.3914995897 	13.1381792101 	32.1752707030 
353	34	4	0	7.2193648859 	6.0293664187 	33.0463543766 
354	31	4	0	15.4984229533 	13.0105537502 	29.5940117154 
355	37	4	0	0.7226114876 	6.0298214375 	28.7211361541 
356	39	4	0	9.0016617729 	13.0111862414 	32.1734760457 
357	36	4	0	15.3914264088 	7.5523827154 	28.7229302104 
358	40	4	0	7.1125194695 	0.5711850088 	32.1752707773 
359	34	4	0	9.1088326082 	7.5517558872 	33.0447085827 
360	28	4	0	0.8299319050 	0.5703836670 	29.5923652551 
361	1	1	0	12.2501690443 	10.3451484250 	36.0620075801 
362	1	1	0	12.2501694716 	10.3454930863 	39.5143494163 
363	1	1	0	3.9711901317 	3.3642123505 	36.0620068881 
364	1	1	0	3.9711908445 	3.3638678046 	39.5143485050 
365	1	2	0	10.7980073169 	9.0745282281 	36.6614455893 
366	1	2	0	2.5190668668 	2.0931916043 	40.1137967151 
367	1	2	0	13.7024912401 	9.0750359556 	38.9150317335 
368	1	2	0	5.4235474917 	2.0938117103 	35.4626988082 
369	1	2	0	2.5295948598 	4.6457972353 	38.9113877018 
370	1	2	0	10.8086109824 	11.6271313843 	35.4590483726 
371	1	2	0	5.4126838357 	4.6460601420 	36.6651152382 
372	1	2	0	13.6917050808 	11.6272886838 	40.1174624438 
373	1	2	0	5.4235124551 	4.6343264204 	38.9150313432 
374	1	2	0	13.7025283215 	11.6155523179 	35.4626991264 
375	1	2	0	2.5190280200 	4.6348345462 	36.6614459770 
376	1	2	0	10.7980439679 	11.6161722001 	40.1137963270 
377	1	2	0	13.6916620202 	9.0633006977 	36.6651165557 
378	1	2	0	5.4127227396 	2.0820750018 	40.1174596797 
379	1	2	0	10.8085737913 	9.0635636443 	38.9113868504 
380	1	2	0	2.5296361778 	2.0822320621 	35.4590506924 
381	1	2	0	12.2502149228 	9.3790699654 	41.2405268532 
382	1	2	0	3.9712727253 	2.3977891815 	37.7881844747 
383	1	2	0	3.9712365293 	4.3302928592 	41.2405262894 
384	1	2	0	12.2502511670 	11.3115735260 	37.7881849919 
385	41	3	0	8.6247226863 	7.3257012883 	36.5773916475 
386	12	3	0	0.3458139212 	0.3443458157 	40.0297292735 
387	42	3	0	15.8750918919 	7.3256388195 	38.9995854124 
388	40	3	0	7.5961836774 	0.3444402472 	35.5472410960 
389	43	3	0	0.4044014185 	6.4536672014 	38.9986297074 
390	39	3	0	8.6834544121 	13.4350262038 	35.5462835383 
391	41	3	0	7.5375177712 	6.4536533536 	36.5784028894 
392	9	3	0	15.8165634757 	13.4348566130 	40.0307429755 
393	41	3	0	7.5961157724 	6.3837206938 	38.9995857369 
394	38	3	0	15.8751665667 	13.3649245325 	35.5472411161 
395	43	3	0	0.3457437281 	6.3836620525 	36.5773904922 
396	7	3	0	8.6247875484 	13.3650168734 	40.0297305225 
397	42	3	0	15.8164956011 	7.2557109333 	36.5784027840 
398	5	3	0	7.5375844360 	0.2745018582 	40.0307406823 
399	41	3	0	8.6833847185 	7.2556937141 	38.9986289871 
400	35	3	0	0.4044738954 	0.2743337060 	35.5462860682 
401	41	3	0	9.2105740110 	7.7366581032 	37.7873942851 
402	41	3	0	10.3484102395 	8.6789507343 	37.7866216126 
403	35	3	0	0.9316536889 	0.7552996006 	34.3350582048 
404	12	3	0	2.0694957245 	1.6976170128 	41.2389441837 
405	42	3	0	15.2893891510 	7.7365808985 	37.7896156361 
406	42	3	0	14.1518384348 	8.6792231514 	37.7900413547 
407	40	3	0	7.0104673375 	0.7553798707 	34.3372807797 
408	40	3	0	5.8729308690 	1.6979904260 	34.3376853919 
409	43	3	0	0.9315937971 	5.9727018332 	37.7873952141 
410	43	3	0	2.0694290146 	5.0304113124 	37.7866171305 
411	39	3	0	9.2106278582 	12.9540624453 	34.3350597632 
412	7	3	0	10.3484767204 	12.0117407264 	41.2389469514 
413	41	3	0	7.0104123979 	5.9727794805 	37.7896150396 
414	41	3	0	5.8728629673 	5.0301396049 	37.7900430316 
415	38	3	0	15.2894501266 	12.9539817369 	34.3372784159 
416	38	3	0	14.1519064832 	12.0113666664 	34.3376849300 
417	41	4	0	9.0015865552 	7.6795473812 	35.6258192032 
418	12	4	0	0.7226829950 	0.6981774385 	39.0781604007 
419	42	4	0	15.4983417371 	7.6799959305 	39.9510376048 
420	40	4	0	7.2194470316 	0.6988129722 	36.4986943634 
421	43	4	0	0.8298517920 	6.1576064983 	39.9493914384 
422	39	4	0	9.1089124727 	13.1389839886 	36.4970486100 
423	41	4	0	7.1124439786 	6.1569866893 	35.6276137110 
424	9	4	0	15.3914995897 	13.1381792101 	39.0799539529 
425	41	4	0	7.2193648859 	6.0293664187 	39.9510376265 
426	38	4	0	15.4984229533 	13.0105537502 	36.4986949653 
427	43	4	0	0.7226114876 	6.0298214375 	35.6258194039 
428	7	4	0	9.0016617729 	13.0111862414 	39.0781592955 
429	42	4	0	15.3914264088 	7.5523827154 	35.6276134602 
430	5	4	0	7.1125194695 	0.5711850088 	39.0799540271 
431	41	4	0	9.1088326083 	7.5517558872 	39.9493918326 
432	35	4	0	0.8299319050 	0.5703836670 	36.4970485050 
433	1	1	0	12.2501690443 	24.3077105881 	1.5385913309 
434	1	1	0	12.2501694716 	24.3080552494 	4.9909331671 
435	1	1	0	3.9711901316 	17.3267745136 	1.5385906389 
436	1	1	0	3.9711908445 	17.3264299677 	4.9909322557 
437	1	2	0	10.7980073169 	23.0370903912 	2.1380293400 
438	1	2	0	2.5190668668 	16.0557537674 	5.5903804659 
439	1	2	0	13.7024912401 	23.0375981187 	4.3916154844 
440	1	2	0	5.4235474917 	16.0563738734 	0.9392825588 
441	1	2	0	2.5295948598 	18.6083593984 	4.3879714526 
442	1	2	0	10.8086109824 	25.5896935474 	0.9356321233 
443	1	2	0	5.4126838357 	18.6086223051 	2.1416989889 
444	1	2	0	13.6917050807 	25.5898508469 	5.5940461945 
445	1	2	0	5.4235124552 	18.5968885835 	4.3916150939 
446	1	2	0	13.7025283215 	25.5781144810 	0.9392828771 
447	1	2	0	2.5190280199 	18.5973967093 	2.1380297279 
448	1	2	0	10.7980439679 	25.5787343632 	5.5903800778 
449	1	2	0	13.6916620203 	23.0258628608 	2.1417003065 
450	1	2	0	5.4127227396 	16.0446371649 	5.5940434305 
451	1	2	0	10.8085737913 	23.0261258074 	4.3879706011 
452	1	2	0	2.5296361778 	16.0447942252 	0.9356344432 
453	1	2	0	12.2502149228 	23.3416321285 	6.7171106040 
454	1	2	0	3.9712727253 	16.3603513446 	3.2647682255 
455	1	2	0	3.9712365293 	18.2928550224 	6.7171100402 
456	1	2	0	12.2502511670 	25.2741356891 	3.2647687427 
457	44	3	0	8.6247226863 	21.2882634514 	2.0539753983 
458	45	3	0	0.3458139212 	14.3069079788 	5.5063130243 
459	46	3	0	15.8750918919 	21.2882009826 	4.4761691632 
460	7	3	0	7.5961836774 	14.3070024104 	1.0238248469 
461	47	3	0	0.4044014185 	20.4162293645 	4.4752134581 
462	5	3	0	8.6834544121 	27.3975883669 	1.0228672891 
463	44	3	0	7.5375177712 	20.4162155167 	2.0549866402 
464	48	3	0	15.8165634757 	27.3974187761 	5.5073267263 
465	44	3	0	7.5961157724 	20.3462828569 	4.4761694877 
466	49	3	0	15.8751665667 	27.3274866956 	1.0238248669 
467	47	3	0	0.3457437281 	20.3462242156 	2.0539742430 
468	11	3	0	8.6247875484 	27.3275790365 	5.5063142733 
469	46	3	0	15.8164956011 	21.2182730964 	2.0549865348 
470	10	3	0	7.5375844360 	14.2370640213 	5.5073244331 
471	44	3	0	8.6833847185 	21.2182558772 	4.4752127378 
472	50	3	0	0.4044738954 	14.2368958691 	1.0228698190 
473	44	3	0	9.2105740110 	21.6992202663 	3.2639780359 
474	44	3	0	10.3484102395 	22.6415128974 	3.2632053635 
475	50	3	0	0.9316536889 	14.7178617637 	-0.1883580444 
476	45	3	0	2.0694957245 	15.6601791760 	6.7155279345 
477	46	3	0	15.2893891510 	21.6991430616 	3.2661993869 
478	46	3	0	14.1518384347 	22.6417853145 	3.2666251053 
479	7	3	0	7.0104673376 	14.7179420338 	-0.1861354697 
480	7	3	0	5.8729308690 	15.6605525892 	-0.1857308570 
481	47	3	0	0.9315937971 	19.9352639964 	3.2639789650 
482	47	3	0	2.0694290146 	18.9929734755 	3.2632008812 
483	5	3	0	9.2106278582 	26.9166246084 	-0.1883564861 
484	11	3	0	10.3484767204 	25.9743028895 	6.7155307020 
485	44	3	0	7.0104123979 	19.9353416436 	3.2661987903 
486	44	3	0	5.8728629673 	18.9927017680 	3.2666267825 
487	49	3	0	15.2894501266 	26.9165439000 	-0.1861378334 
488	49	3	0	14.1519064832 	25.9739288295 	-0.1857313191 
489	44	4	0	9.0015865552 	21.6421095444 	1.1024029540 
490	45	4	0	0.7226829950 	14.6607396017 	4.5547441515 
491	46	4	0	15.4983417371 	21.6425580937 	5.4276213556 
492	7	4	0	7.2194470316 	14.6613751353 	1.9752781142 
493	47	4	0	0.8298517920 	20.1201686615 	5.4259751892 
494	5	4	0	9.1089124727 	27.1015461517 	1.9736323608 
495	44	4	0	7.1124439786 	20.1195488524 	1.1041974618 
496	48	4	0	15.3914995897 	27.1007413732 	4.5565377036 
497	44	4	0	7.2193648859 	19.9919285818 	5.4276213772 
498	49	4	0	15.4984229533 	26.9731159133 	1.9752787161 
499	47	4	0	0.7226114876 	19.9923836006 	1.1024031547 
500	11	4	0	9.0016617729 	26.9737484046 	4.5547430463 
501	46	4	0	15.3914264088 	21.5149448785 	1.1041972110 
502	10	4	0	7.1125194695 	14.5337471720 	4.5565377779 
503	44	4	0	9.1088326083 	21.5143180503 	5.4259755833 
504	50	4	0	0.8299319050 	14.5329458301 	1.9736322558 
505	1	1	0	12.2501690443 	24.3077105882 	8.4432745807 
506	1	1	0	12.2501694716 	24.3080552494 	11.8956164169 
507	1	1	0	3.9711901316 	17.3267745136 	8.4432738888 
508	1	1	0	3.9711908445 	17.3264299677 	11.8956155056 
509	1	2	0	10.7980073169 	23.0370903912 	9.0427125899 
510	1	2	0	2.5190668668 	16.0557537674 	12.4950637157 
511	1	2	0	13.7024912401 	23.0375981187 	11.2962987342 
512	1	2	0	5.4235474917 	16.0563738734 	7.8439658087 
513	1	2	0	2.5295948598 	18.6083593984 	11.2926547023 
514	1	2	0	10.8086109824 	25.5896935474 	7.8403153732 
515	1	2	0	5.4126838357 	18.6086223051 	9.0463822387 
516	1	2	0	13.6917050807 	25.5898508469 	12.4987294444 
517	1	2	0	5.4235124552 	18.5968885835 	11.2962983438 
518	1	2	0	13.7025283215 	25.5781144810 	7.8439661271 
519	1	2	0	2.5190280200 	18.5973967093 	9.0427129776 
520	1	2	0	10.7980439679 	25.5787343632 	12.4950633277 
521	1	2	0	13.6916620202 	23.0258628608 	9.0463835563 
522	1	2	0	5.4127227396 	16.0446371649 	12.4987266804 
523	1	2	0	10.8085737913 	23.0261258074 	11.2926538510 
524	1	2	0	2.5296361778 	16.0447942252 	7.8403176932 
525	1	2	0	12.2502149228 	23.3416321285 	13.6217938539 
526	1	2	0	3.9712727253 	16.3603513446 	10.1694514754 
527	1	2	0	3.9712365293 	18.2928550224 	13.6217932900 
528	1	2	0	12.2502511670 	25.2741356891 	10.1694519925 
529	51	3	0	8.6247226863 	21.2882634514 	8.9586586481 
530	52	3	0	0.3458139212 	14.3069079788 	12.4109962742 
531	53	3	0	15.8750918919 	21.2882009826 	11.3808524131 
532	10	3	0	7.5961836774 	14.3070024104 	7.9285080967 
533	54	3	0	0.4044014185 	20.4162293645 	11.3798967080 
534	11	3	0	8.6834544121 	27.3975883669 	7.9275505389 
535	51	3	0	7.5375177712 	20.4162155167 	8.9596698900 
536	55	3	0	15.8165634757 	27.3974187761 	12.4120099761 
537	51	3	0	7.5961157724 	20.3462828569 	11.3808527375 
538	48	3	0	15.8751665667 	27.3274866957 	7.9285081167 
539	54	3	0	0.3457437281 	20.3462242156 	8.9586574928 
540	19	3	0	8.6247875484 	27.3275790365 	12.4109975231 
541	53	3	0	15.8164956011 	21.2182730964 	8.9596697847 
542	18	3	0	7.5375844360 	14.2370640213 	12.4120076829 
543	51	3	0	8.6833847185 	21.2182558772 	11.3798959877 
544	45	3	0	0.4044738954 	14.2368958691 	7.9275530688 
545	51	3	0	9.2105740110 	21.6992202663 	10.1686612857 
546	51	3	0	10.3484102395 	22.6415128974 	10.1678886133 
547	45	3	0	0.9316536889 	14.7178617637 	6.7163252055 
548	52	3	0	2.0694957245 	15.6601791759 	13.6202111845 
549	53	3	0	15.2893891510 	21.6991430616 	10.1708826367 
550	53	3	0	14.1518384348 	22.6417853145 	10.1713083553 
551	10	3	0	7.0104673376 	14.7179420338 	6.7185477802 
552	10	3	0	5.8729308690 	15.6605525892 	6.7189523926 
553	54	3	0	0.9315937971 	19.9352639963 	10.1686622147 
554	54	3	0	2.0694290146 	18.9929734755 	10.1678841313 
555	11	3	0	9.2106278582 	26.9166246084 	6.7163267638 
556	19	3	0	10.3484767204 	25.9743028895 	13.6202139518 
557	51	3	0	7.0104123979 	19.9353416436 	10.1708820402 
558	51	3	0	5.8728629673 	18.9927017680 	10.1713100323 
559	48	3	0	15.2894501266 	26.9165439000 	6.7185454166 
560	48	3	0	14.1519064832 	25.9739288295 	6.7189519305 
561	51	4	0	9.0015865552 	21.6421095444 	8.0070862038 
562	52	4	0	0.7226829950 	14.6607396017 	11.4594274013 
563	53	4	0	15.4983417371 	21.6425580937 	12.3323046055 
564	10	4	0	7.2194470316 	14.6613751353 	8.8799613640 
565	54	4	0	0.8298517920 	20.1201686615 	12.3306584391 
566	11	4	0	9.1089124727 	27.1015461517 	8.8783156106 
567	51	4	0	7.1124439786 	20.1195488524 	8.0088807117 
568	55	4	0	15.3914995897 	27.1007413732 	11.4612209535 
569	51	4	0	7.2193648859 	19.9919285818 	12.3323046271 
570	48	4	0	15.4984229533 	26.9731159133 	8.8799619659 
571	54	4	0	0.7226114876 	19.9923836006 	8.0070864046 
572	19	4	0	9.0016617729 	26.9737484046 	11.4594262961 
573	53	4	0	15.3914264088 	21.5149448785 	8.0088804608 
574	18	4	0	7.1125194695 	14.5337471720 	11.4612210277 
575	51	4	0	9.1088326082 	21.5143180503 	12.3306588332 
576	45	4	0	0.8299319050 	14.5329458301 	8.8783155056 
577	1	1	0	12.2501690443 	24.3077105881 	15.3479578306 
578	1	1	0	12.2501694716 	24.3080552494 	18.8002996667 
579	1	1	0	3.9711901317 	17.3267745136 	15.3479571386 
580	1	1	0	3.9711908445 	17.3264299677 	18.8002987554 
581	1	2	0	10.7980073169 	23.0370903912 	15.9473958397 
582	1	2	0	2.5190668668 	16.0557537674 	19.3997469656 
583	1	2	0	13.7024912401 	23.0375981187 	18.2009819840 
584	1	2	0	5.4235474917 	16.0563738734 	14.7486490586 
585	1	2	0	2.5295948598 	18.6083593984 	18.1973379522 
586	1	2	0	10.8086109824 	25.5896935474 	14.7449986230 
587	1	2	0	5.4126838357 	18.6086223051 	15.9510654885 
588	1	2	0	13.6917050808 	25.5898508469 	19.4034126943 
589	1	2	0	5.4235124552 	18.5968885836 	18.2009815936 
590	1	2	0	13.7025283215 	25.5781144810 	14.7486493769 
591	1	2	0	2.5190280200 	18.5973967093 	15.9473962275 
592	1	2	0	10.7980439679 	25.5787343632 	19.3997465776 
593	1	2	0	13.6916620202 	23.0258628608 	15.9510668061 
594	1	2	0	5.4127227396 	16.0446371649 	19.4034099302 
595	1	2	0	10.8085737913 	23.0261258074 	18.1973371008 
596	1	2	0	2.5296361778 	16.0447942252 	14.7450009429 
597	1	2	0	12.2502149228 	23.3416321285 	20.5264771037 
598	1	2	0	3.9712727253 	16.3603513446 	17.0741347252 
599	1	2	0	3.9712365293 	18.2928550224 	20.5264765399 
600	1	2	0	12.2502511670 	25.2741356891 	17.0741352424 
601	56	3	0	8.6247226863 	21.2882634514 	15.8633418980 
602	57	3	0	0.3458139212 	14.3069079788 	19.3156795240 
603	58	3	0	15.8750918919 	21.2882009826 	18.2855356629 
604	18	3	0	7.5961836774 	14.3070024104 	14.8331913465 
605	59	3	0	0.4044014185 	20.4162293645 	18.2845799578 
606	19	3	0	8.6834544121 	27.3975883669 	14.8322337888 
607	56	3	0	7.5375177712 	20.4162155167 	15.8643531399 
608	60	3	0	15.8165634757 	27.3974187761 	19.3166932260 
609	56	3	0	7.5961157724 	20.3462828569 	18.2855359874 
610	55	3	0	15.8751665667 	27.3274866957 	14.8331913665 
611	59	3	0	0.3457437281 	20.3462242156 	15.8633407427 
612	26	3	0	8.6247875484 	27.3275790365 	19.3156807729 
613	58	3	0	15.8164956011 	21.2182730964 	15.8643530345 
614	25	3	0	7.5375844360 	14.2370640213 	19.3166909328 
615	56	3	0	8.6833847185 	21.2182558772 	18.2845792375 
616	52	3	0	0.4044738954 	14.2368958691 	14.8322363186 
617	56	3	0	9.2105740110 	21.6992202663 	17.0733445355 
618	56	3	0	10.3484102395 	22.6415128974 	17.0725718633 
619	52	3	0	0.9316536889 	14.7178617637 	13.6210084553 
620	57	3	0	2.0694957245 	15.6601791760 	20.5248944342 
621	58	3	0	15.2893891510 	21.6991430616 	17.0755658865 
622	58	3	0	14.1518384348 	22.6417853145 	17.0759916052 
623	18	3	0	7.0104673376 	14.7179420338 	13.6232310301 
624	18	3	0	5.8729308690 	15.6605525892 	13.6236356424 
625	59	3	0	0.9315937971 	19.9352639964 	17.0733454646 
626	59	3	0	2.0694290146 	18.9929734755 	17.0725673810 
627	19	3	0	9.2106278582 	26.9166246084 	13.6210100136 
628	26	3	0	10.3484767204 	25.9743028895 	20.5248972016 
629	56	3	0	7.0104123979 	19.9353416436 	17.0755652900 
630	56	3	0	5.8728629673 	18.9927017680 	17.0759932823 
631	55	3	0	15.2894501266 	26.9165439000 	13.6232286664 
632	55	3	0	14.1519064832 	25.9739288295 	13.6236351804 
633	56	4	0	9.0015865552 	21.6421095444 	14.9117694537 
634	57	4	0	0.7226829950 	14.6607396017 	18.3641106512 
635	58	4	0	15.4983417371 	21.6425580937 	19.2369878553 
636	18	4	0	7.2194470316 	14.6613751353 	15.7846446138 
637	59	4	0	0.8298517920 	20.1201686615 	19.2353416889 
638	19	4	0	9.1089124727 	27.1015461517 	15.7829988605 
639	56	4	0	7.1124439786 	20.1195488524 	14.9135639615 
640	60	4	0	15.3914995897 	27.1007413732 	18.3659042033 
641	56	4	0	7.2193648859 	19.9919285818 	19.2369878769 
642	55	4	0	15.4984229533 	26.9731159133 	15.7846452158 
643	59	4	0	0.7226114876 	19.9923836006 	14.9117696544 
644	26	4	0	9.0016617729 	26.9737484046 	18.3641095460 
645	58	4	0	15.3914264088 	21.5149448785 	14.9135637107 
646	25	4	0	7.1125194695 	14.5337471720 	18.3659042776 
647	56	4	0	9.1088326082 	21.5143180503 	19.2353420830 
648	52	4	0	0.8299319050 	14.5329458301 	15.7829987555 
649	1	1	0	12.2501690444 	24.3077105882 	22.2526410804 
650	1	1	0	12.2501694716 	24.3080552494 	25.7049829166 
651	1	1	0	3.9711901316 	17.3267745136 	22.2526403885 
652	1	1	0	3.9711908445 	17.3264299677 	25.7049820053 
653	1	2	0	10.7980073169 	23.0370903912 	22.8520790896 
654	1	2	0	2.5190668668 	16.0557537674 	26.3044302155 
655	1	2	0	13.7024912401 	23.0375981186 	25.1056652338 
656	1	2	0	5.4235474917 	16.0563738734 	21.6533323084 
657	1	2	0	2.5295948598 	18.6083593984 	25.1020212021 
658	1	2	0	10.8086109824 	25.5896935474 	21.6496818729 
659	1	2	0	5.4126838357 	18.6086223051 	22.8557487385 
660	1	2	0	13.6917050807 	25.5898508469 	26.3080959441 
661	1	2	0	5.4235124551 	18.5968885835 	25.1056648435 
662	1	2	0	13.7025283215 	25.5781144810 	21.6533326268 
663	1	2	0	2.5190280200 	18.5973967093 	22.8520794773 
664	1	2	0	10.7980439679 	25.5787343632 	26.3044298274 
665	1	2	0	13.6916620202 	23.0258628608 	22.8557500559 
666	1	2	0	5.4127227396 	16.0446371649 	26.3080931801 
667	1	2	0	10.8085737913 	23.0261258074 	25.1020203507 
668	1	2	0	2.5296361778 	16.0447942252 	21.6496841928 
669	1	2	0	12.2502149228 	23.3416321285 	27.4311603536 
670	1	2	0	3.9712727253 	16.3603513446 	23.9788179750 
671	1	2	0	3.9712365293 	18.2928550224 	27.4311597897 
672	1	2	0	12.2502511670 	25.2741356891 	23.9788184922 
673	61	3	0	8.6247226863 	21.2882634514 	22.7680251478 
674	62	3	0	0.3458139212 	14.3069079788 	26.2203627738 
675	63	3	0	15.8750918919 	21.2882009826 	25.1902189128 
676	25	3	0	7.5961836774 	14.3070024104 	21.7378745964 
677	64	3	0	0.4044014185 	20.4162293645 	25.1892632077 
678	26	3	0	8.6834544121 	27.3975883669 	21.7369170386 
679	61	3	0	7.5375177712 	20.4162155167 	22.7690363897 
680	65	3	0	15.8165634757 	27.3974187761 	26.2213764758 
681	61	3	0	7.5961157724 	20.3462828569 	25.1902192372 
682	60	3	0	15.8751665667 	27.3274866957 	21.7378746164 
683	64	3	0	0.3457437281 	20.3462242156 	22.7680239925 
684	33	3	0	8.6247875484 	27.3275790365 	26.2203640228 
685	63	3	0	15.8164956011 	21.2182730964 	22.7690362844 
686	32	3	0	7.5375844360 	14.2370640213 	26.2213741826 
687	61	3	0	8.6833847185 	21.2182558772 	25.1892624874 
688	57	3	0	0.4044738954 	14.2368958691 	21.7369195685 
689	61	3	0	9.2105740110 	21.6992202663 	23.9780277854 
690	61	3	0	10.3484102395 	22.6415128974 	23.9772551129 
691	57	3	0	0.9316536889 	14.7178617637 	20.5256917052 
692	62	3	0	2.0694957245 	15.6601791759 	27.4295776840 
693	63	3	0	15.2893891510 	21.6991430616 	23.9802491363 
694	63	3	0	14.1518384347 	22.6417853145 	23.9806748552 
695	25	3	0	7.0104673376 	14.7179420338 	20.5279142799 
696	25	3	0	5.8729308690 	15.6605525892 	20.5283188924 
697	64	3	0	0.9315937971 	19.9352639964 	23.9780287144 
698	64	3	0	2.0694290146 	18.9929734755 	23.9772506308 
699	26	3	0	9.2106278582 	26.9166246084 	20.5256932635 
700	33	3	0	10.3484767204 	25.9743028895 	27.4295804514 
701	61	3	0	7.0104123979 	19.9353416436 	23.9802485399 
702	61	3	0	5.8728629673 	18.9927017680 	23.9806765319 
703	60	3	0	15.2894501266 	26.9165439000 	20.5279119163 
704	60	3	0	14.1519064832 	25.9739288295 	20.5283184301 
705	61	4	0	9.0015865552 	21.6421095444 	21.8164527035 
706	62	4	0	0.7226829950 	14.6607396017 	25.2687939010 
707	63	4	0	15.4983417372 	21.6425580937 	26.1416711051 
708	25	4	0	7.2194470316 	14.6613751353 	22.6893278637 
709	64	4	0	0.8298517920 	20.1201686615 	26.1400249388 
710	26	4	0	9.1089124727 	27.1015461517 	22.6876821103 
711	61	4	0	7.1124439786 	20.1195488524 	21.8182472113 
712	65	4	0	15.3914995897 	27.1007413732 	25.2705874532 
713	61	4	0	7.2193648859 	19.9919285818 	26.1416711268 
714	60	4	0	15.4984229533 	26.9731159133 	22.6893284656 
715	64	4	0	0.7226114876 	19.9923836006 	21.8164529043 
716	33	4	0	9.0016617729 	26.9737484046 	25.2687927958 
717	63	4	0	15.3914264088 	21.5149448785 	21.8182469605 
718	32	4	0	7.1125194695 	14.5337471720 	25.2705875274 
719	61	4	0	9.1088326083 	21.5143180503 	26.1400253329 
720	57	4	0	0.8299319050 	14.5329458301 	22.6876820053 
721	1	1	0	12.2501690443 	24.3077105881 	29.1573243303 
722	1	1	0	12.2501694716 	24.3080552494 	32.6096661664 
723	1	1	0	3.9711901317 	17.3267745136 	29.1573236383 
724	1	1	0	3.9711908445 	17.3264299677 	32.6096652551 
725	1	2	0	10.7980073170 	23.0370903913 	29.7567623393 
726	1	2	0	2.5190668668 	16.0557537674 	33.2091134652 
727	1	2	0	13.7024912401 	23.0375981187 	32.0103484837 
728	1	2	0	5.4235474917 	16.0563738734 	28.5580155583 
729	1	2	0	2.5295948598 	18.6083593984 	32.0067044519 
730	1	2	0	10.8086109824 	25.5896935474 	28.5543651228 
731	1	2	0	5.4126838356 	18.6086223051 	29.7604319882 
732	1	2	0	13.6917050808 	25.5898508469 	33.2127791940 
733	1	2	0	5.4235124552 	18.5968885836 	32.0103480932 
734	1	2	0	13.7025283215 	25.5781144810 	28.5580158766 
735	1	2	0	2.5190280199 	18.5973967093 	29.7567627272 
736	1	2	0	10.7980439678 	25.5787343632 	33.2091130773 
737	1	2	0	13.6916620202 	23.0258628608 	29.7604333058 
738	1	2	0	5.4127227396 	16.0446371649 	33.2127764300 
739	1	2	0	10.8085737913 	23.0261258074 	32.0067036004 
740	1	2	0	2.5296361778 	16.0447942252 	28.5543674427 
741	1	2	0	12.2502149228 	23.3416321285 	34.3358436034 
742	1	2	0	3.9712727253 	16.3603513446 	30.8835012249 
743	1	2	0	3.9712365293 	18.2928550224 	34.3358430395 
744	1	2	0	12.2502511670 	25.2741356891 	30.8835017420 
745	66	3	0	8.6247226863 	21.2882634514 	29.6727083977 
746	67	3	0	0.3458139212 	14.3069079788 	33.1250460237 
747	68	3	0	15.8750918919 	21.2882009826 	32.0949021626 
748	32	3	0	7.5961836774 	14.3070024104 	28.6425578462 
749	69	3	0	0.4044014185 	20.4162293645 	32.0939464575 
750	33	3	0	8.6834544121 	27.3975883669 	28.6416002885 
751	66	3	0	7.5375177713 	20.4162155167 	29.6737196396 
752	70	3	0	15.8165634757 	27.3974187761 	33.1260597256 
753	66	3	0	7.5961157724 	20.3462828569 	32.0949024871 
754	65	3	0	15.8751665667 	27.3274866957 	28.6425578662 
755	69	3	0	0.3457437281 	20.3462242156 	29.6727072423 
756	40	3	0	8.6247875484 	27.3275790365 	33.1250472726 
757	68	3	0	15.8164956011 	21.2182730964 	29.6737195342 
758	39	3	0	7.5375844360 	14.2370640213 	33.1260574324 
759	66	3	0	8.6833847185 	21.2182558772 	32.0939457373 
760	62	3	0	0.4044738954 	14.2368958691 	28.6416028183 
761	66	3	0	9.2105740110 	21.6992202663 	30.8827110351 
762	66	3	0	10.3484102395 	22.6415128974 	30.8819383631 
763	62	3	0	0.9316536889 	14.7178617637 	27.4303749551 
764	67	3	0	2.0694957245 	15.6601791760 	34.3342609341 
765	68	3	0	15.2893891510 	21.6991430616 	30.8849323863 
766	68	3	0	14.1518384348 	22.6417853145 	30.8853581049 
767	32	3	0	7.0104673376 	14.7179420338 	27.4325975298 
768	32	3	0	5.8729308690 	15.6605525892 	27.4330021421 
769	69	3	0	0.9315937971 	19.9352639964 	30.8827119643 
770	69	3	0	2.0694290146 	18.9929734755 	30.8819338806 
771	33	3	0	9.2106278582 	26.9166246084 	27.4303765134 
772	40	3	0	10.3484767204 	25.9743028895 	34.3342637013 
773	66	3	0	7.0104123979 	19.9353416436 	30.8849317896 
774	66	3	0	5.8728629673 	18.9927017680 	30.8853597821 
775	65	3	0	15.2894501266 	26.9165439000 	27.4325951661 
776	65	3	0	14.1519064832 	25.9739288295 	27.4330016800 
777	66	4	0	9.0015865552 	21.6421095444 	28.7211359533 
778	67	4	0	0.7226829950 	14.6607396017 	32.1734771508 
779	68	4	0	15.4983417371 	21.6425580937 	33.0463543550 
780	32	4	0	7.2194470316 	14.6613751353 	29.5940111135 
781	69	4	0	0.8298517920 	20.1201686615 	33.0447081886 
782	33	4	0	9.1089124727 	27.1015461517 	29.5923653602 
783	66	4	0	7.1124439786 	20.1195488524 	28.7229304612 
784	70	4	0	15.3914995897 	27.1007413732 	32.1752707030 
785	66	4	0	7.2193648859 	19.9919285818 	33.0463543766 
786	65	4	0	15.4984229533 	26.9731159133 	29.5940117154 
787	69	4	0	0.7226114876 	19.9923836006 	28.7211361541 
788	40	4	0	9.0016617729 	26.9737484046 	32.1734760457 
789	68	4	0	15.3914264088 	21.5149448785 	28.7229302104 
790	39	4	0	7.1125194695 	14.5337471720 	32.1752707773 
791	66	4	0	9.1088326082 	21.5143180503 	33.0447085827 
792	62	4	0	0.8299319050 	14.5329458301 	29.5923652551 
793	1	1	0	12.2501690444 	24.3077105882 	36.0620075801 
794	1	1	0	12.2501694716 	24.3080552494 	39.5143494163 
795	1	1	0	3.9711901317 	17.3267745136 	36.0620068881 
796	1	1	0	3.9711908445 	17.3264299677 	39.5143485050 
797	1	2	0	10.7980073169 	23.0370903912 	36.6614455894 
798	1	2	0	2.5190668668 	16.0557537674 	40.1137967150 
799	1	2	0	13.7024912401 	23.0375981186 	38.9150317334 
800	1	2	0	5.4235474917 	16.0563738734 	35.4626988082 
801	1	2	0	2.5295948598 	18.6083593984 	38.9113877018 
802	1	2	0	10.8086109824 	25.5896935474 	35.4590483726 
803	1	2	0	5.4126838357 	18.6086223051 	36.6651152382 
804	1	2	0	13.6917050807 	25.5898508469 	40.1174624437 
805	1	2	0	5.4235124551 	18.5968885835 	38.9150313432 
806	1	2	0	13.7025283215 	25.5781144809 	35.4626991265 
807	1	2	0	2.5190280199 	18.5973967093 	36.6614459771 
808	1	2	0	10.7980439679 	25.5787343632 	40.1137963270 
809	1	2	0	13.6916620202 	23.0258628608 	36.6651165556 
810	1	2	0	5.4127227396 	16.0446371649 	40.1174596797 
811	1	2	0	10.8085737913 	23.0261258074 	38.9113868504 
812	1	2	0	2.5296361778 	16.0447942252 	35.4590506924 
813	1	2	0	12.2502149228 	23.3416321285 	41.2405268532 
814	1	2	0	3.9712727253 	16.3603513446 	37.7881844747 
815	1	2	0	3.9712365293 	18.2928550224 	41.2405262894 
816	1	2	0	12.2502511670 	25.2741356891 	37.7881849919 
817	71	3	0	8.6247226863 	21.2882634514 	36.5773916475 
818	50	3	0	0.3458139212 	14.3069079788 	40.0297292736 
819	72	3	0	15.8750918919 	21.2882009826 	38.9995854124 
820	39	3	0	7.5961836774 	14.3070024104 	35.5472410960 
821	73	3	0	0.4044014185 	20.4162293645 	38.9986297074 
822	40	3	0	8.6834544121 	27.3975883669 	35.5462835383 
823	71	3	0	7.5375177712 	20.4162155167 	36.5784028894 
824	49	3	0	15.8165634757 	27.3974187761 	40.0307429755 
825	71	3	0	7.5961157724 	20.3462828569 	38.9995857369 
826	70	3	0	15.8751665667 	27.3274866957 	35.5472411160 
827	73	3	0	0.3457437281 	20.3462242156 	36.5773904922 
828	5	3	0	8.6247875484 	27.3275790365 	40.0297305225 
829	72	3	0	15.8164956011 	21.2182730964 	36.5784027841 
830	7	3	0	7.5375844360 	14.2370640213 	40.0307406823 
831	71	3	0	8.6833847185 	21.2182558772 	38.9986289870 
832	67	3	0	0.4044738954 	14.2368958691 	35.5462860682 
833	71	3	0	9.2105740110 	21.6992202663 	37.7873942852 
834	71	3	0	10.3484102395 	22.6415128974 	37.7866216125 
835	67	3	0	0.9316536889 	14.7178617637 	34.3350582048 
836	50	3	0	2.0694957245 	15.6601791759 	41.2389441840 
837	72	3	0	15.2893891510 	21.6991430616 	37.7896156360 
838	72	3	0	14.1518384348 	22.6417853145 	37.7900413550 
839	39	3	0	7.0104673375 	14.7179420338 	34.3372807797 
840	39	3	0	5.8729308690 	15.6605525891 	34.3376853919 
841	73	3	0	0.9315937971 	19.9352639964 	37.7873952142 
842	73	3	0	2.0694290146 	18.9929734755 	37.7866171304 
843	40	3	0	9.2106278582 	26.9166246084 	34.3350597632 
844	5	3	0	10.3484767204 	25.9743028895 	41.2389469513 
845	71	3	0	7.0104123979 	19.9353416436 	37.7896150396 
846	71	3	0	5.8728629674 	18.9927017681 	37.7900430315 
847	70	3	0	15.2894501266 	26.9165439000 	34.3372784161 
848	70	3	0	14.1519064832 	25.9739288295 	34.3376849296 
849	71	4	0	9.0015865552 	21.6421095444 	35.6258192032 
850	50	4	0	0.7226829950 	14.6607396017 	39.0781604007 
851	72	4	0	15.4983417371 	21.6425580937 	39.9510376048 
852	39	4	0	7.2194470316 	14.6613751353 	36.4986943634 
853	73	4	0	0.8298517920 	20.1201686615 	39.9493914384 
854	40	4	0	9.1089124727 	27.1015461517 	36.4970486100 
855	71	4	0	7.1124439786 	20.1195488524 	35.6276137110 
856	49	4	0	15.3914995897 	27.1007413732 	39.0799539529 
857	71	4	0	7.2193648859 	19.9919285818 	39.9510376265 
858	70	4	0	15.4984229533 	26.9731159133 	36.4986949653 
859	73	4	0	0.7226114876 	19.9923836006 	35.6258194040 
860	5	4	0	9.0016617729 	26.9737484046 	39.0781592955 
861	72	4	0	15.3914264088 	21.5149448785 	35.6276134602 
862	7	4	0	7.1125194695 	14.5337471720 	39.0799540271 
863	71	4	0	9.1088326083 	21.5143180503 	39.9493918326 
864	67	4	0	0.8299319050 	14.5329458301 	36.4970485050 
865	1	1	0	28.8081267063 	10.3451484250 	1.5385913309 
866	1	1	0	28.8081271335 	10.3454930863 	4.9909331671 
867	1	1	0	20.5291477936 	3.3642123505 	1.5385906389 
868	1	1	0	20.5291485064 	3.3638678046 	4.9909322557 
869	1	2	0	27.3559649789 	9.0745282281 	2.1380293400 
870	1	2	0	19.0770245287 	2.0931916042 	5.5903804660 
871	1	2	0	30.2604489020 	9.0750359556 	4.3916154844 
872	1	2	0	21.9815051536 	2.0938117103 	0.9392825589 
873	1	2	0	19.0875525218 	4.6457972353 	4.3879714526 
874	1	2	0	27.3665686444 	11.6271313843 	0.9356321234 
875	1	2	0	21.9706414976 	4.6460601420 	2.1416989889 
876	1	2	0	30.2496627427 	11.6272886838 	5.5940461946 
877	1	2	0	21.9814701171 	4.6343264204 	4.3916150939 
878	1	2	0	30.2604859835 	11.6155523179 	0.9392828771 
879	1	2	0	19.0769856819 	4.6348345462 	2.1380297278 
880	1	2	0	27.3560016298 	11.6161722001 	5.5903800778 
881	1	2	0	30.2496196822 	9.0633006976 	2.1417003065 
882	1	2	0	21.9706804015 	2.0820750018 	5.5940434305 
883	1	2	0	27.3665314533 	9.0635636443 	4.3879706011 
884	1	2	0	19.0875938397 	2.0822320621 	0.9356344432 
885	1	2	0	28.8081725847 	9.3790699654 	6.7171106040 
886	1	2	0	20.5292303872 	2.3977891815 	3.2647682255 
887	1	2	0	20.5291941912 	4.3302928592 	6.7171100402 
888	1	2	0	28.8082088289 	11.3115735260 	3.2647687427 
889	74	3	0	25.1826803483 	7.3257012883 	2.0539753983 
890	48	3	0	16.9037715831 	0.3443458157 	5.5063130243 
891	6	3	0	32.4330495538 	7.3256388195 	4.4761691632 
892	75	3	0	24.1541413394 	0.3444402472 	1.0238248468 
893	4	3	0	16.9623590804 	6.4536672014 	4.4752134581 
894	76	3	0	25.2414120741 	13.4350262038 	1.0228672891 
895	74	3	0	24.0954754332 	6.4536533536 	2.0549866402 
896	45	3	0	32.3745211376 	13.4348566130 	5.5073267263 
897	74	3	0	24.1540734344 	6.3837206938 	4.4761694877 
898	50	3	0	32.4331242286 	13.3649245325 	1.0238248669 
899	4	3	0	16.9037013900 	6.3836620525 	2.0539742430 
900	77	3	0	25.1827452103 	13.3650168734 	5.5063142733 
901	6	3	0	32.3744532630 	7.2557109333 	2.0549865348 
902	78	3	0	24.0955420979 	0.2745018582 	5.5073244331 
903	74	3	0	25.2413423804 	7.2556937141 	4.4752127378 
904	49	3	0	16.9624315574 	0.2743337059 	1.0228698190 
905	74	3	0	25.7685316730 	7.7366581032 	3.2639780359 
906	74	3	0	26.9063679015 	8.6789507343 	3.2632053635 
907	49	3	0	17.4896113508 	0.7552996006 	-0.1883580444 
908	48	3	0	18.6274533864 	1.6976170128 	6.7155279344 
909	6	3	0	31.8473468130 	7.7365808985 	3.2661993869 
910	6	3	0	30.7097960967 	8.6792231514 	3.2666251054 
911	75	3	0	23.5684249995 	0.7553798707 	-0.1861354696 
912	75	3	0	22.4308885309 	1.6979904260 	-0.1857308572 
913	4	3	0	17.4895514591 	5.9727018332 	3.2639789649 
914	4	3	0	18.6273866765 	5.0304113124 	3.2632008813 
915	76	3	0	25.7685855202 	12.9540624453 	-0.1883564861 
916	77	3	0	26.9064343823 	12.0117407264 	6.7155307021 
917	74	3	0	23.5683700598 	5.9727794805 	3.2661987903 
918	74	3	0	22.4308206293 	5.0301396049 	3.2666267825 
919	50	3	0	31.8474077885 	12.9539817369 	-0.1861378333 
920	50	3	0	30.7098641452 	12.0113666664 	-0.1857313191 
921	74	4	0	25.5595442171 	7.6795473812 	1.1024029540 
922	48	4	0	17.2806406569 	0.6981774385 	4.5547441515 
923	6	4	0	32.0562993991 	7.6799959305 	5.4276213556 
924	75	4	0	23.7774046935 	0.6988129722 	1.9752781142 
925	4	4	0	17.3878094540 	6.1576064983 	5.4259751892 
926	76	4	0	25.6668701347 	13.1389839886 	1.9736323608 
927	74	4	0	23.6704016406 	6.1569866893 	1.1041974618 
928	45	4	0	31.9494572517 	13.1381792101 	4.5565377036 
929	74	4	0	23.7773225478 	6.0293664187 	5.4276213772 
930	50	4	0	32.0563806153 	13.0105537502 	1.9752787161 
931	4	4	0	17.2805691495 	6.0298214375 	1.1024031547 
932	77	4	0	25.5596194349 	13.0111862414 	4.5547430463 
933	6	4	0	31.9493840707 	7.5523827153 	1.1041972110 
934	78	4	0	23.6704771315 	0.5711850088 	4.5565377779 
935	74	4	0	25.6667902702 	7.5517558872 	5.4259755833 
936	49	4	0	17.3878895670 	0.5703836670 	1.9736322558 
937	1	1	0	28.8081267063 	10.3451484250 	8.4432745807 
938	1	1	0	28.8081271336 	10.3454930863 	11.8956164169 
939	1	1	0	20.5291477936 	3.3642123505 	8.4432738888 
940	1	1	0	20.5291485064 	3.3638678046 	11.8956155056 
941	1	2	0	27.3559649789 	9.0745282281 	9.0427125898 
942	1	2	0	19.0770245288 	2.0931916043 	12.4950637158 
943	1	2	0	30.2604489020 	9.0750359556 	11.2962987342 
944	1	2	0	21.9815051536 	2.0938117103 	7.8439658087 
945	1	2	0	19.0875525218 	4.6457972353 	11.2926547024 
946	1	2	0	27.3665686443 	11.6271313843 	7.8403153732 
947	1	2	0	21.9706414976 	4.6460601420 	9.0463822386 
948	1	2	0	30.2496627427 	11.6272886838 	12.4987294443 
949	1	2	0	21.9814701171 	4.6343264205 	11.2962983437 
950	1	2	0	30.2604859834 	11.6155523179 	7.8439661271 
951	1	2	0	19.0769856819 	4.6348345462 	9.0427129776 
952	1	2	0	27.3560016298 	11.6161722001 	12.4950633278 
953	1	2	0	30.2496196822 	9.0633006977 	9.0463835563 
954	1	2	0	21.9706804015 	2.0820750018 	12.4987266805 
955	1	2	0	27.3665314532 	9.0635636443 	11.2926538509 
956	1	2	0	19.0875938397 	2.0822320621 	7.8403176932 
957	1	2	0	28.8081725847 	9.3790699654 	13.6217938539 
958	1	2	0	20.5292303872 	2.3977891815 	10.1694514754 
959	1	2	0	20.5291941912 	4.3302928592 	13.6217932900 
960	1	2	0	28.8082088289 	11.3115735260 	10.1694519925 
961	79	3	0	25.1826803483 	7.3257012883 	8.9586586482 
962	55	3	0	16.9037715831 	0.3443458157 	12.4109962741 
963	16	3	0	32.4330495538 	7.3256388195 	11.3808524130 
964	78	3	0	24.1541413394 	0.3444402472 	7.9285080967 
965	15	3	0	16.9623590804 	6.4536672014 	11.3798967080 
966	77	3	0	25.2414120741 	13.4350262038 	7.9275505390 
967	79	3	0	24.0954754332 	6.4536533536 	8.9596698900 
968	52	3	0	32.3745211376 	13.4348566130 	12.4120099761 
969	79	3	0	24.1540734344 	6.3837206938 	11.3808527375 
970	45	3	0	32.4331242286 	13.3649245325 	7.9285081167 
971	15	3	0	16.9037013900 	6.3836620525 	8.9586574928 
972	80	3	0	25.1827452103 	13.3650168734 	12.4109975231 
973	16	3	0	32.3744532630 	7.2557109333 	8.9596697847 
974	81	3	0	24.0955420979 	0.2745018582 	12.4120076829 
975	79	3	0	25.2413423804 	7.2556937141 	11.3798959877 
976	48	3	0	16.9624315574 	0.2743337059 	7.9275530688 
977	79	3	0	25.7685316730 	7.7366581032 	10.1686612856 
978	79	3	0	26.9063679015 	8.6789507343 	10.1678886135 
979	48	3	0	17.4896113508 	0.7552996006 	6.7163252056 
980	55	3	0	18.6274533864 	1.6976170128 	13.6202111844 
981	16	3	0	31.8473468130 	7.7365808985 	10.1708826367 
982	16	3	0	30.7097960967 	8.6792231514 	10.1713083553 
983	78	3	0	23.5684249995 	0.7553798707 	6.7185477802 
984	78	3	0	22.4308885309 	1.6979904260 	6.7189523927 
985	15	3	0	17.4895514591 	5.9727018332 	10.1686622148 
986	15	3	0	18.6273866765 	5.0304113124 	10.1678841312 
987	77	3	0	25.7685855202 	12.9540624453 	6.7163267637 
988	80	3	0	26.9064343823 	12.0117407263 	13.6202139516 
989	79	3	0	23.5683700598 	5.9727794805 	10.1708820401 
990	79	3	0	22.4308206293 	5.0301396049 	10.1713100326 
991	45	3	0	31.8474077885 	12.9539817369 	6.7185454166 
992	45	3	0	30.7098641452 	12.0113666664 	6.7189519304 
993	79	4	0	25.5595442171 	7.6795473812 	8.0070862038 
994	55	4	0	17.2806406569 	0.6981774385 	11.4594274013 
995	16	4	0	32.0562993991 	7.6799959305 	12.3323046055 
996	78	4	0	23.7774046935 	0.6988129722 	8.8799613640 
997	15	4	0	17.3878094540 	6.1576064983 	12.3306584391 
998	77	4	0	25.6668701347 	13.1389839886 	8.8783156106 
999	79	4	0	23.6704016406 	6.1569866893 	8.0088807117 
1000	52	4	0	31.9494572517 	13.1381792101 	11.4612209535 
1001	79	4	0	23.7773225478 	6.0293664187 	12.3323046271 
1002	45	4	0	32.0563806153 	13.0105537502 	8.8799619659 
1003	15	4	0	17.2805691495 	6.0298214375 	8.0070864046 
1004	80	4	0	25.5596194349 	13.0111862415 	11.4594262961 
1005	16	4	0	31.9493840707 	7.5523827153 	8.0088804608 
1006	81	4	0	23.6704771315 	0.5711850088 	11.4612210277 
1007	79	4	0	25.6667902702 	7.5517558872 	12.3306588332 
1008	48	4	0	17.3878895670 	0.5703836670 	8.8783155056 
1009	1	1	0	28.8081267063 	10.3451484250 	15.3479578306 
1010	1	1	0	28.8081271335 	10.3454930863 	18.8002996667 
1011	1	1	0	20.5291477936 	3.3642123505 	15.3479571386 
1012	1	1	0	20.5291485064 	3.3638678046 	18.8002987554 
1013	1	2	0	27.3559649789 	9.0745282281 	15.9473958396 
1014	1	2	0	19.0770245287 	2.0931916042 	19.3997469657 
1015	1	2	0	30.2604489021 	9.0750359555 	18.2009819840 
1016	1	2	0	21.9815051536 	2.0938117103 	14.7486490586 
1017	1	2	0	19.0875525218 	4.6457972353 	18.1973379522 
1018	1	2	0	27.3665686444 	11.6271313843 	14.7449986231 
1019	1	2	0	21.9706414976 	4.6460601420 	15.9510654885 
1020	1	2	0	30.2496627427 	11.6272886838 	19.4034126942 
1021	1	2	0	21.9814701171 	4.6343264205 	18.2009815935 
1022	1	2	0	30.2604859835 	11.6155523179 	14.7486493768 
1023	1	2	0	19.0769856819 	4.6348345462 	15.9473962275 
1024	1	2	0	27.3560016298 	11.6161722001 	19.3997465777 
1025	1	2	0	30.2496196822 	9.0633006977 	15.9510668061 
1026	1	2	0	21.9706804015 	2.0820750018 	19.4034099303 
1027	1	2	0	27.3665314532 	9.0635636443 	18.1973371007 
1028	1	2	0	19.0875938397 	2.0822320621 	14.7450009430 
1029	1	2	0	28.8081725847 	9.3790699654 	20.5264771037 
1030	1	2	0	20.5292303872 	2.3977891815 	17.0741347252 
1031	1	2	0	20.5291941912 	4.3302928592 	20.5264765399 
1032	1	2	0	28.8082088289 	11.3115735260 	17.0741352424 
1033	82	3	0	25.1826803483 	7.3257012883 	15.8633418980 
1034	60	3	0	16.9037715831 	0.3443458157 	19.3156795240 
1035	23	3	0	32.4330495538 	7.3256388195 	18.2855356629 
1036	81	3	0	24.1541413394 	0.3444402472 	14.8331913465 
1037	22	3	0	16.9623590804 	6.4536672014 	18.2845799578 
1038	80	3	0	25.2414120741 	13.4350262038 	14.8322337888 
1039	82	3	0	24.0954754332 	6.4536533536 	15.8643531399 
1040	57	3	0	32.3745211376 	13.4348566130 	19.3166932260 
1041	82	3	0	24.1540734344 	6.3837206938 	18.2855359874 
1042	52	3	0	32.4331242286 	13.3649245325 	14.8331913665 
1043	22	3	0	16.9037013900 	6.3836620525 	15.8633407427 
1044	83	3	0	25.1827452103 	13.3650168734 	19.3156807729 
1045	23	3	0	32.3744532630 	7.2557109333 	15.8643530345 
1046	84	3	0	24.0955420979 	0.2745018581 	19.3166909327 
1047	82	3	0	25.2413423804 	7.2556937141 	18.2845792375 
1048	55	3	0	16.9624315574 	0.2743337059 	14.8322363186 
1049	82	3	0	25.7685316730 	7.7366581032 	17.0733445355 
1050	82	3	0	26.9063679015 	8.6789507343 	17.0725718634 
1051	55	3	0	17.4896113508 	0.7552996006 	13.6210084554 
1052	60	3	0	18.6274533864 	1.6976170128 	20.5248944340 
1053	23	3	0	31.8473468130 	7.7365808985 	17.0755658865 
1054	23	3	0	30.7097960967 	8.6792231514 	17.0759916053 
1055	81	3	0	23.5684249995 	0.7553798707 	13.6232310302 
1056	81	3	0	22.4308885309 	1.6979904260 	13.6236356423 
1057	22	3	0	17.4895514591 	5.9727018332 	17.0733454646 
1058	22	3	0	18.6273866765 	5.0304113124 	17.0725673810 
1059	80	3	0	25.7685855202 	12.9540624453 	13.6210100137 
1060	83	3	0	26.9064343823 	12.0117407263 	20.5248972014 
1061	82	3	0	23.5683700598 	5.9727794805 	17.0755652899 
1062	82	3	0	22.4308206293 	5.0301396049 	17.0759932824 
1063	52	3	0	31.8474077885 	12.9539817369 	13.6232286664 
1064	52	3	0	30.7098641452 	12.0113666664 	13.6236351804 
1065	82	4	0	25.5595442171 	7.6795473812 	14.9117694537 
1066	60	4	0	17.2806406569 	0.6981774385 	18.3641106512 
1067	23	4	0	32.0562993991 	7.6799959305 	19.2369878553 
1068	81	4	0	23.7774046935 	0.6988129722 	15.7846446138 
1069	22	4	0	17.3878094540 	6.1576064983 	19.2353416889 
1070	80	4	0	25.6668701347 	13.1389839886 	15.7829988605 
1071	82	4	0	23.6704016406 	6.1569866893 	14.9135639615 
1072	57	4	0	31.9494572517 	13.1381792101 	18.3659042033 
1073	82	4	0	23.7773225478 	6.0293664187 	19.2369878769 
1074	52	4	0	32.0563806153 	13.0105537502 	15.7846452158 
1075	22	4	0	17.2805691495 	6.0298214375 	14.9117696544 
1076	83	4	0	25.5596194349 	13.0111862415 	18.3641095460 
1077	23	4	0	31.9493840707 	7.5523827154 	14.9135637107 
1078	84	4	0	23.6704771315 	0.5711850088 	18.3659042776 
1079	82	4	0	25.6667902702 	7.5517558872 	19.2353420830 
1080	55	4	0	17.3878895670 	0.5703836670 	15.7829987555 
1081	1	1	0	28.8081267063 	10.3451484250 	22.2526410804 
1082	1	1	0	28.8081271335 	10.3454930863 	25.7049829166 
1083	1	1	0	20.5291477936 	3.3642123505 	22.2526403885 
1084	1	1	0	20.5291485064 	3.3638678045 	25.7049820053 
1085	1	2	0	27.3559649789 	9.0745282282 	22.8520790894 
1086	1	2	0	19.0770245287 	2.0931916042 	26.3044302155 
1087	1	2	0	30.2604489020 	9.0750359556 	25.1056652339 
1088	1	2	0	21.9815051536 	2.0938117103 	21.6533323085 
1089	1	2	0	19.0875525218 	4.6457972353 	25.1020212020 
1090	1	2	0	27.3665686444 	11.6271313843 	21.6496818730 
1091	1	2	0	21.9706414976 	4.6460601419 	22.8557487382 
1092	1	2	0	30.2496627427 	11.6272886838 	26.3080959441 
1093	1	2	0	21.9814701171 	4.6343264205 	25.1056648433 
1094	1	2	0	30.2604859835 	11.6155523179 	21.6533326267 
1095	1	2	0	19.0769856819 	4.6348345462 	22.8520794773 
1096	1	2	0	27.3560016298 	11.6161722001 	26.3044298274 
1097	1	2	0	30.2496196822 	9.0633006976 	22.8557500561 
1098	1	2	0	21.9706804015 	2.0820750018 	26.3080931801 
1099	1	2	0	27.3665314532 	9.0635636443 	25.1020203505 
1100	1	2	0	19.0875938398 	2.0822320621 	21.6496841929 
1101	1	2	0	28.8081725847 	9.3790699654 	27.4311603536 
1102	1	2	0	20.5292303872 	2.3977891815 	23.9788179750 
1103	1	2	0	20.5291941912 	4.3302928592 	27.4311597897 
1104	1	2	0	28.8082088289 	11.3115735260 	23.9788184922 
1105	85	3	0	25.1826803483 	7.3257012883 	22.7680251479 
1106	65	3	0	16.9037715831 	0.3443458157 	26.2203627738 
1107	30	3	0	32.4330495538 	7.3256388195 	25.1902189127 
1108	84	3	0	24.1541413394 	0.3444402472 	21.7378745963 
1109	29	3	0	16.9623590804 	6.4536672014 	25.1892632077 
1110	83	3	0	25.2414120741 	13.4350262038 	21.7369170386 
1111	85	3	0	24.0954754332 	6.4536533536 	22.7690363898 
1112	62	3	0	32.3745211376 	13.4348566130 	26.2213764758 
1113	85	3	0	24.1540734344 	6.3837206938 	25.1902192372 
1114	57	3	0	32.4331242286 	13.3649245325 	21.7378746164 
1115	29	3	0	16.9037013900 	6.3836620525 	22.7680239925 
1116	86	3	0	25.1827452103 	13.3650168734 	26.2203640228 
1117	30	3	0	32.3744532630 	7.2557109333 	22.7690362843 
1118	87	3	0	24.0955420979 	0.2745018582 	26.2213741826 
1119	85	3	0	25.2413423804 	7.2556937141 	25.1892624874 
1120	60	3	0	16.9624315573 	0.2743337059 	21.7369195684 
1121	85	3	0	25.7685316730 	7.7366581032 	23.9780277853 
1122	85	3	0	26.9063679015 	8.6789507343 	23.9772551134 
1123	60	3	0	17.4896113508 	0.7552996006 	20.5256917053 
1124	65	3	0	18.6274533864 	1.6976170128 	27.4295776839 
1125	30	3	0	31.8473468130 	7.7365808985 	23.9802491364 
1126	30	3	0	30.7097960967 	8.6792231514 	23.9806748549 
1127	84	3	0	23.5684249995 	0.7553798707 	20.5279142800 
1128	84	3	0	22.4308885309 	1.6979904260 	20.5283188922 
1129	29	3	0	17.4895514591 	5.9727018332 	23.9780287144 
1130	29	3	0	18.6273866765 	5.0304113124 	23.9772506309 
1131	83	3	0	25.7685855202 	12.9540624453 	20.5256932636 
1132	86	3	0	26.9064343823 	12.0117407264 	27.4295804515 
1133	85	3	0	23.5683700598 	5.9727794805 	23.9802485397 
1134	85	3	0	22.4308206293 	5.0301396049 	23.9806765324 
1135	57	3	0	31.8474077885 	12.9539817369 	20.5279119163 
1136	57	3	0	30.7098641452 	12.0113666664 	20.5283184302 
1137	85	4	0	25.5595442171 	7.6795473812 	21.8164527035 
1138	65	4	0	17.2806406569 	0.6981774385 	25.2687939010 
1139	30	4	0	32.0562993991 	7.6799959305 	26.1416711051 
1140	84	4	0	23.7774046935 	0.6988129722 	22.6893278637 
1141	29	4	0	17.3878094540 	6.1576064983 	26.1400249388 
1142	83	4	0	25.6668701347 	13.1389839886 	22.6876821103 
1143	85	4	0	23.6704016406 	6.1569866893 	21.8182472113 
1144	62	4	0	31.9494572517 	13.1381792101 	25.2705874532 
1145	85	4	0	23.7773225478 	6.0293664187 	26.1416711268 
1146	57	4	0	32.0563806153 	13.0105537502 	22.6893284656 
1147	29	4	0	17.2805691495 	6.0298214375 	21.8164529043 
1148	86	4	0	25.5596194349 	13.0111862414 	25.2687927958 
1149	30	4	0	31.9493840707 	7.5523827154 	21.8182469605 
1150	87	4	0	23.6704771315 	0.5711850088 	25.2705875274 
1151	85	4	0	25.6667902702 	7.5517558872 	26.1400253329 
1152	60	4	0	17.3878895670 	0.5703836670 	22.6876820053 
1153	1	1	0	28.8081267063 	10.3451484250 	29.1573243303 
1154	1	1	0	28.8081271336 	10.3454930863 	32.6096661664 
1155	1	1	0	20.5291477936 	3.3642123505 	29.1573236383 
1156	1	1	0	20.5291485064 	3.3638678046 	32.6096652551 
1157	1	2	0	27.3559649789 	9.0745282281 	29.7567623393 
1158	1	2	0	19.0770245287 	2.0931916042 	33.2091134655 
1159	1	2	0	30.2604489020 	9.0750359556 	32.0103484837 
1160	1	2	0	21.9815051536 	2.0938117103 	28.5580155583 
1161	1	2	0	19.0875525217 	4.6457972353 	32.0067044518 
1162	1	2	0	27.3665686443 	11.6271313843 	28.5543651227 
1163	1	2	0	21.9706414976 	4.6460601420 	29.7604319881 
1164	1	2	0	30.2496627427 	11.6272886838 	33.2127791939 
1165	1	2	0	21.9814701171 	4.6343264205 	32.0103480932 
1166	1	2	0	30.2604859834 	11.6155523179 	28.5580158766 
1167	1	2	0	19.0769856819 	4.6348345462 	29.7567627271 
1168	1	2	0	27.3560016298 	11.6161722001 	33.2091130773 
1169	1	2	0	30.2496196822 	9.0633006977 	29.7604333059 
1170	1	2	0	21.9706804015 	2.0820750018 	33.2127764299 
1171	1	2	0	27.3665314532 	9.0635636443 	32.0067036004 
1172	1	2	0	19.0875938398 	2.0822320621 	28.5543674427 
1173	1	2	0	28.8081725847 	9.3790699654 	34.3358436034 
1174	1	2	0	20.5292303872 	2.3977891815 	30.8835012249 
1175	1	2	0	20.5291941912 	4.3302928592 	34.3358430395 
1176	1	2	0	28.8082088289 	11.3115735260 	30.8835017420 
1177	88	3	0	25.1826803483 	7.3257012883 	29.6727083977 
1178	70	3	0	16.9037715831 	0.3443458157 	33.1250460236 
1179	37	3	0	32.4330495538 	7.3256388195 	32.0949021626 
1180	87	3	0	24.1541413394 	0.3444402472 	28.6425578462 
1181	36	3	0	16.9623590804 	6.4536672014 	32.0939464575 
1182	86	3	0	25.2414120741 	13.4350262038 	28.6416002885 
1183	88	3	0	24.0954754332 	6.4536533536 	29.6737196396 
1184	67	3	0	32.3745211376 	13.4348566130 	33.1260597257 
1185	88	3	0	24.1540734344 	6.3837206938 	32.0949024871 
1186	62	3	0	32.4331242286 	13.3649245325 	28.6425578662 
1187	36	3	0	16.9037013901 	6.3836620525 	29.6727072424 
1188	89	3	0	25.1827452103 	13.3650168734 	33.1250472726 
1189	37	3	0	32.3744532630 	7.2557109333 	29.6737195342 
1190	90	3	0	24.0955420979 	0.2745018581 	33.1260574324 
1191	88	3	0	25.2413423804 	7.2556937141 	32.0939457372 
1192	65	3	0	16.9624315574 	0.2743337059 	28.6416028183 
1193	88	3	0	25.7685316730 	7.7366581032 	30.8827110352 
1194	88	3	0	26.9063679015 	8.6789507343 	30.8819383631 
1195	65	3	0	17.4896113508 	0.7552996006 	27.4303749551 
1196	70	3	0	18.6274533864 	1.6976170128 	34.3342609335 
1197	37	3	0	31.8473468130 	7.7365808985 	30.8849323863 
1198	37	3	0	30.7097960967 	8.6792231514 	30.8853581048 
1199	87	3	0	23.5684249995 	0.7553798707 	27.4325975298 
1200	87	3	0	22.4308885309 	1.6979904260 	27.4330021421 
1201	36	3	0	17.4895514591 	5.9727018332 	30.8827119642 
1202	36	3	0	18.6273866765 	5.0304113124 	30.8819338808 
1203	86	3	0	25.7685855202 	12.9540624453 	27.4303765133 
1204	89	3	0	26.9064343823 	12.0117407263 	34.3342637012 
1205	88	3	0	23.5683700598 	5.9727794805 	30.8849317896 
1206	88	3	0	22.4308206293 	5.0301396049 	30.8853597822 
1207	62	3	0	31.8474077885 	12.9539817369 	27.4325951661 
1208	62	3	0	30.7098641452 	12.0113666664 	27.4330016799 
1209	88	4	0	25.5595442171 	7.6795473812 	28.7211359533 
1210	70	4	0	17.2806406569 	0.6981774385 	32.1734771509 
1211	37	4	0	32.0562993991 	7.6799959305 	33.0463543550 
1212	87	4	0	23.7774046935 	0.6988129722 	29.5940111135 
1213	36	4	0	17.3878094540 	6.1576064983 	33.0447081886 
1214	86	4	0	25.6668701347 	13.1389839886 	29.5923653602 
1215	88	4	0	23.6704016406 	6.1569866893 	28.7229304612 
1216	67	4	0	31.9494572517 	13.1381792101 	32.1752707030 
1217	88	4	0	23.7773225478 	6.0293664187 	33.0463543766 
1218	62	4	0	32.0563806153 	13.0105537502 	29.5940117154 
1219	36	4	0	17.2805691495 	6.0298214375 	28.7211361541 
1220	89	4	0	25.5596194349 	13.0111862415 	32.1734760457 
1221	37	4	0	31.9493840707 	7.5523827153 	28.7229302104 
1222	90	4	0	23.6704771314 	0.5711850088 	32.1752707773 
1223	88	4	0	25.6667902702 	7.5517558872 	33.0447085827 
1224	65	4	0	17.3878895670 	0.5703836670 	29.5923652551 
1225	1	1	0	28.8081267063 	10.3451484250 	36.0620075801 
1226	1	1	0	28.8081271335 	10.3454930863 	39.5143494163 
1227	1	1	0	20.5291477936 	3.3642123505 	36.0620068881 
1228	1	1	0	20.5291485064 	3.3638678045 	39.5143485050 
1229	1	2	0	27.3559649789 	9.0745282281 	36.6614455892 
1230	1	2	0	19.0770245288 	2.0931916043 	40.1137967151 
1231	1	2	0	30.2604489020 	9.0750359556 	38.9150317336 
1232	1	2	0	21.9815051536 	2.0938117103 	35.4626988081 
1233	1	2	0	19.0875525218 	4.6457972353 	38.9113877018 
1234	1	2	0	27.3665686444 	11.6271313843 	35.4590483726 
1235	1	2	0	21.9706414976 	4.6460601420 	36.6651152380 
1236	1	2	0	30.2496627427 	11.6272886838 	40.1174624437 
1237	1	2	0	21.9814701171 	4.6343264205 	38.9150313430 
1238	1	2	0	30.2604859835 	11.6155523179 	35.4626991264 
1239	1	2	0	19.0769856819 	4.6348345462 	36.6614459770 
1240	1	2	0	27.3560016298 	11.6161722001 	40.1137963271 
1241	1	2	0	30.2496196822 	9.0633006977 	36.6651165557 
1242	1	2	0	21.9706804015 	2.0820750018 	40.1174596798 
1243	1	2	0	27.3665314533 	9.0635636443 	38.9113868503 
1244	1	2	0	19.0875938398 	2.0822320621 	35.4590506927 
1245	1	2	0	28.8081725847 	9.3790699654 	41.2405268532 
1246	1	2	0	20.5292303872 	2.3977891815 	37.7881844747 
1247	1	2	0	20.5291941912 	4.3302928592 	41.2405262894 
1248	1	2	0	28.8082088289 	11.3115735260 	37.7881849919 
1249	91	3	0	25.1826803483 	7.3257012883 	36.5773916475 
1250	49	3	0	16.9037715831 	0.3443458157 	40.0297292735 
1251	43	3	0	32.4330495538 	7.3256388195 	38.9995854124 
1252	90	3	0	24.1541413394 	0.3444402472 	35.5472410960 
1253	42	3	0	16.9623590804 	6.4536672014 	38.9986297074 
1254	89	3	0	25.2414120741 	13.4350262038 	35.5462835383 
1255	91	3	0	24.0954754332 	6.4536533536 	36.5784028894 
1256	50	3	0	32.3745211376 	13.4348566130 	40.0307429755 
1257	91	3	0	24.1540734344 	6.3837206938 	38.9995857369 
1258	67	3	0	32.4331242286 	13.3649245325 	35.5472411161 
1259	42	3	0	16.9037013901 	6.3836620525 	36.5773904922 
1260	76	3	0	25.1827452103 	13.3650168734 	40.0297305225 
1261	43	3	0	32.3744532630 	7.2557109333 	36.5784027840 
1262	75	3	0	24.0955420979 	0.2745018581 	40.0307406823 
1263	91	3	0	25.2413423804 	7.2556937141 	38.9986289871 
1264	70	3	0	16.9624315574 	0.2743337059 	35.5462860681 
1265	91	3	0	25.7685316730 	7.7366581032 	37.7873942850 
1266	91	3	0	26.9063679015 	8.6789507343 	37.7866216129 
1267	70	3	0	17.4896113508 	0.7552996006 	34.3350582051 
1268	49	3	0	18.6274533864 	1.6976170128 	41.2389441839 
1269	43	3	0	31.8473468130 	7.7365808985 	37.7896156361 
1270	43	3	0	30.7097960967 	8.6792231514 	37.7900413546 
1271	90	3	0	23.5684249995 	0.7553798707 	34.3372807796 
1272	90	3	0	22.4308885309 	1.6979904260 	34.3376853920 
1273	42	3	0	17.4895514591 	5.9727018332 	37.7873952141 
1274	42	3	0	18.6273866765 	5.0304113124 	37.7866171305 
1275	89	3	0	25.7685855202 	12.9540624453 	34.3350597632 
1276	76	3	0	26.9064343823 	12.0117407264 	41.2389469512 
1277	91	3	0	23.5683700598 	5.9727794805 	37.7896150395 
1278	91	3	0	22.4308206293 	5.0301396049 	37.7900430320 
1279	67	3	0	31.8474077885 	12.9539817369 	34.3372784159 
1280	67	3	0	30.7098641452 	12.0113666664 	34.3376849300 
1281	91	4	0	25.5595442171 	7.6795473812 	35.6258192032 
1282	49	4	0	17.2806406569 	0.6981774385 	39.0781604007 
1283	43	4	0	32.0562993991 	7.6799959305 	39.9510376048 
1284	90	4	0	23.7774046935 	0.6988129722 	36.4986943634 
1285	42	4	0	17.3878094540 	6.1576064983 	39.9493914384 
1286	89	4	0	25.6668701347 	13.1389839886 	36.4970486100 
1287	91	4	0	23.6704016406 	6.1569866893 	35.6276137110 
1288	50	4	0	31.9494572517 	13.1381792101 	39.0799539529 
1289	91	4	0	23.7773225478 	6.0293664187 	39.9510376265 
1290	67	4	0	32.0563806153 	13.0105537502 	36.4986949653 
1291	42	4	0	17.2805691495 	6.0298214375 	35.6258194039 
1292	76	4	0	25.5596194349 	13.0111862414 	39.0781592955 
1293	43	4	0	31.9493840707 	7.5523827153 	35.6276134602 
1294	75	4	0	23.6704771314 	0.5711850088 	39.0799540271 
1295	91	4	0	25.6667902702 	7.5517558872 	39.9493918326 
1296	70	4	0	17.3878895670 	0.5703836670 	36.4970485050 
1297	1	1	0	28.8081267063 	24.3077105881 	1.5385913309 
1298	1	1	0	28.8081271335 	24.3080552494 	4.9909331671 
1299	1	1	0	20.5291477936 	17.3267745136 	1.5385906389 
1300	1	1	0	20.5291485064 	17.3264299677 	4.9909322557 
1301	1	2	0	27.3559649789 	23.0370903912 	2.1380293400 
1302	1	2	0	19.0770245287 	16.0557537674 	5.5903804660 
1303	1	2	0	30.2604489020 	23.0375981187 	4.3916154844 
1304	1	2	0	21.9815051536 	16.0563738734 	0.9392825589 
1305	1	2	0	19.0875525218 	18.6083593984 	4.3879714526 
1306	1	2	0	27.3665686443 	25.5896935474 	0.9356321233 
1307	1	2	0	21.9706414976 	18.6086223051 	2.1416989888 
1308	1	2	0	30.2496627427 	25.5898508469 	5.5940461945 
1309	1	2	0	21.9814701171 	18.5968885836 	4.3916150939 
1310	1	2	0	30.2604859835 	25.5781144810 	0.9392828772 
1311	1	2	0	19.0769856819 	18.5973967093 	2.1380297278 
1312	1	2	0	27.3560016298 	25.5787343632 	5.5903800779 
1313	1	2	0	30.2496196822 	23.0258628608 	2.1417003065 
1314	1	2	0	21.9706804015 	16.0446371649 	5.5940434305 
1315	1	2	0	27.3665314533 	23.0261258074 	4.3879706011 
1316	1	2	0	19.0875938398 	16.0447942252 	0.9356344433 
1317	1	2	0	28.8081725847 	23.3416321285 	6.7171106040 
1318	1	2	0	20.5292303872 	16.3603513446 	3.2647682255 
1319	1	2	0	20.5291941912 	18.2928550224 	6.7171100402 
1320	1	2	0	28.8082088289 	25.2741356891 	3.2647687427 
1321	92	3	0	25.1826803483 	21.2882634514 	2.0539753983 
1322	8	3	0	16.9037715831 	14.3069079788 	5.5063130243 
1323	47	3	0	32.4330495538 	21.2882009826 	4.4761691632 
1324	76	3	0	24.1541413394 	14.3070024104 	1.0238248468 
1325	46	3	0	16.9623590804 	20.4162293645 	4.4752134581 
1326	75	3	0	25.2414120741 	27.3975883669 	1.0228672891 
1327	92	3	0	24.0954754332 	20.4162155167 	2.0549866402 
1328	3	3	0	32.3745211376 	27.3974187761 	5.5073267263 
1329	92	3	0	24.1540734344 	20.3462828569 	4.4761694877 
1330	12	3	0	32.4331242286 	27.3274866957 	1.0238248668 
1331	46	3	0	16.9037013900 	20.3462242156 	2.0539742430 
1332	78	3	0	25.1827452103 	27.3275790365 	5.5063142733 
1333	47	3	0	32.3744532630 	21.2182730964 	2.0549865348 
1334	77	3	0	24.0955420979 	14.2370640213 	5.5073244331 
1335	92	3	0	25.2413423804 	21.2182558772 	4.4752127378 
1336	9	3	0	16.9624315574 	14.2368958691 	1.0228698189 
1337	92	3	0	25.7685316730 	21.6992202663 	3.2639780358 
1338	92	3	0	26.9063679015 	22.6415128974 	3.2632053636 
1339	9	3	0	17.4896113508 	14.7178617637 	-0.1883580443 
1340	8	3	0	18.6274533864 	15.6601791759 	6.7155279345 
1341	47	3	0	31.8473468130 	21.6991430616 	3.2661993869 
1342	47	3	0	30.7097960967 	22.6417853145 	3.2666251054 
1343	76	3	0	23.5684249995 	14.7179420338 	-0.1861354696 
1344	76	3	0	22.4308885309 	15.6605525892 	-0.1857308572 
1345	46	3	0	17.4895514591 	19.9352639964 	3.2639789650 
1346	46	3	0	18.6273866765 	18.9929734755 	3.2632008812 
1347	75	3	0	25.7685855201 	26.9166246084 	-0.1883564861 
1348	78	3	0	26.9064343823 	25.9743028895 	6.7155307020 
1349	92	3	0	23.5683700598 	19.9353416436 	3.2661987903 
1350	92	3	0	22.4308206293 	18.9927017680 	3.2666267826 
1351	12	3	0	31.8474077885 	26.9165439000 	-0.1861378333 
1352	12	3	0	30.7098641452 	25.9739288295 	-0.1857313193 
1353	92	4	0	25.5595442171 	21.6421095444 	1.1024029540 
1354	8	4	0	17.2806406569 	14.6607396017 	4.5547441515 
1355	47	4	0	32.0562993991 	21.6425580937 	5.4276213556 
1356	76	4	0	23.7774046935 	14.6613751353 	1.9752781142 
1357	46	4	0	17.3878094540 	20.1201686615 	5.4259751892 
1358	75	4	0	25.6668701347 	27.1015461517 	1.9736323608 
1359	92	4	0	23.6704016406 	20.1195488524 	1.1041974618 
1360	3	4	0	31.9494572517 	27.1007413732 	4.5565377036 
1361	92	4	0	23.7773225478 	19.9919285818 	5.4276213772 
1362	12	4	0	32.0563806153 	26.9731159133 	1.9752787161 
1363	46	4	0	17.2805691495 	19.9923836006 	1.1024031547 
1364	78	4	0	25.5596194349 	26.9737484046 	4.5547430463 
1365	47	4	0	31.9493840707 	21.5149448785 	1.1041972110 
1366	77	4	0	23.6704771314 	14.5337471720 	4.5565377779 
1367	92	4	0	25.6667902702 	21.5143180503 	5.4259755833 
1368	9	4	0	17.3878895670 	14.5329458301 	1.9736322558 
1369	1	1	0	28.8081267063 	24.3077105881 	8.4432745807 
1370	1	1	0	28.8081271335 	24.3080552494 	11.8956164169 
1371	1	1	0	20.5291477936 	17.3267745136 	8.4432738888 
1372	1	1	0	20.5291485064 	17.3264299677 	11.8956155056 
1373	1	2	0	27.3559649789 	23.0370903912 	9.0427125899 
1374	1	2	0	19.0770245288 	16.0557537674 	12.4950637157 
1375	1	2	0	30.2604489021 	23.0375981187 	11.2962987341 
1376	1	2	0	21.9815051536 	16.0563738734 	7.8439658087 
1377	1	2	0	19.0875525218 	18.6083593984 	11.2926547024 
1378	1	2	0	27.3665686443 	25.5896935474 	7.8403153732 
1379	1	2	0	21.9706414976 	18.6086223051 	9.0463822387 
1380	1	2	0	30.2496627427 	25.5898508469 	12.4987294443 
1381	1	2	0	21.9814701171 	18.5968885836 	11.2962983437 
1382	1	2	0	30.2604859834 	25.5781144810 	7.8439661270 
1383	1	2	0	19.0769856819 	18.5973967093 	9.0427129776 
1384	1	2	0	27.3560016298 	25.5787343632 	12.4950633278 
1385	1	2	0	30.2496196822 	23.0258628608 	9.0463835563 
1386	1	2	0	21.9706804016 	16.0446371649 	12.4987266805 
1387	1	2	0	27.3665314533 	23.0261258074 	11.2926538510 
1388	1	2	0	19.0875938397 	16.0447942252 	7.8403176932 
1389	1	2	0	28.8081725847 	23.3416321285 	13.6217938539 
1390	1	2	0	20.5292303872 	16.3603513446 	10.1694514754 
1391	1	2	0	20.5291941912 	18.2928550224 	13.6217932900 
1392	1	2	0	28.8082088289 	25.2741356891 	10.1694519925 
1393	93	3	0	25.1826803483 	21.2882634514 	8.9586586481 
1394	17	3	0	16.9037715831 	14.3069079788 	12.4109962742 
1395	54	3	0	32.4330495538 	21.2882009826 	11.3808524131 
1396	77	3	0	24.1541413394 	14.3070024104 	7.9285080967 
1397	53	3	0	16.9623590804 	20.4162293645 	11.3798967080 
1398	78	3	0	25.2414120741 	27.3975883669 	7.9275505389 
1399	93	3	0	24.0954754332 	20.4162155167 	8.9596698900 
1400	14	3	0	32.3745211376 	27.3974187761 	12.4120099762 
1401	93	3	0	24.1540734344 	20.3462828569 	11.3808527375 
1402	3	3	0	32.4331242286 	27.3274866957 	7.9285081167 
1403	53	3	0	16.9037013900 	20.3462242156 	8.9586574928 
1404	81	3	0	25.1827452103 	27.3275790365 	12.4109975231 
1405	54	3	0	32.3744532630 	21.2182730964 	8.9596697847 
1406	80	3	0	24.0955420979 	14.2370640213 	12.4120076829 
1407	93	3	0	25.2413423804 	21.2182558772 	11.3798959877 
1408	8	3	0	16.9624315574 	14.2368958691 	7.9275530688 
1409	93	3	0	25.7685316730 	21.6992202663 	10.1686612857 
1410	93	3	0	26.9063679015 	22.6415128974 	10.1678886133 
1411	8	3	0	17.4896113508 	14.7178617637 	6.7163252056 
1412	17	3	0	18.6274533864 	15.6601791759 	13.6202111845 
1413	54	3	0	31.8473468130 	21.6991430616 	10.1708826367 
1414	54	3	0	30.7097960967 	22.6417853145 	10.1713083554 
1415	77	3	0	23.5684249995 	14.7179420338 	6.7185477802 
1416	77	3	0	22.4308885309 	15.6605525892 	6.7189523927 
1417	53	3	0	17.4895514591 	19.9352639963 	10.1686622148 
1418	53	3	0	18.6273866765 	18.9929734755 	10.1678841312 
1419	78	3	0	25.7685855201 	26.9166246084 	6.7163267638 
1420	81	3	0	26.9064343823 	25.9743028895 	13.6202139516 
1421	93	3	0	23.5683700598 	19.9353416436 	10.1708820402 
1422	93	3	0	22.4308206293 	18.9927017680 	10.1713100324 
1423	3	3	0	31.8474077885 	26.9165439000 	6.7185454166 
1424	3	3	0	30.7098641452 	25.9739288295 	6.7189519305 
1425	93	4	0	25.5595442171 	21.6421095444 	8.0070862038 
1426	17	4	0	17.2806406569 	14.6607396017 	11.4594274013 
1427	54	4	0	32.0562993991 	21.6425580937 	12.3323046055 
1428	77	4	0	23.7774046935 	14.6613751353 	8.8799613640 
1429	53	4	0	17.3878094540 	20.1201686615 	12.3306584391 
1430	78	4	0	25.6668701347 	27.1015461517 	8.8783156106 
1431	93	4	0	23.6704016406 	20.1195488524 	8.0088807117 
1432	14	4	0	31.9494572517 	27.1007413732 	11.4612209535 
1433	93	4	0	23.7773225478 	19.9919285818 	12.3323046271 
1434	3	4	0	32.0563806153 	26.9731159133 	8.8799619659 
1435	53	4	0	17.2805691495 	19.9923836006 	8.0070864046 
1436	81	4	0	25.5596194349 	26.9737484046 	11.4594262961 
1437	54	4	0	31.9493840707 	21.5149448785 	8.0088804608 
1438	80	4	0	23.6704771315 	14.5337471720 	11.4612210277 
1439	93	4	0	25.6667902702 	21.5143180503 	12.3306588332 
1440	8	4	0	17.3878895670 	14.5329458301 	8.8783155056 
1441	1	1	0	28.8081267063 	24.3077105881 	15.3479578306 
1442	1	1	0	28.8081271335 	24.3080552494 	18.8002996667 
1443	1	1	0	20.5291477936 	17.3267745136 	15.3479571386 
1444	1	1	0	20.5291485064 	17.3264299677 	18.8002987554 
1445	1	2	0	27.3559649789 	23.0370903912 	15.9473958397 
1446	1	2	0	19.0770245287 	16.0557537674 	19.3997469656 
1447	1	2	0	30.2604489021 	23.0375981187 	18.2009819840 
1448	1	2	0	21.9815051536 	16.0563738734 	14.7486490586 
1449	1	2	0	19.0875525217 	18.6083593984 	18.1973379521 
1450	1	2	0	27.3665686444 	25.5896935474 	14.7449986231 
1451	1	2	0	21.9706414976 	18.6086223051 	15.9510654886 
1452	1	2	0	30.2496627427 	25.5898508469 	19.4034126943 
1453	1	2	0	21.9814701171 	18.5968885835 	18.2009815936 
1454	1	2	0	30.2604859835 	25.5781144810 	14.7486493768 
1455	1	2	0	19.0769856819 	18.5973967093 	15.9473962274 
1456	1	2	0	27.3560016298 	25.5787343632 	19.3997465776 
1457	1	2	0	30.2496196822 	23.0258628608 	15.9510668061 
1458	1	2	0	21.9706804016 	16.0446371649 	19.4034099304 
1459	1	2	0	27.3665314533 	23.0261258074 	18.1973371008 
1460	1	2	0	19.0875938397 	16.0447942252 	14.7450009429 
1461	1	2	0	28.8081725847 	23.3416321285 	20.5264771037 
1462	1	2	0	20.5292303872 	16.3603513446 	17.0741347252 
1463	1	2	0	20.5291941912 	18.2928550224 	20.5264765399 
1464	1	2	0	28.8082088289 	25.2741356891 	17.0741352424 
1465	94	3	0	25.1826803483 	21.2882634514 	15.8633418980 
1466	24	3	0	16.9037715831 	14.3069079788 	19.3156795240 
1467	59	3	0	32.4330495538 	21.2882009826 	18.2855356629 
1468	80	3	0	24.1541413394 	14.3070024104 	14.8331913465 
1469	58	3	0	16.9623590804 	20.4162293645 	18.2845799579 
1470	81	3	0	25.2414120741 	27.3975883669 	14.8322337888 
1471	94	3	0	24.0954754332 	20.4162155167 	15.8643531399 
1472	21	3	0	32.3745211376 	27.3974187761 	19.3166932260 
1473	94	3	0	24.1540734344 	20.3462828569 	18.2855359874 
1474	14	3	0	32.4331242286 	27.3274866957 	14.8331913666 
1475	58	3	0	16.9037013900 	20.3462242156 	15.8633407427 
1476	84	3	0	25.1827452103 	27.3275790365 	19.3156807729 
1477	59	3	0	32.3744532630 	21.2182730964 	15.8643530345 
1478	83	3	0	24.0955420979 	14.2370640213 	19.3166909327 
1479	94	3	0	25.2413423804 	21.2182558772 	18.2845792375 
1480	17	3	0	16.9624315574 	14.2368958691 	14.8322363186 
1481	94	3	0	25.7685316730 	21.6992202663 	17.0733445356 
1482	94	3	0	26.9063679015 	22.6415128974 	17.0725718632 
1483	17	3	0	17.4896113508 	14.7178617637 	13.6210084553 
1484	24	3	0	18.6274533864 	15.6601791759 	20.5248944342 
1485	59	3	0	31.8473468130 	21.6991430616 	17.0755658865 
1486	59	3	0	30.7097960967 	22.6417853145 	17.0759916052 
1487	80	3	0	23.5684249995 	14.7179420338 	13.6232310302 
1488	80	3	0	22.4308885309 	15.6605525892 	13.6236356423 
1489	58	3	0	17.4895514591 	19.9352639963 	17.0733454645 
1490	58	3	0	18.6273866765 	18.9929734755 	17.0725673812 
1491	81	3	0	25.7685855201 	26.9166246084 	13.6210100137 
1492	84	3	0	26.9064343823 	25.9743028895 	20.5248972015 
1493	94	3	0	23.5683700598 	19.9353416436 	17.0755652900 
1494	94	3	0	22.4308206293 	18.9927017680 	17.0759932822 
1495	14	3	0	31.8474077885 	26.9165439000 	13.6232286663 
1496	14	3	0	30.7098641452 	25.9739288295 	13.6236351805 
1497	94	4	0	25.5595442171 	21.6421095444 	14.9117694537 
1498	24	4	0	17.2806406569 	14.6607396017 	18.3641106512 
1499	59	4	0	32.0562993991 	21.6425580937 	19.2369878553 
1500	80	4	0	23.7774046935 	14.6613751353 	15.7846446138 
1501	58	4	0	17.3878094540 	20.1201686615 	19.2353416889 
1502	81	4	0	25.6668701347 	27.1015461517 	15.7829988605 
1503	94	4	0	23.6704016406 	20.1195488524 	14.9135639615 
1504	21	4	0	31.9494572517 	27.1007413732 	18.3659042033 
1505	94	4	0	23.7773225478 	19.9919285818 	19.2369878769 
1506	14	4	0	32.0563806153 	26.9731159133 	15.7846452157 
1507	58	4	0	17.2805691495 	19.9923836006 	14.9117696544 
1508	84	4	0	25.5596194349 	26.9737484046 	18.3641095460 
1509	59	4	0	31.9493840707 	21.5149448785 	14.9135637107 
1510	83	4	0	23.6704771315 	14.5337471719 	18.3659042776 
1511	94	4	0	25.6667902702 	21.5143180503 	19.2353420830 
1512	17	4	0	17.3878895670 	14.5329458301 	15.7829987555 
1513	1	1	0	28.8081267063 	24.3077105881 	22.2526410804 
1514	1	1	0	28.8081271335 	24.3080552494 	25.7049829166 
1515	1	1	0	20.5291477936 	17.3267745136 	22.2526403885 
1516	1	1	0	20.5291485064 	17.3264299677 	25.7049820053 
1517	1	2	0	27.3559649789 	23.0370903913 	22.8520790894 
1518	1	2	0	19.0770245287 	16.0557537674 	26.3044302155 
1519	1	2	0	30.2604489020 	23.0375981187 	25.1056652339 
1520	1	2	0	21.9815051536 	16.0563738734 	21.6533323086 
1521	1	2	0	19.0875525217 	18.6083593985 	25.1020212020 
1522	1	2	0	27.3665686444 	25.5896935474 	21.6496818729 
1523	1	2	0	21.9706414976 	18.6086223051 	22.8557487383 
1524	1	2	0	30.2496627427 	25.5898508469 	26.3080959441 
1525	1	2	0	21.9814701171 	18.5968885836 	25.1056648433 
1526	1	2	0	30.2604859834 	25.5781144810 	21.6533326268 
1527	1	2	0	19.0769856819 	18.5973967093 	22.8520794773 
1528	1	2	0	27.3560016298 	25.5787343632 	26.3044298274 
1529	1	2	0	30.2496196822 	23.0258628608 	22.8557500560 
1530	1	2	0	21.9706804015 	16.0446371649 	26.3080931801 
1531	1	2	0	27.3665314532 	23.0261258074 	25.1020203505 
1532	1	2	0	19.0875938397 	16.0447942252 	21.6496841929 
1533	1	2	0	28.8081725847 	23.3416321285 	27.4311603536 
1534	1	2	0	20.5292303872 	16.3603513446 	23.9788179750 
1535	1	2	0	20.5291941912 	18.2928550224 	27.4311597897 
1536	1	2	0	28.8082088289 	25.2741356891 	23.9788184922 
1537	95	3	0	25.1826803483 	21.2882634514 	22.7680251479 
1538	31	3	0	16.9037715831 	14.3069079788 	26.2203627738 
1539	64	3	0	32.4330495538 	21.2882009826 	25.1902189127 
1540	83	3	0	24.1541413394 	14.3070024104 	21.7378745963 
1541	63	3	0	16.9623590804 	20.4162293645 	25.1892632077 
1542	84	3	0	25.2414120741 	27.3975883669 	21.7369170386 
1543	95	3	0	24.0954754332 	20.4162155167 	22.7690363897 
1544	28	3	0	32.3745211376 	27.3974187761 	26.2213764758 
1545	95	3	0	24.1540734344 	20.3462828569 	25.1902192372 
1546	21	3	0	32.4331242286 	27.3274866957 	21.7378746164 
1547	63	3	0	16.9037013900 	20.3462242156 	22.7680239925 
1548	87	3	0	25.1827452103 	27.3275790365 	26.2203640228 
1549	64	3	0	32.3744532630 	21.2182730964 	22.7690362843 
1550	86	3	0	24.0955420979 	14.2370640213 	26.2213741826 
1551	95	3	0	25.2413423804 	21.2182558772 	25.1892624874 
1552	24	3	0	16.9624315574 	14.2368958691 	21.7369195685 
1553	95	3	0	25.7685316730 	21.6992202663 	23.9780277853 
1554	95	3	0	26.9063679015 	22.6415128974 	23.9772551134 
1555	24	3	0	17.4896113508 	14.7178617637 	20.5256917052 
1556	31	3	0	18.6274533864 	15.6601791759 	27.4295776839 
1557	64	3	0	31.8473468130 	21.6991430616 	23.9802491364 
1558	64	3	0	30.7097960967 	22.6417853145 	23.9806748550 
1559	83	3	0	23.5684249995 	14.7179420338 	20.5279142801 
1560	83	3	0	22.4308885309 	15.6605525892 	20.5283188920 
1561	63	3	0	17.4895514591 	19.9352639963 	23.9780287144 
1562	63	3	0	18.6273866765 	18.9929734755 	23.9772506310 
1563	84	3	0	25.7685855202 	26.9166246084 	20.5256932635 
1564	87	3	0	26.9064343823 	25.9743028895 	27.4295804515 
1565	95	3	0	23.5683700598 	19.9353416436 	23.9802485397 
1566	95	3	0	22.4308206293 	18.9927017680 	23.9806765324 
1567	21	3	0	31.8474077885 	26.9165439000 	20.5279119163 
1568	21	3	0	30.7098641452 	25.9739288295 	20.5283184301 
1569	95	4	0	25.5595442171 	21.6421095444 	21.8164527035 
1570	31	4	0	17.2806406569 	14.6607396017 	25.2687939010 
1571	64	4	0	32.0562993991 	21.6425580937 	26.1416711051 
1572	83	4	0	23.7774046935 	14.6613751353 	22.6893278637 
1573	63	4	0	17.3878094540 	20.1201686615 	26.1400249388 
1574	84	4	0	25.6668701347 	27.1015461517 	22.6876821103 
1575	95	4	0	23.6704016406 	20.1195488524 	21.8182472113 
1576	28	4	0	31.9494572517 	27.1007413732 	25.2705874532 
1577	95	4	0	23.7773225478 	19.9919285818 	26.1416711268 
1578	21	4	0	32.0563806153 	26.9731159133 	22.6893284656 
1579	63	4	0	17.2805691495 	19.9923836006 	21.8164529043 
1580	87	4	0	25.5596194349 	26.9737484046 	25.2687927958 
1581	64	4	0	31.9493840707 	21.5149448785 	21.8182469605 
1582	86	4	0	23.6704771315 	14.5337471720 	25.2705875274 
1583	95	4	0	25.6667902702 	21.5143180503 	26.1400253329 
1584	24	4	0	17.3878895670 	14.5329458301 	22.6876820053 
1585	1	1	0	28.8081267063 	24.3077105882 	29.1573243302 
1586	1	1	0	28.8081271336 	24.3080552494 	32.6096661665 
1587	1	1	0	20.5291477936 	17.3267745136 	29.1573236383 
1588	1	1	0	20.5291485064 	17.3264299677 	32.6096652551 
1589	1	2	0	27.3559649789 	23.0370903913 	29.7567623393 
1590	1	2	0	19.0770245288 	16.0557537674 	33.2091134653 
1591	1	2	0	30.2604489020 	23.0375981187 	32.0103484837 
1592	1	2	0	21.9815051536 	16.0563738734 	28.5580155583 
1593	1	2	0	19.0875525218 	18.6083593984 	32.0067044519 
1594	1	2	0	27.3665686443 	25.5896935474 	28.5543651227 
1595	1	2	0	21.9706414976 	18.6086223051 	29.7604319882 
1596	1	2	0	30.2496627426 	25.5898508469 	33.2127791938 
1597	1	2	0	21.9814701171 	18.5968885836 	32.0103480932 
1598	1	2	0	30.2604859834 	25.5781144810 	28.5580158766 
1599	1	2	0	19.0769856819 	18.5973967093 	29.7567627272 
1600	1	2	0	27.3560016298 	25.5787343632 	33.2091130773 
1601	1	2	0	30.2496196822 	23.0258628608 	29.7604333059 
1602	1	2	0	21.9706804016 	16.0446371649 	33.2127764300 
1603	1	2	0	27.3665314532 	23.0261258074 	32.0067036004 
1604	1	2	0	19.0875938398 	16.0447942252 	28.5543674428 
1605	1	2	0	28.8081725847 	23.3416321285 	34.3358436034 
1606	1	2	0	20.5292303872 	16.3603513446 	30.8835012249 
1607	1	2	0	20.5291941912 	18.2928550224 	34.3358430395 
1608	1	2	0	28.8082088289 	25.2741356891 	30.8835017420 
1609	96	3	0	25.1826803483 	21.2882634514 	29.6727083977 
1610	38	3	0	16.9037715831 	14.3069079788 	33.1250460237 
1611	69	3	0	32.4330495538 	21.2882009826 	32.0949021626 
1612	86	3	0	24.1541413394 	14.3070024104 	28.6425578462 
1613	68	3	0	16.9623590804 	20.4162293645 	32.0939464575 
1614	87	3	0	25.2414120741 	27.3975883669 	28.6416002885 
1615	96	3	0	24.0954754332 	20.4162155167 	29.6737196396 
1616	35	3	0	32.3745211376 	27.3974187761 	33.1260597257 
1617	96	3	0	24.1540734344 	20.3462828569 	32.0949024871 
1618	28	3	0	32.4331242286 	27.3274866957 	28.6425578662 
1619	68	3	0	16.9037013900 	20.3462242156 	29.6727072423 
1620	90	3	0	25.1827452103 	27.3275790365 	33.1250472726 
1621	69	3	0	32.3744532630 	21.2182730964 	29.6737195342 
1622	89	3	0	24.0955420979 	14.2370640213 	33.1260574324 
1623	96	3	0	25.2413423804 	21.2182558772 	32.0939457372 
1624	31	3	0	16.9624315574 	14.2368958691 	28.6416028183 
1625	96	3	0	25.7685316730 	21.6992202663 	30.8827110352 
1626	96	3	0	26.9063679015 	22.6415128974 	30.8819383630 
1627	31	3	0	17.4896113508 	14.7178617637 	27.4303749551 
1628	38	3	0	18.6274533864 	15.6601791759 	34.3342609340 
1629	69	3	0	31.8473468130 	21.6991430616 	30.8849323863 
1630	69	3	0	30.7097960967 	22.6417853145 	30.8853581048 
1631	86	3	0	23.5684249995 	14.7179420338 	27.4325975298 
1632	86	3	0	22.4308885309 	15.6605525892 	27.4330021421 
1633	68	3	0	17.4895514591 	19.9352639964 	30.8827119643 
1634	68	3	0	18.6273866766 	18.9929734755 	30.8819338807 
1635	87	3	0	25.7685855202 	26.9166246084 	27.4303765133 
1636	90	3	0	26.9064343824 	25.9743028895 	34.3342637013 
1637	96	3	0	23.5683700598 	19.9353416436 	30.8849317896 
1638	96	3	0	22.4308206293 	18.9927017680 	30.8853597821 
1639	28	3	0	31.8474077885 	26.9165439000 	27.4325951662 
1640	28	3	0	30.7098641452 	25.9739288295 	27.4330016798 
1641	96	4	0	25.5595442171 	21.6421095444 	28.7211359533 
1642	38	4	0	17.2806406569 	14.6607396017 	32.1734771508 
1643	69	4	0	32.0562993991 	21.6425580937 	33.0463543550 
1644	86	4	0	23.7774046935 	14.6613751353 	29.5940111135 
1645	68	4	0	17.3878094540 	20.1201686615 	33.0447081886 
1646	87	4	0	25.6668701347 	27.1015461517 	29.5923653602 
1647	96	4	0	23.6704016406 	20.1195488524 	28.7229304612 
1648	35	4	0	31.9494572517 	27.1007413732 	32.1752707030 
1649	96	4	0	23.7773225478 	19.9919285818 	33.0463543766 
1650	28	4	0	32.0563806153 	26.9731159133 	29.5940117154 
1651	68	4	0	17.2805691495 	19.9923836006 	28.7211361541 
1652	90	4	0	25.5596194349 	26.9737484046 	32.1734760457 
1653	69	4	0	31.9493840707 	21.5149448785 	28.7229302104 
1654	89	4	0	23.6704771315 	14.5337471720 	32.1752707773 
1655	96	4	0	25.6667902702 	21.5143180503 	33.0447085827 
1656	31	4	0	17.3878895670 	14.5329458301 	29.5923652551 
1657	1	1	0	28.8081267063 	24.3077105881 	36.0620075801 
1658	1	1	0	28.8081271335 	24.3080552494 	39.5143494163 
1659	1	1	0	20.5291477936 	17.3267745136 	36.0620068881 
1660	1	1	0	20.5291485064 	17.3264299677 	39.5143485050 
1661	1	2	0	27.3559649789 	23.0370903912 	36.6614455893 
1662	1	2	0	19.0770245287 	16.0557537674 	40.1137967152 
1663	1	2	0	30.2604489020 	23.0375981187 	38.9150317336 
1664	1	2	0	21.9815051536 	16.0563738734 	35.4626988082 
1665	1	2	0	19.0875525217 	18.6083593985 	38.9113877016 
1666	1	2	0	27.3665686443 	25.5896935474 	35.4590483726 
1667	1	2	0	21.9706414976 	18.6086223051 	36.6651152381 
1668	1	2	0	30.2496627427 	25.5898508469 	40.1174624437 
1669	1	2	0	21.9814701171 	18.5968885835 	38.9150313432 
1670	1	2	0	30.2604859835 	25.5781144810 	35.4626991263 
1671	1	2	0	19.0769856819 	18.5973967093 	36.6614459769 
1672	1	2	0	27.3560016298 	25.5787343632 	40.1137963271 
1673	1	2	0	30.2496196822 	23.0258628608 	36.6651165558 
1674	1	2	0	21.9706804015 	16.0446371649 	40.1174596798 
1675	1	2	0	27.3665314533 	23.0261258074 	38.9113868504 
1676	1	2	0	19.0875938397 	16.0447942252 	35.4590506925 
1677	1	2	0	28.8081725847 	23.3416321285 	41.2405268533 
1678	1	2	0	20.5292303872 	16.3603513446 	37.7881844747 
1679	1	2	0	20.5291941912 	18.2928550224 	41.2405262894 
1680	1	2	0	28.8082088289 	25.2741356891 	37.7881849919 
1681	97	3	0	25.1826803483 	21.2882634514 	36.5773916475 
1682	9	3	0	16.9037715831 	14.3069079788 	40.0297292735 
1683	73	3	0	32.4330495538 	21.2882009826 	38.9995854124 
1684	89	3	0	24.1541413394 	14.3070024104 	35.5472410960 
1685	72	3	0	16.9623590804 	20.4162293645 	38.9986297074 
1686	90	3	0	25.2414120741 	27.3975883669 	35.5462835383 
1687	97	3	0	24.0954754332 	20.4162155167 	36.5784028894 
1688	12	3	0	32.3745211376 	27.3974187761 	40.0307429755 
1689	97	3	0	24.1540734344 	20.3462828569 	38.9995857369 
1690	35	3	0	32.4331242286 	27.3274866956 	35.5472411161 
1691	72	3	0	16.9037013900 	20.3462242156 	36.5773904922 
1692	75	3	0	25.1827452103 	27.3275790365 	40.0297305225 
1693	73	3	0	32.3744532630 	21.2182730964 	36.5784027840 
1694	76	3	0	24.0955420979 	14.2370640213 	40.0307406823 
1695	97	3	0	25.2413423804 	21.2182558772 	38.9986289871 
1696	38	3	0	16.9624315574 	14.2368958691 	35.5462860682 
1697	97	3	0	25.7685316730 	21.6992202663 	37.7873942851 
1698	97	3	0	26.9063679015 	22.6415128974 	37.7866216127 
1699	38	3	0	17.4896113508 	14.7178617637 	34.3350582049 
1700	9	3	0	18.6274533864 	15.6601791759 	41.2389441837 
1701	73	3	0	31.8473468129 	21.6991430616 	37.7896156362 
1702	73	3	0	30.7097960967 	22.6417853145 	37.7900413545 
1703	89	3	0	23.5684249995 	14.7179420338 	34.3372807797 
1704	89	3	0	22.4308885309 	15.6605525892 	34.3376853918 
1705	72	3	0	17.4895514591 	19.9352639963 	37.7873952140 
1706	72	3	0	18.6273866765 	18.9929734755 	37.7866171308 
1707	90	3	0	25.7685855201 	26.9166246084 	34.3350597632 
1708	75	3	0	26.9064343824 	25.9743028895 	41.2389469513 
1709	97	3	0	23.5683700598 	19.9353416436 	37.7896150396 
1710	97	3	0	22.4308206293 	18.9927017680 	37.7900430317 
1711	35	3	0	31.8474077885 	26.9165439000 	34.3372784158 
1712	35	3	0	30.7098641452 	25.9739288295 	34.3376849302 
1713	97	4	0	25.5595442171 	21.6421095444 	35.6258192032 
1714	9	4	0	17.2806406569 	14.6607396017 	39.0781604007 
1715	73	4	0	32.0562993991 	21.6425580937 	39.9510376048 
1716	89	4	0	23.7774046935 	14.6613751353 	36.4986943634 
1717	72	4	0	17.3878094540 	20.1201686615 	39.9493914384 
1718	90	4	0	25.6668701347 	27.1015461517 	36.4970486100 
1719	97	4	0	23.6704016406 	20.1195488524 	35.6276137110 
1720	12	4	0	31.9494572517 	27.1007413732 	39.0799539529 
1721	97	4	0	23.7773225478 	19.9919285818 	39.9510376265 
1722	35	4	0	32.0563806153 	26.9731159133 	36.4986949653 
1723	72	4	0	17.2805691495 	19.9923836006 	35.6258194039 
1724	75	4	0	25.5596194349 	26.9737484046 	39.0781592955 
1725	73	4	0	31.9493840707 	21.5149448785 	35.6276134602 
1726	76	4	0	23.6704771314 	14.5337471720 	39.0799540271 
1727	97	4	0	25.6667902702 	21.5143180503 	39.9493918326 
1728	38	4	0	17.3878895670 	14.5329458301 	36.4970485050 

Bonds

1 1 3 8
2 1 3 11
3 1 3 15
4 1 3 20
5 1 3 22
6 1 3 383
7 1 4 6
8 1 4 9
9 1 4 13
10 1 4 18
11 1 4 22
12 1 4 23
13 2 6 44
14 2 8 48
15 2 9 50
16 2 11 54
17 2 13 54
18 2 15 50
19 2 18 120
20 2 20 404
21 4 26 58
22 3 26 115
23 3 26 1328
24 3 28 47
25 4 28 60
26 3 28 462
27 3 29 49
28 4 29 61
29 3 31 53
30 4 31 63
31 3 33 39
32 3 33 53
33 4 33 65
34 3 35 49
35 4 35 67
36 3 35 901
37 4 38 70
38 3 38 119
39 3 40 43
40 4 40 72
41 5 47 48
42 5 49 50
43 5 53 54
44 1 75 23
45 1 75 80
46 1 75 83
47 1 75 87
48 1 75 92
49 1 75 94
50 2 80 120
51 2 83 126
52 2 87 122
53 2 92 44
54 3 100 119
55 4 100 132
56 3 100 534
57 3 103 125
58 4 103 135
59 3 107 121
60 4 107 139
61 3 107 973
62 3 112 115
63 4 112 144
64 5 115 44
65 5 119 120
66 5 121 122
67 1 76 78
68 1 76 81
69 1 76 85
70 1 76 90
71 1 76 94
72 1 76 95
73 2 78 116
74 2 81 122
75 2 85 126
76 2 90 192
77 5 259 188
78 4 98 130
79 3 98 187
80 3 98 1400
81 3 101 121
82 4 101 133
83 3 105 111
84 3 105 125
85 4 105 137
86 4 110 142
87 3 110 191
88 5 125 126
89 1 147 95
90 1 147 152
91 1 147 155
92 1 147 159
93 1 147 164
94 1 147 166
95 1 148 150
96 1 148 153
97 1 148 157
98 1 148 162
99 1 148 166
100 1 148 167
101 2 150 188
102 2 152 192
103 2 153 194
104 2 155 198
105 2 157 198
106 2 159 194
107 2 162 264
108 2 164 116
109 4 170 202
110 3 170 259
111 3 170 1472
112 3 172 191
113 4 172 204
114 3 172 606
115 3 173 193
116 4 173 205
117 3 175 197
118 4 175 207
119 3 177 183
120 3 177 197
121 4 177 209
122 3 179 193
123 4 179 211
124 3 179 1045
125 4 182 214
126 3 182 263
127 3 184 187
128 4 184 216
129 5 187 116
130 5 191 192
131 5 193 194
132 5 197 198
133 1 219 167
134 1 219 224
135 1 219 227
136 1 219 231
137 1 219 236
138 1 219 238
139 1 220 222
140 1 220 225
141 1 220 229
142 1 220 234
143 1 220 238
144 1 220 239
145 2 222 260
146 2 224 264
147 2 225 266
148 2 227 270
149 2 229 270
150 2 231 266
151 2 234 336
152 2 236 188
153 4 242 274
154 3 242 331
155 3 242 1544
156 3 244 263
157 4 244 276
158 3 244 678
159 3 245 265
160 4 245 277
161 3 247 269
162 4 247 279
163 3 249 255
164 3 249 269
165 4 249 281
166 3 251 265
167 4 251 283
168 3 251 1117
169 4 254 286
170 3 254 335
171 3 256 259
172 4 256 288
173 5 263 264
174 5 265 266
175 5 269 270
176 1 291 239
177 1 291 296
178 1 291 299
179 1 291 303
180 1 291 308
181 1 291 310
182 2 296 336
183 2 299 342
184 2 303 338
185 2 308 260
186 3 316 335
187 4 316 348
188 3 316 750
189 3 319 341
190 4 319 351
191 3 323 337
192 4 323 355
193 3 323 1189
194 3 328 331
195 4 328 360
196 5 331 260
197 5 335 336
198 5 337 338
199 5 43 404
200 1 292 294
201 1 292 297
202 1 292 301
203 1 292 306
204 1 292 310
205 1 292 311
206 2 294 332
207 2 297 338
208 2 301 342
209 2 306 408
210 4 314 346
211 3 314 403
212 3 314 1616
213 3 317 337
214 4 317 349
215 3 321 327
216 3 321 341
217 4 321 353
218 4 326 358
219 3 326 407
220 5 341 342
221 1 363 311
222 1 363 368
223 1 363 371
224 1 363 375
225 1 363 380
226 1 363 382
227 1 364 366
228 1 364 369
229 1 364 373
230 1 364 378
231 1 364 382
232 1 364 383
233 2 366 404
234 2 368 408
235 2 369 410
236 2 371 414
237 2 373 414
238 2 375 410
239 2 378 48
240 2 380 332
241 3 386 43
242 4 386 418
243 3 386 1688
244 3 388 407
245 4 388 420
246 3 388 822
247 3 389 409
248 4 389 421
249 3 391 413
250 4 391 423
251 3 393 399
252 3 393 413
253 4 393 425
254 3 395 409
255 4 395 427
256 3 395 1261
257 3 398 47
258 4 398 430
259 3 400 403
260 4 400 432
261 5 403 332
262 5 407 408
263 5 409 410
264 5 413 414
265 1 435 440
266 1 435 443
267 1 435 447
268 1 435 452
269 1 435 454
270 1 435 815
271 1 436 438
272 1 436 441
273 1 436 445
274 1 436 450
275 1 436 454
276 1 436 455
277 2 438 476
278 2 440 480
279 2 441 482
280 2 443 486
281 2 445 486
282 2 447 482
283 2 450 552
284 2 452 836
285 4 458 490
286 3 458 547
287 3 458 896
288 3 460 30
289 3 460 479
290 4 460 492
291 3 461 481
292 4 461 493
293 3 463 485
294 4 463 495
295 3 465 471
296 3 465 485
297 4 465 497
298 3 467 481
299 4 467 499
300 3 467 1333
301 4 470 502
302 3 470 551
303 3 472 475
304 4 472 504
305 5 479 480
306 5 481 482
307 5 485 486
308 1 507 455
309 1 507 512
310 1 507 515
311 1 507 519
312 1 507 524
313 1 507 526
314 2 512 552
315 2 515 558
316 2 519 554
317 2 524 476
318 3 532 102
319 3 532 551
320 4 532 564
321 3 535 557
322 4 535 567
323 3 539 553
324 4 539 571
325 3 539 1405
326 3 544 547
327 4 544 576
328 5 547 476
329 5 551 552
330 5 553 554
331 1 508 510
332 1 508 513
333 1 508 517
334 1 508 522
335 1 508 526
336 1 508 527
337 2 510 548
338 2 513 554
339 2 517 558
340 2 522 624
341 5 691 620
342 4 530 562
343 3 530 619
344 3 530 968
345 3 533 553
346 4 533 565
347 3 537 543
348 3 537 557
349 4 537 569
350 4 542 574
351 3 542 623
352 5 557 558
353 1 579 527
354 1 579 584
355 1 579 587
356 1 579 591
357 1 579 596
358 1 579 598
359 1 580 582
360 1 580 585
361 1 580 589
362 1 580 594
363 1 580 598
364 1 580 599
365 2 582 620
366 2 584 624
367 2 585 626
368 2 587 630
369 2 589 630
370 2 591 626
371 2 594 696
372 2 596 548
373 4 602 634
374 3 602 691
375 3 602 1040
376 3 604 174
377 3 604 623
378 4 604 636
379 3 605 625
380 4 605 637
381 3 607 629
382 4 607 639
383 3 609 615
384 3 609 629
385 4 609 641
386 3 611 625
387 4 611 643
388 3 611 1477
389 4 614 646
390 3 614 695
391 3 616 619
392 4 616 648
393 5 619 548
394 5 623 624
395 5 625 626
396 5 629 630
397 1 651 599
398 1 651 656
399 1 651 659
400 1 651 663
401 1 651 668
402 1 651 670
403 1 652 654
404 1 652 657
405 1 652 661
406 1 652 666
407 1 652 670
408 1 652 671
409 2 654 692
410 2 656 696
411 2 657 698
412 2 659 702
413 2 661 702
414 2 663 698
415 2 666 768
416 2 668 620
417 4 674 706
418 3 674 763
419 3 674 1112
420 3 676 246
421 3 676 695
422 4 676 708
423 3 677 697
424 4 677 709
425 3 679 701
426 4 679 711
427 3 681 687
428 3 681 701
429 4 681 713
430 3 683 697
431 4 683 715
432 3 683 1549
433 4 686 718
434 3 686 767
435 3 688 691
436 4 688 720
437 5 695 696
438 5 697 698
439 5 701 702
440 1 723 671
441 1 723 728
442 1 723 731
443 1 723 735
444 1 723 740
445 1 723 742
446 2 728 768
447 2 731 774
448 2 735 770
449 2 740 692
450 3 748 318
451 3 748 767
452 4 748 780
453 3 751 773
454 4 751 783
455 3 755 769
456 4 755 787
457 3 755 1621
458 3 760 763
459 4 760 792
460 5 763 692
461 5 767 768
462 5 769 770
463 5 475 836
464 1 724 726
465 1 724 729
466 1 724 733
467 1 724 738
468 1 724 742
469 1 724 743
470 2 726 764
471 2 729 770
472 2 733 774
473 2 738 840
474 4 746 778
475 3 746 835
476 3 746 1184
477 3 749 769
478 4 749 781
479 3 753 759
480 3 753 773
481 4 753 785
482 4 758 790
483 3 758 839
484 5 773 774
485 1 795 743
486 1 795 800
487 1 795 803
488 1 795 807
489 1 795 812
490 1 795 814
491 1 796 798
492 1 796 801
493 1 796 805
494 1 796 810
495 1 796 814
496 1 796 815
497 2 798 836
498 2 800 840
499 2 801 842
500 2 803 846
501 2 805 846
502 2 807 842
503 2 810 480
504 2 812 764
505 3 818 475
506 4 818 850
507 3 818 1256
508 3 820 390
509 3 820 839
510 4 820 852
511 3 821 841
512 4 821 853
513 3 823 845
514 4 823 855
515 3 825 831
516 3 825 845
517 4 825 857
518 3 827 841
519 4 827 859
520 3 827 1693
521 3 830 479
522 4 830 862
523 3 832 835
524 4 832 864
525 5 835 764
526 5 839 840
527 5 841 842
528 5 845 846
529 1 1 5
530 1 1 10
531 1 1 14
532 1 1 17
533 1 1 24
534 1 1 381
535 1 2 7
536 1 2 12
537 1 2 16
538 1 2 19
539 1 2 21
540 1 2 24
541 2 5 42
542 2 7 46
543 2 10 412
544 2 12 128
545 2 14 56
546 2 16 52
547 2 17 46
548 2 19 42
549 3 25 31
550 3 25 41
551 4 25 57
552 3 27 45
553 4 27 59
554 3 27 893
555 3 30 51
556 4 30 62
557 4 32 64
558 3 32 127
559 3 34 55
560 4 34 66
561 3 34 1336
562 4 36 68
563 3 36 123
564 3 36 470
565 3 37 45
566 4 37 69
567 3 39 41
568 4 39 71
569 5 41 42
570 5 45 46
571 5 55 56
572 1 73 21
573 1 73 77
574 1 73 82
575 1 73 86
576 1 73 89
577 1 73 96
578 2 77 114
579 2 82 52
580 2 86 128
581 2 89 118
582 3 97 103
583 3 97 113
584 4 97 129
585 3 102 123
586 4 102 134
587 3 106 127
588 4 106 138
589 3 106 1408
590 3 109 117
591 4 109 141
592 5 113 114
593 5 123 52
594 5 127 128
595 1 74 79
596 1 74 84
597 1 74 88
598 1 74 91
599 1 74 93
600 1 74 96
601 2 79 118
602 2 84 200
603 2 88 124
604 2 91 114
605 5 267 196
606 3 99 117
607 4 99 131
608 3 99 965
609 4 104 136
610 3 104 199
611 4 108 140
612 3 108 195
613 3 108 542
614 3 111 113
615 4 111 143
616 5 117 118
617 1 145 93
618 1 145 149
619 1 145 154
620 1 145 158
621 1 145 161
622 1 145 168
623 1 146 151
624 1 146 156
625 1 146 160
626 1 146 163
627 1 146 165
628 1 146 168
629 2 149 186
630 2 151 190
631 2 154 124
632 2 156 272
633 2 158 200
634 2 160 196
635 2 161 190
636 2 163 186
637 3 169 175
638 3 169 185
639 4 169 201
640 3 171 189
641 4 171 203
642 3 171 1037
643 3 174 195
644 4 174 206
645 4 176 208
646 3 176 271
647 3 178 199
648 4 178 210
649 3 178 1480
650 4 180 212
651 3 180 267
652 3 180 614
653 3 181 189
654 4 181 213
655 3 183 185
656 4 183 215
657 5 185 186
658 5 189 190
659 5 195 124
660 5 199 200
661 1 217 165
662 1 217 221
663 1 217 226
664 1 217 230
665 1 217 233
666 1 217 240
667 1 218 223
668 1 218 228
669 1 218 232
670 1 218 235
671 1 218 237
672 1 218 240
673 2 221 258
674 2 223 262
675 2 226 196
676 2 228 344
677 2 230 272
678 2 232 268
679 2 233 262
680 2 235 258
681 3 241 247
682 3 241 257
683 4 241 273
684 3 243 261
685 4 243 275
686 3 243 1109
687 3 246 267
688 4 246 278
689 4 248 280
690 3 248 343
691 3 250 271
692 4 250 282
693 3 250 1552
694 4 252 284
695 3 252 339
696 3 252 686
697 3 253 261
698 4 253 285
699 3 255 257
700 4 255 287
701 5 257 258
702 5 261 262
703 5 271 272
704 1 289 237
705 1 289 293
706 1 289 298
707 1 289 302
708 1 289 305
709 1 289 312
710 2 293 330
711 2 298 268
712 2 302 344
713 2 305 334
714 3 313 319
715 3 313 329
716 4 313 345
717 3 318 339
718 4 318 350
719 3 322 343
720 4 322 354
721 3 322 1624
722 3 325 333
723 4 325 357
724 5 329 330
725 5 339 268
726 5 343 344
727 5 51 412
728 1 290 295
729 1 290 300
730 1 290 304
731 1 290 307
732 1 290 309
733 1 290 312
734 2 295 334
735 2 300 416
736 2 304 340
737 2 307 330
738 3 315 333
739 4 315 347
740 3 315 1181
741 4 320 352
742 3 320 415
743 4 324 356
744 3 324 411
745 3 324 758
746 3 327 329
747 4 327 359
748 5 333 334
749 1 361 309
750 1 361 365
751 1 361 370
752 1 361 374
753 1 361 377
754 1 361 384
755 1 362 367
756 1 362 372
757 1 362 376
758 1 362 379
759 1 362 381
760 1 362 384
761 2 365 402
762 2 367 406
763 2 370 340
764 2 372 56
765 2 374 416
766 2 376 412
767 2 377 406
768 2 379 402
769 3 385 391
770 3 385 401
771 4 385 417
772 3 387 405
773 4 387 419
774 3 387 1253
775 3 390 411
776 4 390 422
777 3 392 55
778 4 392 424
779 3 394 415
780 4 394 426
781 3 394 1696
782 3 396 51
783 4 396 428
784 3 396 830
785 3 397 405
786 4 397 429
787 3 399 401
788 4 399 431
789 5 401 402
790 5 405 406
791 5 411 340
792 5 415 416
793 1 433 437
794 1 433 442
795 1 433 446
796 1 433 449
797 1 433 456
798 1 433 813
799 1 434 439
800 1 434 444
801 1 434 448
802 1 434 451
803 1 434 453
804 1 434 456
805 2 437 474
806 2 439 478
807 2 442 844
808 2 444 560
809 2 446 488
810 2 448 484
811 2 449 478
812 2 451 474
813 3 457 463
814 3 457 473
815 4 457 489
816 3 459 477
817 4 459 491
818 3 459 1325
819 3 462 483
820 4 462 494
821 4 464 496
822 3 464 559
823 3 466 487
824 4 466 498
825 3 466 904
826 3 468 38
827 4 468 500
828 3 468 555
829 3 469 477
830 4 469 501
831 3 471 473
832 4 471 503
833 5 473 474
834 5 477 478
835 5 487 488
836 1 505 453
837 1 505 509
838 1 505 514
839 1 505 518
840 1 505 521
841 1 505 528
842 2 509 546
843 2 514 484
844 2 518 560
845 2 521 550
846 3 529 535
847 3 529 545
848 4 529 561
849 3 534 555
850 4 534 566
851 3 538 559
852 4 538 570
853 3 538 976
854 3 541 549
855 4 541 573
856 5 545 546
857 5 555 484
858 5 559 560
859 1 506 511
860 1 506 516
861 1 506 520
862 1 506 523
863 1 506 525
864 1 506 528
865 2 511 550
866 2 516 632
867 2 520 556
868 2 523 546
869 5 699 628
870 3 531 549
871 4 531 563
872 3 531 1397
873 4 536 568
874 3 536 631
875 3 540 110
876 4 540 572
877 3 540 627
878 3 543 545
879 4 543 575
880 5 549 550
881 1 577 525
882 1 577 581
883 1 577 586
884 1 577 590
885 1 577 593
886 1 577 600
887 1 578 583
888 1 578 588
889 1 578 592
890 1 578 595
891 1 578 597
892 1 578 600
893 2 581 618
894 2 583 622
895 2 586 556
896 2 588 704
897 2 590 632
898 2 592 628
899 2 593 622
900 2 595 618
901 3 601 607
902 3 601 617
903 4 601 633
904 3 603 621
905 4 603 635
906 3 603 1469
907 3 606 627
908 4 606 638
909 4 608 640
910 3 608 703
911 3 610 631
912 4 610 642
913 3 610 1048
914 3 612 182
915 4 612 644
916 3 612 699
917 3 613 621
918 4 613 645
919 3 615 617
920 4 615 647
921 5 617 618
922 5 621 622
923 5 627 556
924 5 631 632
925 1 649 597
926 1 649 653
927 1 649 658
928 1 649 662
929 1 649 665
930 1 649 672
931 1 650 655
932 1 650 660
933 1 650 664
934 1 650 667
935 1 650 669
936 1 650 672
937 2 653 690
938 2 655 694
939 2 658 628
940 2 660 776
941 2 662 704
942 2 664 700
943 2 665 694
944 2 667 690
945 3 673 679
946 3 673 689
947 4 673 705
948 3 675 693
949 4 675 707
950 3 675 1541
951 3 678 699
952 4 678 710
953 4 680 712
954 3 680 775
955 3 682 703
956 4 682 714
957 3 682 1120
958 3 684 254
959 4 684 716
960 3 684 771
961 3 685 693
962 4 685 717
963 3 687 689
964 4 687 719
965 5 689 690
966 5 693 694
967 5 703 704
968 1 721 669
969 1 721 725
970 1 721 730
971 1 721 734
972 1 721 737
973 1 721 744
974 2 725 762
975 2 730 700
976 2 734 776
977 2 737 766
978 3 745 751
979 3 745 761
980 4 745 777
981 3 750 771
982 4 750 782
983 3 754 775
984 4 754 786
985 3 754 1192
986 3 757 765
987 4 757 789
988 5 761 762
989 5 771 700
990 5 775 776
991 5 483 844
992 1 722 727
993 1 722 732
994 1 722 736
995 1 722 739
996 1 722 741
997 1 722 744
998 2 727 766
999 2 732 848
1000 2 736 772
1001 2 739 762
1002 3 747 765
1003 4 747 779
1004 3 747 1613
1005 4 752 784
1006 3 752 847
1007 3 756 326
1008 4 756 788
1009 3 756 843
1010 3 759 761
1011 4 759 791
1012 5 765 766
1013 1 793 741
1014 1 793 797
1015 1 793 802
1016 1 793 806
1017 1 793 809
1018 1 793 816
1019 1 794 799
1020 1 794 804
1021 1 794 808
1022 1 794 811
1023 1 794 813
1024 1 794 816
1025 2 797 834
1026 2 799 838
1027 2 802 772
1028 2 804 488
1029 2 806 848
1030 2 808 844
1031 2 809 838
1032 2 811 834
1033 3 817 823
1034 3 817 833
1035 4 817 849
1036 3 819 837
1037 4 819 851
1038 3 819 1685
1039 3 822 843
1040 4 822 854
1041 3 824 487
1042 4 824 856
1043 3 826 847
1044 4 826 858
1045 3 826 1264
1046 3 828 398
1047 3 828 483
1048 4 828 860
1049 3 829 837
1050 4 829 861
1051 3 831 833
1052 4 831 863
1053 5 833 834
1054 5 837 838
1055 5 843 772
1056 5 847 848
1057 1 867 872
1058 1 867 875
1059 1 867 879
1060 1 867 884
1061 1 867 886
1062 1 867 1247
1063 1 868 870
1064 1 868 873
1065 1 868 877
1066 1 868 882
1067 1 868 886
1068 1 868 887
1069 2 870 908
1070 2 872 912
1071 2 873 914
1072 2 875 918
1073 2 877 918
1074 2 879 914
1075 2 882 984
1076 2 884 1268
1077 3 890 464
1078 4 890 922
1079 3 890 979
1080 3 892 911
1081 4 892 924
1082 3 892 1326
1083 3 893 913
1084 4 893 925
1085 3 895 917
1086 4 895 927
1087 3 897 903
1088 3 897 917
1089 4 897 929
1090 3 899 37
1091 3 899 913
1092 4 899 931
1093 4 902 934
1094 3 902 983
1095 3 904 907
1096 4 904 936
1097 5 911 912
1098 5 913 914
1099 5 917 918
1100 1 939 887
1101 1 939 944
1102 1 939 947
1103 1 939 951
1104 1 939 956
1105 1 939 958
1106 2 944 984
1107 2 947 990
1108 2 951 986
1109 2 956 908
1110 3 964 983
1111 4 964 996
1112 3 964 1398
1113 3 967 989
1114 4 967 999
1115 3 971 109
1116 3 971 985
1117 4 971 1003
1118 3 976 979
1119 4 976 1008
1120 5 979 908
1121 5 983 984
1122 5 985 986
1123 1 940 942
1124 1 940 945
1125 1 940 949
1126 1 940 954
1127 1 940 958
1128 1 940 959
1129 2 942 980
1130 2 945 986
1131 2 949 990
1132 2 954 1056
1133 5 1123 1052
1134 3 962 536
1135 4 962 994
1136 3 962 1051
1137 3 965 985
1138 4 965 997
1139 3 969 975
1140 3 969 989
1141 4 969 1001
1142 4 974 1006
1143 3 974 1055
1144 5 989 990
1145 1 1011 959
1146 1 1011 1016
1147 1 1011 1019
1148 1 1011 1023
1149 1 1011 1028
1150 1 1011 1030
1151 1 1012 1014
1152 1 1012 1017
1153 1 1012 1021
1154 1 1012 1026
1155 1 1012 1030
1156 1 1012 1031
1157 2 1014 1052
1158 2 1016 1056
1159 2 1017 1058
1160 2 1019 1062
1161 2 1021 1062
1162 2 1023 1058
1163 2 1026 1128
1164 2 1028 980
1165 3 1034 608
1166 4 1034 1066
1167 3 1034 1123
1168 3 1036 1055
1169 4 1036 1068
1170 3 1036 1470
1171 3 1037 1057
1172 4 1037 1069
1173 3 1039 1061
1174 4 1039 1071
1175 3 1041 1047
1176 3 1041 1061
1177 4 1041 1073
1178 3 1043 181
1179 3 1043 1057
1180 4 1043 1075
1181 4 1046 1078
1182 3 1046 1127
1183 3 1048 1051
1184 4 1048 1080
1185 5 1051 980
1186 5 1055 1056
1187 5 1057 1058
1188 5 1061 1062
1189 1 1083 1031
1190 1 1083 1088
1191 1 1083 1091
1192 1 1083 1095
1193 1 1083 1100
1194 1 1083 1102
1195 1 1084 1086
1196 1 1084 1089
1197 1 1084 1093
1198 1 1084 1098
1199 1 1084 1102
1200 1 1084 1103
1201 2 1086 1124
1202 2 1088 1128
1203 2 1089 1130
1204 2 1091 1134
1205 2 1093 1134
1206 2 1095 1130
1207 2 1098 1200
1208 2 1100 1052
1209 3 1106 680
1210 4 1106 1138
1211 3 1106 1195
1212 3 1108 1127
1213 4 1108 1140
1214 3 1108 1542
1215 3 1109 1129
1216 4 1109 1141
1217 3 1111 1133
1218 4 1111 1143
1219 3 1113 1119
1220 3 1113 1133
1221 4 1113 1145
1222 3 1115 253
1223 3 1115 1129
1224 4 1115 1147
1225 4 1118 1150
1226 3 1118 1199
1227 3 1120 1123
1228 4 1120 1152
1229 5 1127 1128
1230 5 1129 1130
1231 5 1133 1134
1232 1 1155 1103
1233 1 1155 1160
1234 1 1155 1163
1235 1 1155 1167
1236 1 1155 1172
1237 1 1155 1174
1238 2 1160 1200
1239 2 1163 1206
1240 2 1167 1202
1241 2 1172 1124
1242 3 1180 1199
1243 4 1180 1212
1244 3 1180 1614
1245 3 1183 1205
1246 4 1183 1215
1247 3 1187 325
1248 3 1187 1201
1249 4 1187 1219
1250 3 1192 1195
1251 4 1192 1224
1252 5 1195 1124
1253 5 1199 1200
1254 5 1201 1202
1255 5 907 1268
1256 1 1156 1158
1257 1 1156 1161
1258 1 1156 1165
1259 1 1156 1170
1260 1 1156 1174
1261 1 1156 1175
1262 2 1158 1196
1263 2 1161 1202
1264 2 1165 1206
1265 2 1170 1272
1266 3 1178 752
1267 4 1178 1210
1268 3 1178 1267
1269 3 1181 1201
1270 4 1181 1213
1271 3 1185 1191
1272 3 1185 1205
1273 4 1185 1217
1274 4 1190 1222
1275 3 1190 1271
1276 5 1205 1206
1277 1 1227 1175
1278 1 1227 1232
1279 1 1227 1235
1280 1 1227 1239
1281 1 1227 1244
1282 1 1227 1246
1283 1 1228 1230
1284 1 1228 1233
1285 1 1228 1237
1286 1 1228 1242
1287 1 1228 1246
1288 1 1228 1247
1289 2 1230 1268
1290 2 1232 1272
1291 2 1233 1274
1292 2 1235 1278
1293 2 1237 1278
1294 2 1239 1274
1295 2 1242 912
1296 2 1244 1196
1297 3 1250 824
1298 3 1250 907
1299 4 1250 1282
1300 3 1252 1271
1301 4 1252 1284
1302 3 1252 1686
1303 3 1253 1273
1304 4 1253 1285
1305 3 1255 1277
1306 4 1255 1287
1307 3 1257 1263
1308 3 1257 1277
1309 4 1257 1289
1310 3 1259 397
1311 3 1259 1273
1312 4 1259 1291
1313 3 1262 911
1314 4 1262 1294
1315 3 1264 1267
1316 4 1264 1296
1317 5 1267 1196
1318 5 1271 1272
1319 5 1273 1274
1320 5 1277 1278
1321 1 1299 1304
1322 1 1299 1307
1323 1 1299 1311
1324 1 1299 1316
1325 1 1299 1318
1326 1 1299 1679
1327 1 1300 1302
1328 1 1300 1305
1329 1 1300 1309
1330 1 1300 1314
1331 1 1300 1318
1332 1 1300 1319
1333 2 1302 1340
1334 2 1304 1344
1335 2 1305 1346
1336 2 1307 1350
1337 2 1309 1350
1338 2 1311 1346
1339 2 1314 1416
1340 2 1316 1700
1341 3 1322 32
1342 4 1322 1354
1343 3 1322 1411
1344 3 1324 894
1345 3 1324 1343
1346 4 1324 1356
1347 3 1325 1345
1348 4 1325 1357
1349 3 1327 1349
1350 4 1327 1359
1351 3 1329 1335
1352 3 1329 1349
1353 4 1329 1361
1354 3 1331 469
1355 3 1331 1345
1356 4 1331 1363
1357 4 1334 1366
1358 3 1334 1415
1359 3 1336 1339
1360 4 1336 1368
1361 5 1343 1344
1362 5 1345 1346
1363 5 1349 1350
1364 1 1371 1319
1365 1 1371 1376
1366 1 1371 1379
1367 1 1371 1383
1368 1 1371 1388
1369 1 1371 1390
1370 2 1376 1416
1371 2 1379 1422
1372 2 1383 1418
1373 2 1388 1340
1374 3 1396 966
1375 3 1396 1415
1376 4 1396 1428
1377 3 1399 1421
1378 4 1399 1431
1379 3 1403 541
1380 3 1403 1417
1381 4 1403 1435
1382 3 1408 1411
1383 4 1408 1440
1384 5 1411 1340
1385 5 1415 1416
1386 5 1417 1418
1387 1 1372 1374
1388 1 1372 1377
1389 1 1372 1381
1390 1 1372 1386
1391 1 1372 1390
1392 1 1372 1391
1393 2 1374 1412
1394 2 1377 1418
1395 2 1381 1422
1396 2 1386 1488
1397 5 1555 1484
1398 3 1394 104
1399 4 1394 1426
1400 3 1394 1483
1401 3 1397 1417
1402 4 1397 1429
1403 3 1401 1407
1404 3 1401 1421
1405 4 1401 1433
1406 4 1406 1438
1407 3 1406 1487
1408 5 1421 1422
1409 1 1443 1391
1410 1 1443 1448
1411 1 1443 1451
1412 1 1443 1455
1413 1 1443 1460
1414 1 1443 1462
1415 1 1444 1446
1416 1 1444 1449
1417 1 1444 1453
1418 1 1444 1458
1419 1 1444 1462
1420 1 1444 1463
1421 2 1446 1484
1422 2 1448 1488
1423 2 1449 1490
1424 2 1451 1494
1425 2 1453 1494
1426 2 1455 1490
1427 2 1458 1560
1428 2 1460 1412
1429 3 1466 176
1430 4 1466 1498
1431 3 1466 1555
1432 3 1468 1038
1433 3 1468 1487
1434 4 1468 1500
1435 3 1469 1489
1436 4 1469 1501
1437 3 1471 1493
1438 4 1471 1503
1439 3 1473 1479
1440 3 1473 1493
1441 4 1473 1505
1442 3 1475 613
1443 3 1475 1489
1444 4 1475 1507
1445 4 1478 1510
1446 3 1478 1559
1447 3 1480 1483
1448 4 1480 1512
1449 5 1483 1412
1450 5 1487 1488
1451 5 1489 1490
1452 5 1493 1494
1453 1 1515 1463
1454 1 1515 1520
1455 1 1515 1523
1456 1 1515 1527
1457 1 1515 1532
1458 1 1515 1534
1459 1 1516 1518
1460 1 1516 1521
1461 1 1516 1525
1462 1 1516 1530
1463 1 1516 1534
1464 1 1516 1535
1465 2 1518 1556
1466 2 1520 1560
1467 2 1521 1562
1468 2 1523 1566
1469 2 1525 1566
1470 2 1527 1562
1471 2 1530 1632
1472 2 1532 1484
1473 3 1538 248
1474 4 1538 1570
1475 3 1538 1627
1476 3 1540 1110
1477 3 1540 1559
1478 4 1540 1572
1479 3 1541 1561
1480 4 1541 1573
1481 3 1543 1565
1482 4 1543 1575
1483 3 1545 1551
1484 3 1545 1565
1485 4 1545 1577
1486 3 1547 685
1487 3 1547 1561
1488 4 1547 1579
1489 4 1550 1582
1490 3 1550 1631
1491 3 1552 1555
1492 4 1552 1584
1493 5 1559 1560
1494 5 1561 1562
1495 5 1565 1566
1496 1 1587 1535
1497 1 1587 1592
1498 1 1587 1595
1499 1 1587 1599
1500 1 1587 1604
1501 1 1587 1606
1502 2 1592 1632
1503 2 1595 1638
1504 2 1599 1634
1505 2 1604 1556
1506 3 1612 1182
1507 3 1612 1631
1508 4 1612 1644
1509 3 1615 1637
1510 4 1615 1647
1511 3 1619 757
1512 3 1619 1633
1513 4 1619 1651
1514 3 1624 1627
1515 4 1624 1656
1516 5 1627 1556
1517 5 1631 1632
1518 5 1633 1634
1519 5 1339 1700
1520 1 1588 1590
1521 1 1588 1593
1522 1 1588 1597
1523 1 1588 1602
1524 1 1588 1606
1525 1 1588 1607
1526 2 1590 1628
1527 2 1593 1634
1528 2 1597 1638
1529 2 1602 1704
1530 3 1610 320
1531 4 1610 1642
1532 3 1610 1699
1533 3 1613 1633
1534 4 1613 1645
1535 3 1617 1623
1536 3 1617 1637
1537 4 1617 1649
1538 4 1622 1654
1539 3 1622 1703
1540 5 1637 1638
1541 1 1659 1607
1542 1 1659 1664
1543 1 1659 1667
1544 1 1659 1671
1545 1 1659 1676
1546 1 1659 1678
1547 1 1660 1662
1548 1 1660 1665
1549 1 1660 1669
1550 1 1660 1674
1551 1 1660 1678
1552 1 1660 1679
1553 2 1662 1700
1554 2 1664 1704
1555 2 1665 1706
1556 2 1667 1710
1557 2 1669 1710
1558 2 1671 1706
1559 2 1674 1344
1560 2 1676 1628
1561 3 1682 392
1562 3 1682 1339
1563 4 1682 1714
1564 3 1684 1254
1565 3 1684 1703
1566 4 1684 1716
1567 3 1685 1705
1568 4 1685 1717
1569 3 1687 1709
1570 4 1687 1719
1571 3 1689 1695
1572 3 1689 1709
1573 4 1689 1721
1574 3 1691 829
1575 3 1691 1705
1576 4 1691 1723
1577 3 1694 1343
1578 4 1694 1726
1579 3 1696 1699
1580 4 1696 1728
1581 5 1699 1628
1582 5 1703 1704
1583 5 1705 1706
1584 5 1709 1710
1585 1 865 869
1586 1 865 874
1587 1 865 878
1588 1 865 881
1589 1 865 888
1590 1 865 1245
1591 1 866 871
1592 1 866 876
1593 1 866 880
1594 1 866 883
1595 1 866 885
1596 1 866 888
1597 2 869 906
1598 2 871 910
1599 2 874 1276
1600 2 876 992
1601 2 878 920
1602 2 880 916
1603 2 881 910
1604 2 883 906
1605 3 889 895
1606 3 889 905
1607 4 889 921
1608 3 891 29
1609 3 891 909
1610 4 891 923
1611 3 894 915
1612 4 894 926
1613 4 896 928
1614 3 896 991
1615 3 898 472
1616 3 898 919
1617 4 898 930
1618 4 900 932
1619 3 900 987
1620 3 900 1334
1621 3 901 909
1622 4 901 933
1623 3 903 905
1624 4 903 935
1625 5 905 906
1626 5 909 910
1627 5 919 920
1628 1 937 885
1629 1 937 941
1630 1 937 946
1631 1 937 950
1632 1 937 953
1633 1 937 960
1634 2 941 978
1635 2 946 916
1636 2 950 992
1637 2 953 982
1638 3 961 967
1639 3 961 977
1640 4 961 993
1641 3 966 987
1642 4 966 998
1643 3 970 544
1644 3 970 991
1645 4 970 1002
1646 3 973 981
1647 4 973 1005
1648 5 977 978
1649 5 987 916
1650 5 991 992
1651 1 938 943
1652 1 938 948
1653 1 938 952
1654 1 938 955
1655 1 938 957
1656 1 938 960
1657 2 943 982
1658 2 948 1064
1659 2 952 988
1660 2 955 978
1661 5 1131 1060
1662 3 963 101
1663 3 963 981
1664 4 963 995
1665 4 968 1000
1666 3 968 1063
1667 4 972 1004
1668 3 972 1059
1669 3 972 1406
1670 3 975 977
1671 4 975 1007
1672 5 981 982
1673 1 1009 957
1674 1 1009 1013
1675 1 1009 1018
1676 1 1009 1022
1677 1 1009 1025
1678 1 1009 1032
1679 1 1010 1015
1680 1 1010 1020
1681 1 1010 1024
1682 1 1010 1027
1683 1 1010 1029
1684 1 1010 1032
1685 2 1013 1050
1686 2 1015 1054
1687 2 1018 988
1688 2 1020 1136
1689 2 1022 1064
1690 2 1024 1060
1691 2 1025 1054
1692 2 1027 1050
1693 3 1033 1039
1694 3 1033 1049
1695 4 1033 1065
1696 3 1035 173
1697 3 1035 1053
1698 4 1035 1067
1699 3 1038 1059
1700 4 1038 1070
1701 4 1040 1072
1702 3 1040 1135
1703 3 1042 616
1704 3 1042 1063
1705 4 1042 1074
1706 4 1044 1076
1707 3 1044 1131
1708 3 1044 1478
1709 3 1045 1053
1710 4 1045 1077
1711 3 1047 1049
1712 4 1047 1079
1713 5 1049 1050
1714 5 1053 1054
1715 5 1059 988
1716 5 1063 1064
1717 1 1081 1029
1718 1 1081 1085
1719 1 1081 1090
1720 1 1081 1094
1721 1 1081 1097
1722 1 1081 1104
1723 1 1082 1087
1724 1 1082 1092
1725 1 1082 1096
1726 1 1082 1099
1727 1 1082 1101
1728 1 1082 1104
1729 2 1085 1122
1730 2 1087 1126
1731 2 1090 1060
1732 2 1092 1208
1733 2 1094 1136
1734 2 1096 1132
1735 2 1097 1126
1736 2 1099 1122
1737 3 1105 1111
1738 3 1105 1121
1739 4 1105 1137
1740 3 1107 245
1741 3 1107 1125
1742 4 1107 1139
1743 3 1110 1131
1744 4 1110 1142
1745 4 1112 1144
1746 3 1112 1207
1747 3 1114 688
1748 3 1114 1135
1749 4 1114 1146
1750 4 1116 1148
1751 3 1116 1203
1752 3 1116 1550
1753 3 1117 1125
1754 4 1117 1149
1755 3 1119 1121
1756 4 1119 1151
1757 5 1121 1122
1758 5 1125 1126
1759 5 1135 1136
1760 1 1153 1101
1761 1 1153 1157
1762 1 1153 1162
1763 1 1153 1166
1764 1 1153 1169
1765 1 1153 1176
1766 2 1157 1194
1767 2 1162 1132
1768 2 1166 1208
1769 2 1169 1198
1770 3 1177 1183
1771 3 1177 1193
1772 4 1177 1209
1773 3 1182 1203
1774 4 1182 1214
1775 3 1186 760
1776 3 1186 1207
1777 4 1186 1218
1778 3 1189 1197
1779 4 1189 1221
1780 5 1193 1194
1781 5 1203 1132
1782 5 1207 1208
1783 5 915 1276
1784 1 1154 1159
1785 1 1154 1164
1786 1 1154 1168
1787 1 1154 1171
1788 1 1154 1173
1789 1 1154 1176
1790 2 1159 1198
1791 2 1164 1280
1792 2 1168 1204
1793 2 1171 1194
1794 3 1179 317
1795 3 1179 1197
1796 4 1179 1211
1797 4 1184 1216
1798 3 1184 1279
1799 4 1188 1220
1800 3 1188 1275
1801 3 1188 1622
1802 3 1191 1193
1803 4 1191 1223
1804 5 1197 1198
1805 1 1225 1173
1806 1 1225 1229
1807 1 1225 1234
1808 1 1225 1238
1809 1 1225 1241
1810 1 1225 1248
1811 1 1226 1231
1812 1 1226 1236
1813 1 1226 1240
1814 1 1226 1243
1815 1 1226 1245
1816 1 1226 1248
1817 2 1229 1266
1818 2 1231 1270
1819 2 1234 1204
1820 2 1236 920
1821 2 1238 1280
1822 2 1240 1276
1823 2 1241 1270
1824 2 1243 1266
1825 3 1249 1255
1826 3 1249 1265
1827 4 1249 1281
1828 3 1251 389
1829 3 1251 1269
1830 4 1251 1283
1831 3 1254 1275
1832 4 1254 1286
1833 3 1256 919
1834 4 1256 1288
1835 3 1258 832
1836 3 1258 1279
1837 4 1258 1290
1838 3 1260 915
1839 4 1260 1292
1840 3 1260 1694
1841 3 1261 1269
1842 4 1261 1293
1843 3 1263 1265
1844 4 1263 1295
1845 5 1265 1266
1846 5 1269 1270
1847 5 1275 1204
1848 5 1279 1280
1849 1 1297 1301
1850 1 1297 1306
1851 1 1297 1310
1852 1 1297 1313
1853 1 1297 1320
1854 1 1297 1677
1855 1 1298 1303
1856 1 1298 1308
1857 1 1298 1312
1858 1 1298 1315
1859 1 1298 1317
1860 1 1298 1320
1861 2 1301 1338
1862 2 1303 1342
1863 2 1306 1708
1864 2 1308 1424
1865 2 1310 1352
1866 2 1312 1348
1867 2 1313 1342
1868 2 1315 1338
1869 3 1321 1327
1870 3 1321 1337
1871 4 1321 1353
1872 3 1323 461
1873 3 1323 1341
1874 4 1323 1355
1875 3 1326 1347
1876 4 1326 1358
1877 4 1328 1360
1878 3 1328 1423
1879 3 1330 40
1880 3 1330 1351
1881 4 1330 1362
1882 3 1332 902
1883 4 1332 1364
1884 3 1332 1419
1885 3 1333 1341
1886 4 1333 1365
1887 3 1335 1337
1888 4 1335 1367
1889 5 1337 1338
1890 5 1341 1342
1891 5 1351 1352
1892 1 1369 1317
1893 1 1369 1373
1894 1 1369 1378
1895 1 1369 1382
1896 1 1369 1385
1897 1 1369 1392
1898 2 1373 1410
1899 2 1378 1348
1900 2 1382 1424
1901 2 1385 1414
1902 3 1393 1399
1903 3 1393 1409
1904 4 1393 1425
1905 3 1398 1419
1906 4 1398 1430
1907 3 1402 112
1908 3 1402 1423
1909 4 1402 1434
1910 3 1405 1413
1911 4 1405 1437
1912 5 1409 1410
1913 5 1419 1348
1914 5 1423 1424
1915 1 1370 1375
1916 1 1370 1380
1917 1 1370 1384
1918 1 1370 1387
1919 1 1370 1389
1920 1 1370 1392
1921 2 1375 1414
1922 2 1380 1496
1923 2 1384 1420
1924 2 1387 1410
1925 5 1563 1492
1926 3 1395 533
1927 3 1395 1413
1928 4 1395 1427
1929 4 1400 1432
1930 3 1400 1495
1931 3 1404 974
1932 4 1404 1436
1933 3 1404 1491
1934 3 1407 1409
1935 4 1407 1439
1936 5 1413 1414
1937 1 1441 1389
1938 1 1441 1445
1939 1 1441 1450
1940 1 1441 1454
1941 1 1441 1457
1942 1 1441 1464
1943 1 1442 1447
1944 1 1442 1452
1945 1 1442 1456
1946 1 1442 1459
1947 1 1442 1461
1948 1 1442 1464
1949 2 1445 1482
1950 2 1447 1486
1951 2 1450 1420
1952 2 1452 1568
1953 2 1454 1496
1954 2 1456 1492
1955 2 1457 1486
1956 2 1459 1482
1957 3 1465 1471
1958 3 1465 1481
1959 4 1465 1497
1960 3 1467 605
1961 3 1467 1485
1962 4 1467 1499
1963 3 1470 1491
1964 4 1470 1502
1965 4 1472 1504
1966 3 1472 1567
1967 3 1474 184
1968 3 1474 1495
1969 4 1474 1506
1970 3 1476 1046
1971 4 1476 1508
1972 3 1476 1563
1973 3 1477 1485
1974 4 1477 1509
1975 3 1479 1481
1976 4 1479 1511
1977 5 1481 1482
1978 5 1485 1486
1979 5 1491 1420
1980 5 1495 1496
1981 1 1513 1461
1982 1 1513 1517
1983 1 1513 1522
1984 1 1513 1526
1985 1 1513 1529
1986 1 1513 1536
1987 1 1514 1519
1988 1 1514 1524
1989 1 1514 1528
1990 1 1514 1531
1991 1 1514 1533
1992 1 1514 1536
1993 2 1517 1554
1994 2 1519 1558
1995 2 1522 1492
1996 2 1524 1640
1997 2 1526 1568
1998 2 1528 1564
1999 2 1529 1558
2000 2 1531 1554
2001 3 1537 1543
2002 3 1537 1553
2003 4 1537 1569
2004 3 1539 677
2005 3 1539 1557
2006 4 1539 1571
2007 3 1542 1563
2008 4 1542 1574
2009 4 1544 1576
2010 3 1544 1639
2011 3 1546 256
2012 3 1546 1567
2013 4 1546 1578
2014 3 1548 1118
2015 4 1548 1580
2016 3 1548 1635
2017 3 1549 1557
2018 4 1549 1581
2019 3 1551 1553
2020 4 1551 1583
2021 5 1553 1554
2022 5 1557 1558
2023 5 1567 1568
2024 1 1585 1533
2025 1 1585 1589
2026 1 1585 1594
2027 1 1585 1598
2028 1 1585 1601
2029 1 1585 1608
2030 2 1589 1626
2031 2 1594 1564
2032 2 1598 1640
2033 2 1601 1630
2034 3 1609 1615
2035 3 1609 1625
2036 4 1609 1641
2037 3 1614 1635
2038 4 1614 1646
2039 3 1618 328
2040 3 1618 1639
2041 4 1618 1650
2042 3 1621 1629
2043 4 1621 1653
2044 5 1625 1626
2045 5 1635 1564
2046 5 1639 1640
2047 5 1347 1708
2048 1 1586 1591
2049 1 1586 1596
2050 1 1586 1600
2051 1 1586 1603
2052 1 1586 1605
2053 1 1586 1608
2054 2 1591 1630
2055 2 1596 1712
2056 2 1600 1636
2057 2 1603 1626
2058 3 1611 749
2059 3 1611 1629
2060 4 1611 1643
2061 4 1616 1648
2062 3 1616 1711
2063 3 1620 1190
2064 4 1620 1652
2065 3 1620 1707
2066 3 1623 1625
2067 4 1623 1655
2068 5 1629 1630
2069 1 1657 1605
2070 1 1657 1661
2071 1 1657 1666
2072 1 1657 1670
2073 1 1657 1673
2074 1 1657 1680
2075 1 1658 1663
2076 1 1658 1668
2077 1 1658 1672
2078 1 1658 1675
2079 1 1658 1677
2080 1 1658 1680
2081 2 1661 1698
2082 2 1663 1702
2083 2 1666 1636
2084 2 1668 1352
2085 2 1670 1712
2086 2 1672 1708
2087 2 1673 1702
2088 2 1675 1698
2089 3 1681 1687
2090 3 1681 1697
2091 4 1681 1713
2092 3 1683 821
2093 3 1683 1701
2094 4 1683 1715
2095 3 1686 1707
2096 4 1686 1718
2097 3 1688 1351
2098 4 1688 1720
2099 3 1690 400
2100 3 1690 1711
2101 4 1690 1722
2102 3 1692 1262
2103 3 1692 1347
2104 4 1692 1724
2105 3 1693 1701
2106 4 1693 1725
2107 3 1695 1697
2108 4 1695 1727
2109 5 1697 1698
2110 5 1701 1702
2111 5 1707 1636
2112 5 1711 1712

Angles

1 1 8 3 11
2 1 8 3 15
3 1 8 3 20
4 1 8 3 22
5 1 8 3 383
6 1 11 3 15
7 1 11 3 20
8 1 11 3 22
9 1 11 3 383
10 1 15 3 20
11 1 15 3 22
12 1 15 3 383
13 1 20 3 22
14 1 20 3 383
15 1 22 3 383
16 1 6 4 9
17 1 6 4 13
18 1 6 4 18
19 1 6 4 22
20 1 6 4 23
21 1 9 4 13
22 1 9 4 18
23 1 9 4 22
24 1 9 4 23
25 1 13 4 18
26 1 13 4 22
27 1 13 4 23
28 1 18 4 22
29 1 18 4 23
30 1 22 4 23
31 2 4 6 44
32 2 3 8 48
33 2 4 9 50
34 2 3 11 54
35 2 4 13 54
36 2 3 15 50
37 2 4 18 120
38 2 3 20 404
39 3 3 22 4
40 3 75 23 4
41 4 1328 26 115
42 5 1328 26 58
43 5 115 26 58
44 4 462 28 47
45 5 462 28 60
46 5 47 28 60
47 4 891 29 49
48 5 891 29 61
49 5 49 29 61
50 4 25 31 53
51 5 25 31 63
52 5 53 31 63
53 4 39 33 53
54 5 39 33 65
55 5 53 33 65
56 4 901 35 49
57 5 901 35 67
58 5 49 35 67
59 4 468 38 119
60 5 468 38 70
61 5 119 38 70
62 4 1330 40 43
63 5 1330 40 72
64 5 43 40 72
65 7 6 44 92
66 8 6 44 115
67 8 92 44 115
68 4 28 47 398
69 6 28 47 48
70 6 398 47 48
71 7 8 48 378
72 8 8 48 47
73 8 378 48 47
74 4 29 49 35
75 6 29 49 50
76 6 35 49 50
77 7 9 50 15
78 8 9 50 49
79 8 15 50 49
80 4 31 53 33
81 6 31 53 54
82 6 33 53 54
83 7 11 54 13
84 8 11 54 53
85 8 13 54 53
86 1 80 75 83
87 1 80 75 87
88 1 80 75 92
89 1 80 75 94
90 1 80 75 23
91 1 83 75 87
92 1 83 75 92
93 1 83 75 94
94 1 83 75 23
95 1 87 75 92
96 1 87 75 94
97 1 87 75 23
98 1 92 75 94
99 1 92 75 23
100 1 94 75 23
101 2 75 80 120
102 2 75 83 126
103 2 75 87 122
104 2 75 92 44
105 4 534 100 119
106 5 534 100 132
107 5 119 100 132
108 4 97 103 125
109 5 97 103 135
110 5 125 103 135
111 4 973 107 121
112 5 973 107 139
113 5 121 107 139
114 4 1402 112 115
115 5 1402 112 144
116 5 115 112 144
117 4 26 115 112
118 6 26 115 44
119 6 112 115 44
120 4 100 119 38
121 6 100 119 120
122 6 38 119 120
123 7 80 120 18
124 8 80 120 119
125 8 18 120 119
126 4 101 121 107
127 6 101 121 122
128 6 107 121 122
129 7 81 122 87
130 8 81 122 121
131 8 87 122 121
132 3 75 94 76
133 1 78 76 81
134 1 78 76 85
135 1 78 76 90
136 1 78 76 94
137 1 78 76 95
138 1 81 76 85
139 1 81 76 90
140 1 81 76 94
141 1 81 76 95
142 1 85 76 90
143 1 85 76 94
144 1 85 76 95
145 1 90 76 94
146 1 90 76 95
147 1 94 76 95
148 2 76 78 116
149 2 76 81 122
150 2 76 85 126
151 2 76 90 192
152 4 170 259 256
153 6 170 259 188
154 6 256 259 188
155 3 147 95 76
156 4 1400 98 187
157 5 1400 98 130
158 5 187 98 130
159 4 963 101 121
160 5 963 101 133
161 5 121 101 133
162 4 111 105 125
163 5 111 105 137
164 5 125 105 137
165 4 540 110 191
166 5 540 110 142
167 5 191 110 142
168 7 78 116 164
169 8 78 116 187
170 8 164 116 187
171 4 103 125 105
172 6 103 125 126
173 6 105 125 126
174 7 83 126 85
175 8 83 126 125
176 8 85 126 125
177 1 152 147 155
178 1 152 147 159
179 1 152 147 164
180 1 152 147 166
181 1 152 147 95
182 1 155 147 159
183 1 155 147 164
184 1 155 147 166
185 1 155 147 95
186 1 159 147 164
187 1 159 147 166
188 1 159 147 95
189 1 164 147 166
190 1 164 147 95
191 1 166 147 95
192 1 150 148 153
193 1 150 148 157
194 1 150 148 162
195 1 150 148 166
196 1 150 148 167
197 1 153 148 157
198 1 153 148 162
199 1 153 148 166
200 1 153 148 167
201 1 157 148 162
202 1 157 148 166
203 1 157 148 167
204 1 162 148 166
205 1 162 148 167
206 1 166 148 167
207 2 148 150 188
208 2 147 152 192
209 2 148 153 194
210 2 147 155 198
211 2 148 157 198
212 2 147 159 194
213 2 148 162 264
214 2 147 164 116
215 3 147 166 148
216 4 1472 170 259
217 5 1472 170 202
218 5 259 170 202
219 4 606 172 191
220 5 606 172 204
221 5 191 172 204
222 4 1035 173 193
223 5 1035 173 205
224 5 193 173 205
225 4 169 175 197
226 5 169 175 207
227 5 197 175 207
228 4 183 177 197
229 5 183 177 209
230 5 197 177 209
231 4 1045 179 193
232 5 1045 179 211
233 5 193 179 211
234 4 612 182 263
235 5 612 182 214
236 5 263 182 214
237 4 1474 184 187
238 5 1474 184 216
239 5 187 184 216
240 4 98 187 184
241 6 98 187 116
242 6 184 187 116
243 7 150 188 236
244 8 150 188 259
245 8 236 188 259
246 4 172 191 110
247 6 172 191 192
248 6 110 191 192
249 7 152 192 90
250 8 152 192 191
251 8 90 192 191
252 4 173 193 179
253 6 173 193 194
254 6 179 193 194
255 7 153 194 159
256 8 153 194 193
257 8 159 194 193
258 4 175 197 177
259 6 175 197 198
260 6 177 197 198
261 7 155 198 157
262 8 155 198 197
263 8 157 198 197
264 3 219 167 148
265 1 224 219 227
266 1 224 219 231
267 1 224 219 236
268 1 224 219 238
269 1 224 219 167
270 1 227 219 231
271 1 227 219 236
272 1 227 219 238
273 1 227 219 167
274 1 231 219 236
275 1 231 219 238
276 1 231 219 167
277 1 236 219 238
278 1 236 219 167
279 1 238 219 167
280 1 222 220 225
281 1 222 220 229
282 1 222 220 234
283 1 222 220 238
284 1 222 220 239
285 1 225 220 229
286 1 225 220 234
287 1 225 220 238
288 1 225 220 239
289 1 229 220 234
290 1 229 220 238
291 1 229 220 239
292 1 234 220 238
293 1 234 220 239
294 1 238 220 239
295 2 220 222 260
296 2 219 224 264
297 2 220 225 266
298 2 219 227 270
299 2 220 229 270
300 2 219 231 266
301 2 220 234 336
302 2 219 236 188
303 3 219 238 220
304 3 291 239 220
305 4 1544 242 331
306 5 1544 242 274
307 5 331 242 274
308 4 678 244 263
309 5 678 244 276
310 5 263 244 276
311 4 1107 245 265
312 5 1107 245 277
313 5 265 245 277
314 4 241 247 269
315 5 241 247 279
316 5 269 247 279
317 4 255 249 269
318 5 255 249 281
319 5 269 249 281
320 4 1117 251 265
321 5 1117 251 283
322 5 265 251 283
323 4 684 254 335
324 5 684 254 286
325 5 335 254 286
326 4 1546 256 259
327 5 1546 256 288
328 5 259 256 288
329 7 222 260 308
330 8 222 260 331
331 8 308 260 331
332 4 244 263 182
333 6 244 263 264
334 6 182 263 264
335 7 224 264 162
336 8 224 264 263
337 8 162 264 263
338 4 245 265 251
339 6 245 265 266
340 6 251 265 266
341 7 225 266 231
342 8 225 266 265
343 8 231 266 265
344 4 247 269 249
345 6 247 269 270
346 6 249 269 270
347 7 227 270 229
348 8 227 270 269
349 8 229 270 269
350 1 296 291 299
351 1 296 291 303
352 1 296 291 308
353 1 296 291 310
354 1 296 291 239
355 1 299 291 303
356 1 299 291 308
357 1 299 291 310
358 1 299 291 239
359 1 303 291 308
360 1 303 291 310
361 1 303 291 239
362 1 308 291 310
363 1 308 291 239
364 1 310 291 239
365 2 291 296 336
366 2 291 299 342
367 2 291 303 338
368 2 291 308 260
369 4 750 316 335
370 5 750 316 348
371 5 335 316 348
372 4 313 319 341
373 5 313 319 351
374 5 341 319 351
375 4 1189 323 337
376 5 1189 323 355
377 5 337 323 355
378 4 1618 328 331
379 5 1618 328 360
380 5 331 328 360
381 4 242 331 328
382 6 242 331 260
383 6 328 331 260
384 4 316 335 254
385 6 316 335 336
386 6 254 335 336
387 7 296 336 234
388 8 296 336 335
389 8 234 336 335
390 4 317 337 323
391 6 317 337 338
392 6 323 337 338
393 7 297 338 303
394 8 297 338 337
395 8 303 338 337
396 3 291 310 292
397 4 386 43 40
398 6 386 43 404
399 6 40 43 404
400 1 294 292 297
401 1 294 292 301
402 1 294 292 306
403 1 294 292 310
404 1 294 292 311
405 1 297 292 301
406 1 297 292 306
407 1 297 292 310
408 1 297 292 311
409 1 301 292 306
410 1 301 292 310
411 1 301 292 311
412 1 306 292 310
413 1 306 292 311
414 1 310 292 311
415 2 292 294 332
416 2 292 297 338
417 2 292 301 342
418 2 292 306 408
419 3 363 311 292
420 4 1616 314 403
421 5 1616 314 346
422 5 403 314 346
423 4 1179 317 337
424 5 1179 317 349
425 5 337 317 349
426 4 327 321 341
427 5 327 321 353
428 5 341 321 353
429 4 756 326 407
430 5 756 326 358
431 5 407 326 358
432 7 294 332 380
433 8 294 332 403
434 8 380 332 403
435 4 319 341 321
436 6 319 341 342
437 6 321 341 342
438 7 299 342 301
439 8 299 342 341
440 8 301 342 341
441 1 368 363 371
442 1 368 363 375
443 1 368 363 380
444 1 368 363 382
445 1 368 363 311
446 1 371 363 375
447 1 371 363 380
448 1 371 363 382
449 1 371 363 311
450 1 375 363 380
451 1 375 363 382
452 1 375 363 311
453 1 380 363 382
454 1 380 363 311
455 1 382 363 311
456 1 366 364 369
457 1 366 364 373
458 1 366 364 378
459 1 366 364 382
460 1 366 364 383
461 1 369 364 373
462 1 369 364 378
463 1 369 364 382
464 1 369 364 383
465 1 373 364 378
466 1 373 364 382
467 1 373 364 383
468 1 378 364 382
469 1 378 364 383
470 1 382 364 383
471 2 364 366 404
472 2 363 368 408
473 2 364 369 410
474 2 363 371 414
475 2 364 373 414
476 2 363 375 410
477 2 364 378 48
478 2 363 380 332
479 3 363 382 364
480 4 1688 386 43
481 5 1688 386 418
482 5 43 386 418
483 4 822 388 407
484 5 822 388 420
485 5 407 388 420
486 4 1251 389 409
487 5 1251 389 421
488 5 409 389 421
489 4 385 391 413
490 5 385 391 423
491 5 413 391 423
492 4 399 393 413
493 5 399 393 425
494 5 413 393 425
495 4 1261 395 409
496 5 1261 395 427
497 5 409 395 427
498 4 828 398 47
499 5 828 398 430
500 5 47 398 430
501 4 1690 400 403
502 5 1690 400 432
503 5 403 400 432
504 4 314 403 400
505 6 314 403 332
506 6 400 403 332
507 7 366 404 20
508 8 366 404 43
509 8 20 404 43
510 4 388 407 326
511 6 388 407 408
512 6 326 407 408
513 7 368 408 306
514 8 368 408 407
515 8 306 408 407
516 4 389 409 395
517 6 389 409 410
518 6 395 409 410
519 7 369 410 375
520 8 369 410 409
521 8 375 410 409
522 4 391 413 393
523 6 391 413 414
524 6 393 413 414
525 7 371 414 373
526 8 371 414 413
527 8 373 414 413
528 3 3 383 364
529 1 440 435 443
530 1 440 435 447
531 1 440 435 452
532 1 440 435 454
533 1 440 435 815
534 1 443 435 447
535 1 443 435 452
536 1 443 435 454
537 1 443 435 815
538 1 447 435 452
539 1 447 435 454
540 1 447 435 815
541 1 452 435 454
542 1 452 435 815
543 1 454 435 815
544 1 438 436 441
545 1 438 436 445
546 1 438 436 450
547 1 438 436 454
548 1 438 436 455
549 1 441 436 445
550 1 441 436 450
551 1 441 436 454
552 1 441 436 455
553 1 445 436 450
554 1 445 436 454
555 1 445 436 455
556 1 450 436 454
557 1 450 436 455
558 1 454 436 455
559 2 436 438 476
560 2 435 440 480
561 2 436 441 482
562 2 435 443 486
563 2 436 445 486
564 2 435 447 482
565 2 436 450 552
566 2 435 452 836
567 3 435 454 436
568 3 507 455 436
569 4 896 458 547
570 5 896 458 490
571 5 547 458 490
572 4 30 460 479
573 5 30 460 492
574 5 479 460 492
575 4 1323 461 481
576 5 1323 461 493
577 5 481 461 493
578 4 457 463 485
579 5 457 463 495
580 5 485 463 495
581 4 471 465 485
582 5 471 465 497
583 5 485 465 497
584 4 1333 467 481
585 5 1333 467 499
586 5 481 467 499
587 4 36 470 551
588 5 36 470 502
589 5 551 470 502
590 4 898 472 475
591 5 898 472 504
592 5 475 472 504
593 7 438 476 524
594 8 438 476 547
595 8 524 476 547
596 4 460 479 830
597 6 460 479 480
598 6 830 479 480
599 7 440 480 810
600 8 440 480 479
601 8 810 480 479
602 4 461 481 467
603 6 461 481 482
604 6 467 481 482
605 7 441 482 447
606 8 441 482 481
607 8 447 482 481
608 4 463 485 465
609 6 463 485 486
610 6 465 485 486
611 7 443 486 445
612 8 443 486 485
613 8 445 486 485
614 1 512 507 515
615 1 512 507 519
616 1 512 507 524
617 1 512 507 526
618 1 512 507 455
619 1 515 507 519
620 1 515 507 524
621 1 515 507 526
622 1 515 507 455
623 1 519 507 524
624 1 519 507 526
625 1 519 507 455
626 1 524 507 526
627 1 524 507 455
628 1 526 507 455
629 2 507 512 552
630 2 507 515 558
631 2 507 519 554
632 2 507 524 476
633 4 102 532 551
634 5 102 532 564
635 5 551 532 564
636 4 529 535 557
637 5 529 535 567
638 5 557 535 567
639 4 1405 539 553
640 5 1405 539 571
641 5 553 539 571
642 4 970 544 547
643 5 970 544 576
644 5 547 544 576
645 4 458 547 544
646 6 458 547 476
647 6 544 547 476
648 4 532 551 470
649 6 532 551 552
650 6 470 551 552
651 7 512 552 450
652 8 512 552 551
653 8 450 552 551
654 4 533 553 539
655 6 533 553 554
656 6 539 553 554
657 7 513 554 519
658 8 513 554 553
659 8 519 554 553
660 3 507 526 508
661 1 510 508 513
662 1 510 508 517
663 1 510 508 522
664 1 510 508 526
665 1 510 508 527
666 1 513 508 517
667 1 513 508 522
668 1 513 508 526
669 1 513 508 527
670 1 517 508 522
671 1 517 508 526
672 1 517 508 527
673 1 522 508 526
674 1 522 508 527
675 1 526 508 527
676 2 508 510 548
677 2 508 513 554
678 2 508 517 558
679 2 508 522 624
680 4 602 691 688
681 6 602 691 620
682 6 688 691 620
683 3 579 527 508
684 4 968 530 619
685 5 968 530 562
686 5 619 530 562
687 4 1395 533 553
688 5 1395 533 565
689 5 553 533 565
690 4 543 537 557
691 5 543 537 569
692 5 557 537 569
693 4 108 542 623
694 5 108 542 574
695 5 623 542 574
696 7 510 548 596
697 8 510 548 619
698 8 596 548 619
699 4 535 557 537
700 6 535 557 558
701 6 537 557 558
702 7 515 558 517
703 8 515 558 557
704 8 517 558 557
705 1 584 579 587
706 1 584 579 591
707 1 584 579 596
708 1 584 579 598
709 1 584 579 527
710 1 587 579 591
711 1 587 579 596
712 1 587 579 598
713 1 587 579 527
714 1 591 579 596
715 1 591 579 598
716 1 591 579 527
717 1 596 579 598
718 1 596 579 527
719 1 598 579 527
720 1 582 580 585
721 1 582 580 589
722 1 582 580 594
723 1 582 580 598
724 1 582 580 599
725 1 585 580 589
726 1 585 580 594
727 1 585 580 598
728 1 585 580 599
729 1 589 580 594
730 1 589 580 598
731 1 589 580 599
732 1 594 580 598
733 1 594 580 599
734 1 598 580 599
735 2 580 582 620
736 2 579 584 624
737 2 580 585 626
738 2 579 587 630
739 2 580 589 630
740 2 579 591 626
741 2 580 594 696
742 2 579 596 548
743 3 579 598 580
744 4 1040 602 691
745 5 1040 602 634
746 5 691 602 634
747 4 174 604 623
748 5 174 604 636
749 5 623 604 636
750 4 1467 605 625
751 5 1467 605 637
752 5 625 605 637
753 4 601 607 629
754 5 601 607 639
755 5 629 607 639
756 4 615 609 629
757 5 615 609 641
758 5 629 609 641
759 4 1477 611 625
760 5 1477 611 643
761 5 625 611 643
762 4 180 614 695
763 5 180 614 646
764 5 695 614 646
765 4 1042 616 619
766 5 1042 616 648
767 5 619 616 648
768 4 530 619 616
769 6 530 619 548
770 6 616 619 548
771 7 582 620 668
772 8 582 620 691
773 8 668 620 691
774 4 604 623 542
775 6 604 623 624
776 6 542 623 624
777 7 584 624 522
778 8 584 624 623
779 8 522 624 623
780 4 605 625 611
781 6 605 625 626
782 6 611 625 626
783 7 585 626 591
784 8 585 626 625
785 8 591 626 625
786 4 607 629 609
787 6 607 629 630
788 6 609 629 630
789 7 587 630 589
790 8 587 630 629
791 8 589 630 629
792 3 651 599 580
793 1 656 651 659
794 1 656 651 663
795 1 656 651 668
796 1 656 651 670
797 1 656 651 599
798 1 659 651 663
799 1 659 651 668
800 1 659 651 670
801 1 659 651 599
802 1 663 651 668
803 1 663 651 670
804 1 663 651 599
805 1 668 651 670
806 1 668 651 599
807 1 670 651 599
808 1 654 652 657
809 1 654 652 661
810 1 654 652 666
811 1 654 652 670
812 1 654 652 671
813 1 657 652 661
814 1 657 652 666
815 1 657 652 670
816 1 657 652 671
817 1 661 652 666
818 1 661 652 670
819 1 661 652 671
820 1 666 652 670
821 1 666 652 671
822 1 670 652 671
823 2 652 654 692
824 2 651 656 696
825 2 652 657 698
826 2 651 659 702
827 2 652 661 702
828 2 651 663 698
829 2 652 666 768
830 2 651 668 620
831 3 651 670 652
832 3 723 671 652
833 4 1112 674 763
834 5 1112 674 706
835 5 763 674 706
836 4 246 676 695
837 5 246 676 708
838 5 695 676 708
839 4 1539 677 697
840 5 1539 677 709
841 5 697 677 709
842 4 673 679 701
843 5 673 679 711
844 5 701 679 711
845 4 687 681 701
846 5 687 681 713
847 5 701 681 713
848 4 1549 683 697
849 5 1549 683 715
850 5 697 683 715
851 4 252 686 767
852 5 252 686 718
853 5 767 686 718
854 4 1114 688 691
855 5 1114 688 720
856 5 691 688 720
857 7 654 692 740
858 8 654 692 763
859 8 740 692 763
860 4 676 695 614
861 6 676 695 696
862 6 614 695 696
863 7 656 696 594
864 8 656 696 695
865 8 594 696 695
866 4 677 697 683
867 6 677 697 698
868 6 683 697 698
869 7 657 698 663
870 8 657 698 697
871 8 663 698 697
872 4 679 701 681
873 6 679 701 702
874 6 681 701 702
875 7 659 702 661
876 8 659 702 701
877 8 661 702 701
878 1 728 723 731
879 1 728 723 735
880 1 728 723 740
881 1 728 723 742
882 1 728 723 671
883 1 731 723 735
884 1 731 723 740
885 1 731 723 742
886 1 731 723 671
887 1 735 723 740
888 1 735 723 742
889 1 735 723 671
890 1 740 723 742
891 1 740 723 671
892 1 742 723 671
893 2 723 728 768
894 2 723 731 774
895 2 723 735 770
896 2 723 740 692
897 4 318 748 767
898 5 318 748 780
899 5 767 748 780
900 4 745 751 773
901 5 745 751 783
902 5 773 751 783
903 4 1621 755 769
904 5 1621 755 787
905 5 769 755 787
906 4 1186 760 763
907 5 1186 760 792
908 5 763 760 792
909 4 674 763 760
910 6 674 763 692
911 6 760 763 692
912 4 748 767 686
913 6 748 767 768
914 6 686 767 768
915 7 728 768 666
916 8 728 768 767
917 8 666 768 767
918 4 749 769 755
919 6 749 769 770
920 6 755 769 770
921 7 729 770 735
922 8 729 770 769
923 8 735 770 769
924 3 723 742 724
925 4 818 475 472
926 6 818 475 836
927 6 472 475 836
928 1 726 724 729
929 1 726 724 733
930 1 726 724 738
931 1 726 724 742
932 1 726 724 743
933 1 729 724 733
934 1 729 724 738
935 1 729 724 742
936 1 729 724 743
937 1 733 724 738
938 1 733 724 742
939 1 733 724 743
940 1 738 724 742
941 1 738 724 743
942 1 742 724 743
943 2 724 726 764
944 2 724 729 770
945 2 724 733 774
946 2 724 738 840
947 3 795 743 724
948 4 1184 746 835
949 5 1184 746 778
950 5 835 746 778
951 4 1611 749 769
952 5 1611 749 781
953 5 769 749 781
954 4 759 753 773
955 5 759 753 785
956 5 773 753 785
957 4 324 758 839
958 5 324 758 790
959 5 839 758 790
960 7 726 764 812
961 8 726 764 835
962 8 812 764 835
963 4 751 773 753
964 6 751 773 774
965 6 753 773 774
966 7 731 774 733
967 8 731 774 773
968 8 733 774 773
969 1 800 795 803
970 1 800 795 807
971 1 800 795 812
972 1 800 795 814
973 1 800 795 743
974 1 803 795 807
975 1 803 795 812
976 1 803 795 814
977 1 803 795 743
978 1 807 795 812
979 1 807 795 814
980 1 807 795 743
981 1 812 795 814
982 1 812 795 743
983 1 814 795 743
984 1 798 796 801
985 1 798 796 805
986 1 798 796 810
987 1 798 796 814
988 1 798 796 815
989 1 801 796 805
990 1 801 796 810
991 1 801 796 814
992 1 801 796 815
993 1 805 796 810
994 1 805 796 814
995 1 805 796 815
996 1 810 796 814
997 1 810 796 815
998 1 814 796 815
999 2 796 798 836
1000 2 795 800 840
1001 2 796 801 842
1002 2 795 803 846
1003 2 796 805 846
1004 2 795 807 842
1005 2 796 810 480
1006 2 795 812 764
1007 3 795 814 796
1008 4 1256 818 475
1009 5 1256 818 850
1010 5 475 818 850
1011 4 390 820 839
1012 5 390 820 852
1013 5 839 820 852
1014 4 1683 821 841
1015 5 1683 821 853
1016 5 841 821 853
1017 4 817 823 845
1018 5 817 823 855
1019 5 845 823 855
1020 4 831 825 845
1021 5 831 825 857
1022 5 845 825 857
1023 4 1693 827 841
1024 5 1693 827 859
1025 5 841 827 859
1026 4 396 830 479
1027 5 396 830 862
1028 5 479 830 862
1029 4 1258 832 835
1030 5 1258 832 864
1031 5 835 832 864
1032 4 746 835 832
1033 6 746 835 764
1034 6 832 835 764
1035 7 798 836 452
1036 8 798 836 475
1037 8 452 836 475
1038 4 820 839 758
1039 6 820 839 840
1040 6 758 839 840
1041 7 800 840 738
1042 8 800 840 839
1043 8 738 840 839
1044 4 821 841 827
1045 6 821 841 842
1046 6 827 841 842
1047 7 801 842 807
1048 8 801 842 841
1049 8 807 842 841
1050 4 823 845 825
1051 6 823 845 846
1052 6 825 845 846
1053 7 803 846 805
1054 8 803 846 845
1055 8 805 846 845
1056 3 435 815 796
1057 1 5 1 10
1058 1 5 1 14
1059 1 5 1 17
1060 1 5 1 381
1061 1 5 1 24
1062 1 10 1 14
1063 1 10 1 17
1064 1 10 1 381
1065 1 10 1 24
1066 1 14 1 17
1067 1 14 1 381
1068 1 14 1 24
1069 1 17 1 381
1070 1 17 1 24
1071 1 381 1 24
1072 1 7 2 12
1073 1 7 2 16
1074 1 7 2 19
1075 1 7 2 21
1076 1 7 2 24
1077 1 12 2 16
1078 1 12 2 19
1079 1 12 2 21
1080 1 12 2 24
1081 1 16 2 19
1082 1 16 2 21
1083 1 16 2 24
1084 1 19 2 21
1085 1 19 2 24
1086 1 21 2 24
1087 2 1 5 42
1088 2 2 7 46
1089 2 1 10 412
1090 2 2 12 128
1091 2 1 14 56
1092 2 2 16 52
1093 2 1 17 46
1094 2 2 19 42
1095 3 73 21 2
1096 3 1 24 2
1097 4 31 25 41
1098 5 31 25 57
1099 5 41 25 57
1100 4 893 27 45
1101 5 893 27 59
1102 5 45 27 59
1103 4 460 30 51
1104 5 460 30 62
1105 5 51 30 62
1106 4 1322 32 127
1107 5 1322 32 64
1108 5 127 32 64
1109 4 1336 34 55
1110 5 1336 34 66
1111 5 55 34 66
1112 4 470 36 123
1113 5 470 36 68
1114 5 123 36 68
1115 4 899 37 45
1116 5 899 37 69
1117 5 45 37 69
1118 4 33 39 41
1119 5 33 39 71
1120 5 41 39 71
1121 4 25 41 39
1122 6 25 41 42
1123 6 39 41 42
1124 7 5 42 19
1125 8 5 42 41
1126 8 19 42 41
1127 4 27 45 37
1128 6 27 45 46
1129 6 37 45 46
1130 7 7 46 17
1131 8 7 46 45
1132 8 17 46 45
1133 7 82 52 16
1134 8 82 52 123
1135 8 16 52 123
1136 4 392 55 34
1137 6 392 55 56
1138 6 34 55 56
1139 7 372 56 14
1140 8 372 56 55
1141 8 14 56 55
1142 1 77 73 82
1143 1 77 73 86
1144 1 77 73 89
1145 1 77 73 21
1146 1 77 73 96
1147 1 82 73 86
1148 1 82 73 89
1149 1 82 73 21
1150 1 82 73 96
1151 1 86 73 89
1152 1 86 73 21
1153 1 86 73 96
1154 1 89 73 21
1155 1 89 73 96
1156 1 21 73 96
1157 2 73 77 114
1158 2 73 82 52
1159 2 73 86 128
1160 2 73 89 118
1161 4 103 97 113
1162 5 103 97 129
1163 5 113 97 129
1164 4 532 102 123
1165 5 532 102 134
1166 5 123 102 134
1167 4 1408 106 127
1168 5 1408 106 138
1169 5 127 106 138
1170 4 971 109 117
1171 5 971 109 141
1172 5 117 109 141
1173 4 97 113 111
1174 6 97 113 114
1175 6 111 113 114
1176 7 77 114 91
1177 8 77 114 113
1178 8 91 114 113
1179 4 102 123 36
1180 6 102 123 52
1181 6 36 123 52
1182 4 32 127 106
1183 6 32 127 128
1184 6 106 127 128
1185 7 12 128 86
1186 8 12 128 127
1187 8 86 128 127
1188 3 73 96 74
1189 1 79 74 84
1190 1 79 74 88
1191 1 79 74 91
1192 1 79 74 93
1193 1 79 74 96
1194 1 84 74 88
1195 1 84 74 91
1196 1 84 74 93
1197 1 84 74 96
1198 1 88 74 91
1199 1 88 74 93
1200 1 88 74 96
1201 1 91 74 93
1202 1 91 74 96
1203 1 93 74 96
1204 2 74 79 118
1205 2 74 84 200
1206 2 74 88 124
1207 2 74 91 114
1208 3 145 93 74
1209 4 246 267 180
1210 6 246 267 196
1211 6 180 267 196
1212 4 965 99 117
1213 5 965 99 131
1214 5 117 99 131
1215 4 1394 104 199
1216 5 1394 104 136
1217 5 199 104 136
1218 4 542 108 195
1219 5 542 108 140
1220 5 195 108 140
1221 4 105 111 113
1222 5 105 111 143
1223 5 113 111 143
1224 4 99 117 109
1225 6 99 117 118
1226 6 109 117 118
1227 7 79 118 89
1228 8 79 118 117
1229 8 89 118 117
1230 7 154 124 88
1231 8 154 124 195
1232 8 88 124 195
1233 1 149 145 154
1234 1 149 145 158
1235 1 149 145 161
1236 1 149 145 93
1237 1 149 145 168
1238 1 154 145 158
1239 1 154 145 161
1240 1 154 145 93
1241 1 154 145 168
1242 1 158 145 161
1243 1 158 145 93
1244 1 158 145 168
1245 1 161 145 93
1246 1 161 145 168
1247 1 93 145 168
1248 1 151 146 156
1249 1 151 146 160
1250 1 151 146 163
1251 1 151 146 165
1252 1 151 146 168
1253 1 156 146 160
1254 1 156 146 163
1255 1 156 146 165
1256 1 156 146 168
1257 1 160 146 163
1258 1 160 146 165
1259 1 160 146 168
1260 1 163 146 165
1261 1 163 146 168
1262 1 165 146 168
1263 2 145 149 186
1264 2 146 151 190
1265 2 145 154 124
1266 2 146 156 272
1267 2 145 158 200
1268 2 146 160 196
1269 2 145 161 190
1270 2 146 163 186
1271 3 145 168 146
1272 4 175 169 185
1273 5 175 169 201
1274 5 185 169 201
1275 4 1037 171 189
1276 5 1037 171 203
1277 5 189 171 203
1278 4 604 174 195
1279 5 604 174 206
1280 5 195 174 206
1281 4 1466 176 271
1282 5 1466 176 208
1283 5 271 176 208
1284 4 1480 178 199
1285 5 1480 178 210
1286 5 199 178 210
1287 4 614 180 267
1288 5 614 180 212
1289 5 267 180 212
1290 4 1043 181 189
1291 5 1043 181 213
1292 5 189 181 213
1293 4 177 183 185
1294 5 177 183 215
1295 5 185 183 215
1296 4 169 185 183
1297 6 169 185 186
1298 6 183 185 186
1299 7 149 186 163
1300 8 149 186 185
1301 8 163 186 185
1302 4 171 189 181
1303 6 171 189 190
1304 6 181 189 190
1305 7 151 190 161
1306 8 151 190 189
1307 8 161 190 189
1308 4 174 195 108
1309 6 174 195 124
1310 6 108 195 124
1311 7 226 196 160
1312 8 226 196 267
1313 8 160 196 267
1314 4 104 199 178
1315 6 104 199 200
1316 6 178 199 200
1317 7 84 200 158
1318 8 84 200 199
1319 8 158 200 199
1320 3 217 165 146
1321 1 221 217 226
1322 1 221 217 230
1323 1 221 217 233
1324 1 221 217 165
1325 1 221 217 240
1326 1 226 217 230
1327 1 226 217 233
1328 1 226 217 165
1329 1 226 217 240
1330 1 230 217 233
1331 1 230 217 165
1332 1 230 217 240
1333 1 233 217 165
1334 1 233 217 240
1335 1 165 217 240
1336 1 223 218 228
1337 1 223 218 232
1338 1 223 218 235
1339 1 223 218 237
1340 1 223 218 240
1341 1 228 218 232
1342 1 228 218 235
1343 1 228 218 237
1344 1 228 218 240
1345 1 232 218 235
1346 1 232 218 237
1347 1 232 218 240
1348 1 235 218 237
1349 1 235 218 240
1350 1 237 218 240
1351 2 217 221 258
1352 2 218 223 262
1353 2 217 226 196
1354 2 218 228 344
1355 2 217 230 272
1356 2 218 232 268
1357 2 217 233 262
1358 2 218 235 258
1359 3 289 237 218
1360 3 217 240 218
1361 4 247 241 257
1362 5 247 241 273
1363 5 257 241 273
1364 4 1109 243 261
1365 5 1109 243 275
1366 5 261 243 275
1367 4 676 246 267
1368 5 676 246 278
1369 5 267 246 278
1370 4 1538 248 343
1371 5 1538 248 280
1372 5 343 248 280
1373 4 1552 250 271
1374 5 1552 250 282
1375 5 271 250 282
1376 4 686 252 339
1377 5 686 252 284
1378 5 339 252 284
1379 4 1115 253 261
1380 5 1115 253 285
1381 5 261 253 285
1382 4 249 255 257
1383 5 249 255 287
1384 5 257 255 287
1385 4 241 257 255
1386 6 241 257 258
1387 6 255 257 258
1388 7 221 258 235
1389 8 221 258 257
1390 8 235 258 257
1391 4 243 261 253
1392 6 243 261 262
1393 6 253 261 262
1394 7 223 262 233
1395 8 223 262 261
1396 8 233 262 261
1397 7 298 268 232
1398 8 298 268 339
1399 8 232 268 339
1400 4 176 271 250
1401 6 176 271 272
1402 6 250 271 272
1403 7 156 272 230
1404 8 156 272 271
1405 8 230 272 271
1406 1 293 289 298
1407 1 293 289 302
1408 1 293 289 305
1409 1 293 289 237
1410 1 293 289 312
1411 1 298 289 302
1412 1 298 289 305
1413 1 298 289 237
1414 1 298 289 312
1415 1 302 289 305
1416 1 302 289 237
1417 1 302 289 312
1418 1 305 289 237
1419 1 305 289 312
1420 1 237 289 312
1421 2 289 293 330
1422 2 289 298 268
1423 2 289 302 344
1424 2 289 305 334
1425 4 319 313 329
1426 5 319 313 345
1427 5 329 313 345
1428 4 748 318 339
1429 5 748 318 350
1430 5 339 318 350
1431 4 1624 322 343
1432 5 1624 322 354
1433 5 343 322 354
1434 4 1187 325 333
1435 5 1187 325 357
1436 5 333 325 357
1437 4 313 329 327
1438 6 313 329 330
1439 6 327 329 330
1440 7 293 330 307
1441 8 293 330 329
1442 8 307 330 329
1443 4 318 339 252
1444 6 318 339 268
1445 6 252 339 268
1446 4 248 343 322
1447 6 248 343 344
1448 6 322 343 344
1449 7 228 344 302
1450 8 228 344 343
1451 8 302 344 343
1452 3 289 312 290
1453 4 30 51 396
1454 6 30 51 412
1455 6 396 51 412
1456 1 295 290 300
1457 1 295 290 304
1458 1 295 290 307
1459 1 295 290 309
1460 1 295 290 312
1461 1 300 290 304
1462 1 300 290 307
1463 1 300 290 309
1464 1 300 290 312
1465 1 304 290 307
1466 1 304 290 309
1467 1 304 290 312
1468 1 307 290 309
1469 1 307 290 312
1470 1 309 290 312
1471 2 290 295 334
1472 2 290 300 416
1473 2 290 304 340
1474 2 290 307 330
1475 3 361 309 290
1476 4 1181 315 333
1477 5 1181 315 347
1478 5 333 315 347
1479 4 1610 320 415
1480 5 1610 320 352
1481 5 415 320 352
1482 4 758 324 411
1483 5 758 324 356
1484 5 411 324 356
1485 4 321 327 329
1486 5 321 327 359
1487 5 329 327 359
1488 4 315 333 325
1489 6 315 333 334
1490 6 325 333 334
1491 7 295 334 305
1492 8 295 334 333
1493 8 305 334 333
1494 7 370 340 304
1495 8 370 340 411
1496 8 304 340 411
1497 1 365 361 370
1498 1 365 361 374
1499 1 365 361 377
1500 1 365 361 309
1501 1 365 361 384
1502 1 370 361 374
1503 1 370 361 377
1504 1 370 361 309
1505 1 370 361 384
1506 1 374 361 377
1507 1 374 361 309
1508 1 374 361 384
1509 1 377 361 309
1510 1 377 361 384
1511 1 309 361 384
1512 1 367 362 372
1513 1 367 362 376
1514 1 367 362 379
1515 1 367 362 381
1516 1 367 362 384
1517 1 372 362 376
1518 1 372 362 379
1519 1 372 362 381
1520 1 372 362 384
1521 1 376 362 379
1522 1 376 362 381
1523 1 376 362 384
1524 1 379 362 381
1525 1 379 362 384
1526 1 381 362 384
1527 2 361 365 402
1528 2 362 367 406
1529 2 361 370 340
1530 2 362 372 56
1531 2 361 374 416
1532 2 362 376 412
1533 2 361 377 406
1534 2 362 379 402
1535 3 361 384 362
1536 4 391 385 401
1537 5 391 385 417
1538 5 401 385 417
1539 4 1253 387 405
1540 5 1253 387 419
1541 5 405 387 419
1542 4 820 390 411
1543 5 820 390 422
1544 5 411 390 422
1545 4 1682 392 55
1546 5 1682 392 424
1547 5 55 392 424
1548 4 1696 394 415
1549 5 1696 394 426
1550 5 415 394 426
1551 4 830 396 51
1552 5 830 396 428
1553 5 51 396 428
1554 4 1259 397 405
1555 5 1259 397 429
1556 5 405 397 429
1557 4 393 399 401
1558 5 393 399 431
1559 5 401 399 431
1560 4 385 401 399
1561 6 385 401 402
1562 6 399 401 402
1563 7 365 402 379
1564 8 365 402 401
1565 8 379 402 401
1566 4 387 405 397
1567 6 387 405 406
1568 6 397 405 406
1569 7 367 406 377
1570 8 367 406 405
1571 8 377 406 405
1572 4 390 411 324
1573 6 390 411 340
1574 6 324 411 340
1575 7 10 412 376
1576 8 10 412 51
1577 8 376 412 51
1578 4 320 415 394
1579 6 320 415 416
1580 6 394 415 416
1581 7 300 416 374
1582 8 300 416 415
1583 8 374 416 415
1584 3 1 381 362
1585 1 437 433 442
1586 1 437 433 446
1587 1 437 433 449
1588 1 437 433 813
1589 1 437 433 456
1590 1 442 433 446
1591 1 442 433 449
1592 1 442 433 813
1593 1 442 433 456
1594 1 446 433 449
1595 1 446 433 813
1596 1 446 433 456
1597 1 449 433 813
1598 1 449 433 456
1599 1 813 433 456
1600 1 439 434 444
1601 1 439 434 448
1602 1 439 434 451
1603 1 439 434 453
1604 1 439 434 456
1605 1 444 434 448
1606 1 444 434 451
1607 1 444 434 453
1608 1 444 434 456
1609 1 448 434 451
1610 1 448 434 453
1611 1 448 434 456
1612 1 451 434 453
1613 1 451 434 456
1614 1 453 434 456
1615 2 433 437 474
1616 2 434 439 478
1617 2 433 442 844
1618 2 434 444 560
1619 2 433 446 488
1620 2 434 448 484
1621 2 433 449 478
1622 2 434 451 474
1623 3 505 453 434
1624 3 433 456 434
1625 4 463 457 473
1626 5 463 457 489
1627 5 473 457 489
1628 4 1325 459 477
1629 5 1325 459 491
1630 5 477 459 491
1631 4 28 462 483
1632 5 28 462 494
1633 5 483 462 494
1634 4 890 464 559
1635 5 890 464 496
1636 5 559 464 496
1637 4 904 466 487
1638 5 904 466 498
1639 5 487 466 498
1640 4 38 468 555
1641 5 38 468 500
1642 5 555 468 500
1643 4 1331 469 477
1644 5 1331 469 501
1645 5 477 469 501
1646 4 465 471 473
1647 5 465 471 503
1648 5 473 471 503
1649 4 457 473 471
1650 6 457 473 474
1651 6 471 473 474
1652 7 437 474 451
1653 8 437 474 473
1654 8 451 474 473
1655 4 459 477 469
1656 6 459 477 478
1657 6 469 477 478
1658 7 439 478 449
1659 8 439 478 477
1660 8 449 478 477
1661 7 514 484 448
1662 8 514 484 555
1663 8 448 484 555
1664 4 824 487 466
1665 6 824 487 488
1666 6 466 487 488
1667 7 804 488 446
1668 8 804 488 487
1669 8 446 488 487
1670 1 509 505 514
1671 1 509 505 518
1672 1 509 505 521
1673 1 509 505 453
1674 1 509 505 528
1675 1 514 505 518
1676 1 514 505 521
1677 1 514 505 453
1678 1 514 505 528
1679 1 518 505 521
1680 1 518 505 453
1681 1 518 505 528
1682 1 521 505 453
1683 1 521 505 528
1684 1 453 505 528
1685 2 505 509 546
1686 2 505 514 484
1687 2 505 518 560
1688 2 505 521 550
1689 4 535 529 545
1690 5 535 529 561
1691 5 545 529 561
1692 4 100 534 555
1693 5 100 534 566
1694 5 555 534 566
1695 4 976 538 559
1696 5 976 538 570
1697 5 559 538 570
1698 4 1403 541 549
1699 5 1403 541 573
1700 5 549 541 573
1701 4 529 545 543
1702 6 529 545 546
1703 6 543 545 546
1704 7 509 546 523
1705 8 509 546 545
1706 8 523 546 545
1707 4 534 555 468
1708 6 534 555 484
1709 6 468 555 484
1710 4 464 559 538
1711 6 464 559 560
1712 6 538 559 560
1713 7 444 560 518
1714 8 444 560 559
1715 8 518 560 559
1716 3 505 528 506
1717 1 511 506 516
1718 1 511 506 520
1719 1 511 506 523
1720 1 511 506 525
1721 1 511 506 528
1722 1 516 506 520
1723 1 516 506 523
1724 1 516 506 525
1725 1 516 506 528
1726 1 520 506 523
1727 1 520 506 525
1728 1 520 506 528
1729 1 523 506 525
1730 1 523 506 528
1731 1 525 506 528
1732 2 506 511 550
1733 2 506 516 632
1734 2 506 520 556
1735 2 506 523 546
1736 3 577 525 506
1737 4 678 699 612
1738 6 678 699 628
1739 6 612 699 628
1740 4 1397 531 549
1741 5 1397 531 563
1742 5 549 531 563
1743 4 962 536 631
1744 5 962 536 568
1745 5 631 536 568
1746 4 110 540 627
1747 5 110 540 572
1748 5 627 540 572
1749 4 537 543 545
1750 5 537 543 575
1751 5 545 543 575
1752 4 531 549 541
1753 6 531 549 550
1754 6 541 549 550
1755 7 511 550 521
1756 8 511 550 549
1757 8 521 550 549
1758 7 586 556 520
1759 8 586 556 627
1760 8 520 556 627
1761 1 581 577 586
1762 1 581 577 590
1763 1 581 577 593
1764 1 581 577 525
1765 1 581 577 600
1766 1 586 577 590
1767 1 586 577 593
1768 1 586 577 525
1769 1 586 577 600
1770 1 590 577 593
1771 1 590 577 525
1772 1 590 577 600
1773 1 593 577 525
1774 1 593 577 600
1775 1 525 577 600
1776 1 583 578 588
1777 1 583 578 592
1778 1 583 578 595
1779 1 583 578 597
1780 1 583 578 600
1781 1 588 578 592
1782 1 588 578 595
1783 1 588 578 597
1784 1 588 578 600
1785 1 592 578 595
1786 1 592 578 597
1787 1 592 578 600
1788 1 595 578 597
1789 1 595 578 600
1790 1 597 578 600
1791 2 577 581 618
1792 2 578 583 622
1793 2 577 586 556
1794 2 578 588 704
1795 2 577 590 632
1796 2 578 592 628
1797 2 577 593 622
1798 2 578 595 618
1799 3 577 600 578
1800 4 607 601 617
1801 5 607 601 633
1802 5 617 601 633
1803 4 1469 603 621
1804 5 1469 603 635
1805 5 621 603 635
1806 4 172 606 627
1807 5 172 606 638
1808 5 627 606 638
1809 4 1034 608 703
1810 5 1034 608 640
1811 5 703 608 640
1812 4 1048 610 631
1813 5 1048 610 642
1814 5 631 610 642
1815 4 182 612 699
1816 5 182 612 644
1817 5 699 612 644
1818 4 1475 613 621
1819 5 1475 613 645
1820 5 621 613 645
1821 4 609 615 617
1822 5 609 615 647
1823 5 617 615 647
1824 4 601 617 615
1825 6 601 617 618
1826 6 615 617 618
1827 7 581 618 595
1828 8 581 618 617
1829 8 595 618 617
1830 4 603 621 613
1831 6 603 621 622
1832 6 613 621 622
1833 7 583 622 593
1834 8 583 622 621
1835 8 593 622 621
1836 4 606 627 540
1837 6 606 627 556
1838 6 540 627 556
1839 7 658 628 592
1840 8 658 628 699
1841 8 592 628 699
1842 4 536 631 610
1843 6 536 631 632
1844 6 610 631 632
1845 7 516 632 590
1846 8 516 632 631
1847 8 590 632 631
1848 3 649 597 578
1849 1 653 649 658
1850 1 653 649 662
1851 1 653 649 665
1852 1 653 649 597
1853 1 653 649 672
1854 1 658 649 662
1855 1 658 649 665
1856 1 658 649 597
1857 1 658 649 672
1858 1 662 649 665
1859 1 662 649 597
1860 1 662 649 672
1861 1 665 649 597
1862 1 665 649 672
1863 1 597 649 672
1864 1 655 650 660
1865 1 655 650 664
1866 1 655 650 667
1867 1 655 650 669
1868 1 655 650 672
1869 1 660 650 664
1870 1 660 650 667
1871 1 660 650 669
1872 1 660 650 672
1873 1 664 650 667
1874 1 664 650 669
1875 1 664 650 672
1876 1 667 650 669
1877 1 667 650 672
1878 1 669 650 672
1879 2 649 653 690
1880 2 650 655 694
1881 2 649 658 628
1882 2 650 660 776
1883 2 649 662 704
1884 2 650 664 700
1885 2 649 665 694
1886 2 650 667 690
1887 3 721 669 650
1888 3 649 672 650
1889 4 679 673 689
1890 5 679 673 705
1891 5 689 673 705
1892 4 1541 675 693
1893 5 1541 675 707
1894 5 693 675 707
1895 4 244 678 699
1896 5 244 678 710
1897 5 699 678 710
1898 4 1106 680 775
1899 5 1106 680 712
1900 5 775 680 712
1901 4 1120 682 703
1902 5 1120 682 714
1903 5 703 682 714
1904 4 254 684 771
1905 5 254 684 716
1906 5 771 684 716
1907 4 1547 685 693
1908 5 1547 685 717
1909 5 693 685 717
1910 4 681 687 689
1911 5 681 687 719
1912 5 689 687 719
1913 4 673 689 687
1914 6 673 689 690
1915 6 687 689 690
1916 7 653 690 667
1917 8 653 690 689
1918 8 667 690 689
1919 4 675 693 685
1920 6 675 693 694
1921 6 685 693 694
1922 7 655 694 665
1923 8 655 694 693
1924 8 665 694 693
1925 7 730 700 664
1926 8 730 700 771
1927 8 664 700 771
1928 4 608 703 682
1929 6 608 703 704
1930 6 682 703 704
1931 7 588 704 662
1932 8 588 704 703
1933 8 662 704 703
1934 1 725 721 730
1935 1 725 721 734
1936 1 725 721 737
1937 1 725 721 669
1938 1 725 721 744
1939 1 730 721 734
1940 1 730 721 737
1941 1 730 721 669
1942 1 730 721 744
1943 1 734 721 737
1944 1 734 721 669
1945 1 734 721 744
1946 1 737 721 669
1947 1 737 721 744
1948 1 669 721 744
1949 2 721 725 762
1950 2 721 730 700
1951 2 721 734 776
1952 2 721 737 766
1953 4 751 745 761
1954 5 751 745 777
1955 5 761 745 777
1956 4 316 750 771
1957 5 316 750 782
1958 5 771 750 782
1959 4 1192 754 775
1960 5 1192 754 786
1961 5 775 754 786
1962 4 1619 757 765
1963 5 1619 757 789
1964 5 765 757 789
1965 4 745 761 759
1966 6 745 761 762
1967 6 759 761 762
1968 7 725 762 739
1969 8 725 762 761
1970 8 739 762 761
1971 4 750 771 684
1972 6 750 771 700
1973 6 684 771 700
1974 4 680 775 754
1975 6 680 775 776
1976 6 754 775 776
1977 7 660 776 734
1978 8 660 776 775
1979 8 734 776 775
1980 3 721 744 722
1981 4 462 483 828
1982 6 462 483 844
1983 6 828 483 844
1984 1 727 722 732
1985 1 727 722 736
1986 1 727 722 739
1987 1 727 722 741
1988 1 727 722 744
1989 1 732 722 736
1990 1 732 722 739
1991 1 732 722 741
1992 1 732 722 744
1993 1 736 722 739
1994 1 736 722 741
1995 1 736 722 744
1996 1 739 722 741
1997 1 739 722 744
1998 1 741 722 744
1999 2 722 727 766
2000 2 722 732 848
2001 2 722 736 772
2002 2 722 739 762
2003 3 793 741 722
2004 4 1613 747 765
2005 5 1613 747 779
2006 5 765 747 779
2007 4 1178 752 847
2008 5 1178 752 784
2009 5 847 752 784
2010 4 326 756 843
2011 5 326 756 788
2012 5 843 756 788
2013 4 753 759 761
2014 5 753 759 791
2015 5 761 759 791
2016 4 747 765 757
2017 6 747 765 766
2018 6 757 765 766
2019 7 727 766 737
2020 8 727 766 765
2021 8 737 766 765
2022 7 802 772 736
2023 8 802 772 843
2024 8 736 772 843
2025 1 797 793 802
2026 1 797 793 806
2027 1 797 793 809
2028 1 797 793 741
2029 1 797 793 816
2030 1 802 793 806
2031 1 802 793 809
2032 1 802 793 741
2033 1 802 793 816
2034 1 806 793 809
2035 1 806 793 741
2036 1 806 793 816
2037 1 809 793 741
2038 1 809 793 816
2039 1 741 793 816
2040 1 799 794 804
2041 1 799 794 808
2042 1 799 794 811
2043 1 799 794 813
2044 1 799 794 816
2045 1 804 794 808
2046 1 804 794 811
2047 1 804 794 813
2048 1 804 794 816
2049 1 808 794 811
2050 1 808 794 813
2051 1 808 794 816
2052 1 811 794 813
2053 1 811 794 816
2054 1 813 794 816
2055 2 793 797 834
2056 2 794 799 838
2057 2 793 802 772
2058 2 794 804 488
2059 2 793 806 848
2060 2 794 808 844
2061 2 793 809 838
2062 2 794 811 834
2063 3 793 816 794
2064 4 823 817 833
2065 5 823 817 849
2066 5 833 817 849
2067 4 1685 819 837
2068 5 1685 819 851
2069 5 837 819 851
2070 4 388 822 843
2071 5 388 822 854
2072 5 843 822 854
2073 4 1250 824 487
2074 5 1250 824 856
2075 5 487 824 856
2076 4 1264 826 847
2077 5 1264 826 858
2078 5 847 826 858
2079 4 398 828 483
2080 5 398 828 860
2081 5 483 828 860
2082 4 1691 829 837
2083 5 1691 829 861
2084 5 837 829 861
2085 4 825 831 833
2086 5 825 831 863
2087 5 833 831 863
2088 4 817 833 831
2089 6 817 833 834
2090 6 831 833 834
2091 7 797 834 811
2092 8 797 834 833
2093 8 811 834 833
2094 4 819 837 829
2095 6 819 837 838
2096 6 829 837 838
2097 7 799 838 809
2098 8 799 838 837
2099 8 809 838 837
2100 4 822 843 756
2101 6 822 843 772
2102 6 756 843 772
2103 7 442 844 808
2104 8 442 844 483
2105 8 808 844 483
2106 4 752 847 826
2107 6 752 847 848
2108 6 826 847 848
2109 7 732 848 806
2110 8 732 848 847
2111 8 806 848 847
2112 3 433 813 794
2113 1 872 867 875
2114 1 872 867 879
2115 1 872 867 884
2116 1 872 867 886
2117 1 872 867 1247
2118 1 875 867 879
2119 1 875 867 884
2120 1 875 867 886
2121 1 875 867 1247
2122 1 879 867 884
2123 1 879 867 886
2124 1 879 867 1247
2125 1 884 867 886
2126 1 884 867 1247
2127 1 886 867 1247
2128 1 870 868 873
2129 1 870 868 877
2130 1 870 868 882
2131 1 870 868 886
2132 1 870 868 887
2133 1 873 868 877
2134 1 873 868 882
2135 1 873 868 886
2136 1 873 868 887
2137 1 877 868 882
2138 1 877 868 886
2139 1 877 868 887
2140 1 882 868 886
2141 1 882 868 887
2142 1 886 868 887
2143 2 868 870 908
2144 2 867 872 912
2145 2 868 873 914
2146 2 867 875 918
2147 2 868 877 918
2148 2 867 879 914
2149 2 868 882 984
2150 2 867 884 1268
2151 3 867 886 868
2152 3 939 887 868
2153 4 464 890 979
2154 5 464 890 922
2155 5 979 890 922
2156 4 1326 892 911
2157 5 1326 892 924
2158 5 911 892 924
2159 4 27 893 913
2160 5 27 893 925
2161 5 913 893 925
2162 4 889 895 917
2163 5 889 895 927
2164 5 917 895 927
2165 4 903 897 917
2166 5 903 897 929
2167 5 917 897 929
2168 4 37 899 913
2169 5 37 899 931
2170 5 913 899 931
2171 4 1332 902 983
2172 5 1332 902 934
2173 5 983 902 934
2174 4 466 904 907
2175 5 466 904 936
2176 5 907 904 936
2177 7 870 908 956
2178 8 870 908 979
2179 8 956 908 979
2180 4 892 911 1262
2181 6 892 911 912
2182 6 1262 911 912
2183 7 872 912 1242
2184 8 872 912 911
2185 8 1242 912 911
2186 4 893 913 899
2187 6 893 913 914
2188 6 899 913 914
2189 7 873 914 879
2190 8 873 914 913
2191 8 879 914 913
2192 4 895 917 897
2193 6 895 917 918
2194 6 897 917 918
2195 7 875 918 877
2196 8 875 918 917
2197 8 877 918 917
2198 1 944 939 947
2199 1 944 939 951
2200 1 944 939 956
2201 1 944 939 958
2202 1 944 939 887
2203 1 947 939 951
2204 1 947 939 956
2205 1 947 939 958
2206 1 947 939 887
2207 1 951 939 956
2208 1 951 939 958
2209 1 951 939 887
2210 1 956 939 958
2211 1 956 939 887
2212 1 958 939 887
2213 2 939 944 984
2214 2 939 947 990
2215 2 939 951 986
2216 2 939 956 908
2217 4 1398 964 983
2218 5 1398 964 996
2219 5 983 964 996
2220 4 961 967 989
2221 5 961 967 999
2222 5 989 967 999
2223 4 109 971 985
2224 5 109 971 1003
2225 5 985 971 1003
2226 4 538 976 979
2227 5 538 976 1008
2228 5 979 976 1008
2229 4 890 979 976
2230 6 890 979 908
2231 6 976 979 908
2232 4 964 983 902
2233 6 964 983 984
2234 6 902 983 984
2235 7 944 984 882
2236 8 944 984 983
2237 8 882 984 983
2238 4 965 985 971
2239 6 965 985 986
2240 6 971 985 986
2241 7 945 986 951
2242 8 945 986 985
2243 8 951 986 985
2244 3 939 958 940
2245 1 942 940 945
2246 1 942 940 949
2247 1 942 940 954
2248 1 942 940 958
2249 1 942 940 959
2250 1 945 940 949
2251 1 945 940 954
2252 1 945 940 958
2253 1 945 940 959
2254 1 949 940 954
2255 1 949 940 958
2256 1 949 940 959
2257 1 954 940 958
2258 1 954 940 959
2259 1 958 940 959
2260 2 940 942 980
2261 2 940 945 986
2262 2 940 949 990
2263 2 940 954 1056
2264 4 1034 1123 1120
2265 6 1034 1123 1052
2266 6 1120 1123 1052
2267 3 1011 959 940
2268 4 536 962 1051
2269 5 536 962 994
2270 5 1051 962 994
2271 4 99 965 985
2272 5 99 965 997
2273 5 985 965 997
2274 4 975 969 989
2275 5 975 969 1001
2276 5 989 969 1001
2277 4 1404 974 1055
2278 5 1404 974 1006
2279 5 1055 974 1006
2280 7 942 980 1028
2281 8 942 980 1051
2282 8 1028 980 1051
2283 4 967 989 969
2284 6 967 989 990
2285 6 969 989 990
2286 7 947 990 949
2287 8 947 990 989
2288 8 949 990 989
2289 1 1016 1011 1019
2290 1 1016 1011 1023
2291 1 1016 1011 1028
2292 1 1016 1011 1030
2293 1 1016 1011 959
2294 1 1019 1011 1023
2295 1 1019 1011 1028
2296 1 1019 1011 1030
2297 1 1019 1011 959
2298 1 1023 1011 1028
2299 1 1023 1011 1030
2300 1 1023 1011 959
2301 1 1028 1011 1030
2302 1 1028 1011 959
2303 1 1030 1011 959
2304 1 1014 1012 1017
2305 1 1014 1012 1021
2306 1 1014 1012 1026
2307 1 1014 1012 1030
2308 1 1014 1012 1031
2309 1 1017 1012 1021
2310 1 1017 1012 1026
2311 1 1017 1012 1030
2312 1 1017 1012 1031
2313 1 1021 1012 1026
2314 1 1021 1012 1030
2315 1 1021 1012 1031
2316 1 1026 1012 1030
2317 1 1026 1012 1031
2318 1 1030 1012 1031
2319 2 1012 1014 1052
2320 2 1011 1016 1056
2321 2 1012 1017 1058
2322 2 1011 1019 1062
2323 2 1012 1021 1062
2324 2 1011 1023 1058
2325 2 1012 1026 1128
2326 2 1011 1028 980
2327 3 1011 1030 1012
2328 4 608 1034 1123
2329 5 608 1034 1066
2330 5 1123 1034 1066
2331 4 1470 1036 1055
2332 5 1470 1036 1068
2333 5 1055 1036 1068
2334 4 171 1037 1057
2335 5 171 1037 1069
2336 5 1057 1037 1069
2337 4 1033 1039 1061
2338 5 1033 1039 1071
2339 5 1061 1039 1071
2340 4 1047 1041 1061
2341 5 1047 1041 1073
2342 5 1061 1041 1073
2343 4 181 1043 1057
2344 5 181 1043 1075
2345 5 1057 1043 1075
2346 4 1476 1046 1127
2347 5 1476 1046 1078
2348 5 1127 1046 1078
2349 4 610 1048 1051
2350 5 610 1048 1080
2351 5 1051 1048 1080
2352 4 962 1051 1048
2353 6 962 1051 980
2354 6 1048 1051 980
2355 7 1014 1052 1100
2356 8 1014 1052 1123
2357 8 1100 1052 1123
2358 4 1036 1055 974
2359 6 1036 1055 1056
2360 6 974 1055 1056
2361 7 1016 1056 954
2362 8 1016 1056 1055
2363 8 954 1056 1055
2364 4 1037 1057 1043
2365 6 1037 1057 1058
2366 6 1043 1057 1058
2367 7 1017 1058 1023
2368 8 1017 1058 1057
2369 8 1023 1058 1057
2370 4 1039 1061 1041
2371 6 1039 1061 1062
2372 6 1041 1061 1062
2373 7 1019 1062 1021
2374 8 1019 1062 1061
2375 8 1021 1062 1061
2376 3 1083 1031 1012
2377 1 1088 1083 1091
2378 1 1088 1083 1095
2379 1 1088 1083 1100
2380 1 1088 1083 1102
2381 1 1088 1083 1031
2382 1 1091 1083 1095
2383 1 1091 1083 1100
2384 1 1091 1083 1102
2385 1 1091 1083 1031
2386 1 1095 1083 1100
2387 1 1095 1083 1102
2388 1 1095 1083 1031
2389 1 1100 1083 1102
2390 1 1100 1083 1031
2391 1 1102 1083 1031
2392 1 1086 1084 1089
2393 1 1086 1084 1093
2394 1 1086 1084 1098
2395 1 1086 1084 1102
2396 1 1086 1084 1103
2397 1 1089 1084 1093
2398 1 1089 1084 1098
2399 1 1089 1084 1102
2400 1 1089 1084 1103
2401 1 1093 1084 1098
2402 1 1093 1084 1102
2403 1 1093 1084 1103
2404 1 1098 1084 1102
2405 1 1098 1084 1103
2406 1 1102 1084 1103
2407 2 1084 1086 1124
2408 2 1083 1088 1128
2409 2 1084 1089 1130
2410 2 1083 1091 1134
2411 2 1084 1093 1134
2412 2 1083 1095 1130
2413 2 1084 1098 1200
2414 2 1083 1100 1052
2415 3 1083 1102 1084
2416 3 1155 1103 1084
2417 4 680 1106 1195
2418 5 680 1106 1138
2419 5 1195 1106 1138
2420 4 1542 1108 1127
2421 5 1542 1108 1140
2422 5 1127 1108 1140
2423 4 243 1109 1129
2424 5 243 1109 1141
2425 5 1129 1109 1141
2426 4 1105 1111 1133
2427 5 1105 1111 1143
2428 5 1133 1111 1143
2429 4 1119 1113 1133
2430 5 1119 1113 1145
2431 5 1133 1113 1145
2432 4 253 1115 1129
2433 5 253 1115 1147
2434 5 1129 1115 1147
2435 4 1548 1118 1199
2436 5 1548 1118 1150
2437 5 1199 1118 1150
2438 4 682 1120 1123
2439 5 682 1120 1152
2440 5 1123 1120 1152
2441 7 1086 1124 1172
2442 8 1086 1124 1195
2443 8 1172 1124 1195
2444 4 1108 1127 1046
2445 6 1108 1127 1128
2446 6 1046 1127 1128
2447 7 1088 1128 1026
2448 8 1088 1128 1127
2449 8 1026 1128 1127
2450 4 1109 1129 1115
2451 6 1109 1129 1130
2452 6 1115 1129 1130
2453 7 1089 1130 1095
2454 8 1089 1130 1129
2455 8 1095 1130 1129
2456 4 1111 1133 1113
2457 6 1111 1133 1134
2458 6 1113 1133 1134
2459 7 1091 1134 1093
2460 8 1091 1134 1133
2461 8 1093 1134 1133
2462 1 1160 1155 1163
2463 1 1160 1155 1167
2464 1 1160 1155 1172
2465 1 1160 1155 1174
2466 1 1160 1155 1103
2467 1 1163 1155 1167
2468 1 1163 1155 1172
2469 1 1163 1155 1174
2470 1 1163 1155 1103
2471 1 1167 1155 1172
2472 1 1167 1155 1174
2473 1 1167 1155 1103
2474 1 1172 1155 1174
2475 1 1172 1155 1103
2476 1 1174 1155 1103
2477 2 1155 1160 1200
2478 2 1155 1163 1206
2479 2 1155 1167 1202
2480 2 1155 1172 1124
2481 4 1614 1180 1199
2482 5 1614 1180 1212
2483 5 1199 1180 1212
2484 4 1177 1183 1205
2485 5 1177 1183 1215
2486 5 1205 1183 1215
2487 4 325 1187 1201
2488 5 325 1187 1219
2489 5 1201 1187 1219
2490 4 754 1192 1195
2491 5 754 1192 1224
2492 5 1195 1192 1224
2493 4 1106 1195 1192
2494 6 1106 1195 1124
2495 6 1192 1195 1124
2496 4 1180 1199 1118
2497 6 1180 1199 1200
2498 6 1118 1199 1200
2499 7 1160 1200 1098
2500 8 1160 1200 1199
2501 8 1098 1200 1199
2502 4 1181 1201 1187
2503 6 1181 1201 1202
2504 6 1187 1201 1202
2505 7 1161 1202 1167
2506 8 1161 1202 1201
2507 8 1167 1202 1201
2508 3 1155 1174 1156
2509 4 1250 907 904
2510 6 1250 907 1268
2511 6 904 907 1268
2512 1 1158 1156 1161
2513 1 1158 1156 1165
2514 1 1158 1156 1170
2515 1 1158 1156 1174
2516 1 1158 1156 1175
2517 1 1161 1156 1165
2518 1 1161 1156 1170
2519 1 1161 1156 1174
2520 1 1161 1156 1175
2521 1 1165 1156 1170
2522 1 1165 1156 1174
2523 1 1165 1156 1175
2524 1 1170 1156 1174
2525 1 1170 1156 1175
2526 1 1174 1156 1175
2527 2 1156 1158 1196
2528 2 1156 1161 1202
2529 2 1156 1165 1206
2530 2 1156 1170 1272
2531 3 1227 1175 1156
2532 4 752 1178 1267
2533 5 752 1178 1210
2534 5 1267 1178 1210
2535 4 315 1181 1201
2536 5 315 1181 1213
2537 5 1201 1181 1213
2538 4 1191 1185 1205
2539 5 1191 1185 1217
2540 5 1205 1185 1217
2541 4 1620 1190 1271
2542 5 1620 1190 1222
2543 5 1271 1190 1222
2544 7 1158 1196 1244
2545 8 1158 1196 1267
2546 8 1244 1196 1267
2547 4 1183 1205 1185
2548 6 1183 1205 1206
2549 6 1185 1205 1206
2550 7 1163 1206 1165
2551 8 1163 1206 1205
2552 8 1165 1206 1205
2553 1 1232 1227 1235
2554 1 1232 1227 1239
2555 1 1232 1227 1244
2556 1 1232 1227 1246
2557 1 1232 1227 1175
2558 1 1235 1227 1239
2559 1 1235 1227 1244
2560 1 1235 1227 1246
2561 1 1235 1227 1175
2562 1 1239 1227 1244
2563 1 1239 1227 1246
2564 1 1239 1227 1175
2565 1 1244 1227 1246
2566 1 1244 1227 1175
2567 1 1246 1227 1175
2568 1 1230 1228 1233
2569 1 1230 1228 1237
2570 1 1230 1228 1242
2571 1 1230 1228 1246
2572 1 1230 1228 1247
2573 1 1233 1228 1237
2574 1 1233 1228 1242
2575 1 1233 1228 1246
2576 1 1233 1228 1247
2577 1 1237 1228 1242
2578 1 1237 1228 1246
2579 1 1237 1228 1247
2580 1 1242 1228 1246
2581 1 1242 1228 1247
2582 1 1246 1228 1247
2583 2 1228 1230 1268
2584 2 1227 1232 1272
2585 2 1228 1233 1274
2586 2 1227 1235 1278
2587 2 1228 1237 1278
2588 2 1227 1239 1274
2589 2 1228 1242 912
2590 2 1227 1244 1196
2591 3 1227 1246 1228
2592 4 824 1250 907
2593 5 824 1250 1282
2594 5 907 1250 1282
2595 4 1686 1252 1271
2596 5 1686 1252 1284
2597 5 1271 1252 1284
2598 4 387 1253 1273
2599 5 387 1253 1285
2600 5 1273 1253 1285
2601 4 1249 1255 1277
2602 5 1249 1255 1287
2603 5 1277 1255 1287
2604 4 1263 1257 1277
2605 5 1263 1257 1289
2606 5 1277 1257 1289
2607 4 397 1259 1273
2608 5 397 1259 1291
2609 5 1273 1259 1291
2610 4 1692 1262 911
2611 5 1692 1262 1294
2612 5 911 1262 1294
2613 4 826 1264 1267
2614 5 826 1264 1296
2615 5 1267 1264 1296
2616 4 1178 1267 1264
2617 6 1178 1267 1196
2618 6 1264 1267 1196
2619 7 1230 1268 884
2620 8 1230 1268 907
2621 8 884 1268 907
2622 4 1252 1271 1190
2623 6 1252 1271 1272
2624 6 1190 1271 1272
2625 7 1232 1272 1170
2626 8 1232 1272 1271
2627 8 1170 1272 1271
2628 4 1253 1273 1259
2629 6 1253 1273 1274
2630 6 1259 1273 1274
2631 7 1233 1274 1239
2632 8 1233 1274 1273
2633 8 1239 1274 1273
2634 4 1255 1277 1257
2635 6 1255 1277 1278
2636 6 1257 1277 1278
2637 7 1235 1278 1237
2638 8 1235 1278 1277
2639 8 1237 1278 1277
2640 3 867 1247 1228
2641 1 1304 1299 1307
2642 1 1304 1299 1311
2643 1 1304 1299 1316
2644 1 1304 1299 1318
2645 1 1304 1299 1679
2646 1 1307 1299 1311
2647 1 1307 1299 1316
2648 1 1307 1299 1318
2649 1 1307 1299 1679
2650 1 1311 1299 1316
2651 1 1311 1299 1318
2652 1 1311 1299 1679
2653 1 1316 1299 1318
2654 1 1316 1299 1679
2655 1 1318 1299 1679
2656 1 1302 1300 1305
2657 1 1302 1300 1309
2658 1 1302 1300 1314
2659 1 1302 1300 1318
2660 1 1302 1300 1319
2661 1 1305 1300 1309
2662 1 1305 1300 1314
2663 1 1305 1300 1318
2664 1 1305 1300 1319
2665 1 1309 1300 1314
2666 1 1309 1300 1318
2667 1 1309 1300 1319
2668 1 1314 1300 1318
2669 1 1314 1300 1319
2670 1 1318 1300 1319
2671 2 1300 1302 1340
2672 2 1299 1304 1344
2673 2 1300 1305 1346
2674 2 1299 1307 1350
2675 2 1300 1309 1350
2676 2 1299 1311 1346
2677 2 1300 1314 1416
2678 2 1299 1316 1700
2679 3 1299 1318 1300
2680 3 1371 1319 1300
2681 4 32 1322 1411
2682 5 32 1322 1354
2683 5 1411 1322 1354
2684 4 894 1324 1343
2685 5 894 1324 1356
2686 5 1343 1324 1356
2687 4 459 1325 1345
2688 5 459 1325 1357
2689 5 1345 1325 1357
2690 4 1321 1327 1349
2691 5 1321 1327 1359
2692 5 1349 1327 1359
2693 4 1335 1329 1349
2694 5 1335 1329 1361
2695 5 1349 1329 1361
2696 4 469 1331 1345
2697 5 469 1331 1363
2698 5 1345 1331 1363
2699 4 900 1334 1415
2700 5 900 1334 1366
2701 5 1415 1334 1366
2702 4 34 1336 1339
2703 5 34 1336 1368
2704 5 1339 1336 1368
2705 7 1302 1340 1388
2706 8 1302 1340 1411
2707 8 1388 1340 1411
2708 4 1324 1343 1694
2709 6 1324 1343 1344
2710 6 1694 1343 1344
2711 7 1304 1344 1674
2712 8 1304 1344 1343
2713 8 1674 1344 1343
2714 4 1325 1345 1331
2715 6 1325 1345 1346
2716 6 1331 1345 1346
2717 7 1305 1346 1311
2718 8 1305 1346 1345
2719 8 1311 1346 1345
2720 4 1327 1349 1329
2721 6 1327 1349 1350
2722 6 1329 1349 1350
2723 7 1307 1350 1309
2724 8 1307 1350 1349
2725 8 1309 1350 1349
2726 1 1376 1371 1379
2727 1 1376 1371 1383
2728 1 1376 1371 1388
2729 1 1376 1371 1390
2730 1 1376 1371 1319
2731 1 1379 1371 1383
2732 1 1379 1371 1388
2733 1 1379 1371 1390
2734 1 1379 1371 1319
2735 1 1383 1371 1388
2736 1 1383 1371 1390
2737 1 1383 1371 1319
2738 1 1388 1371 1390
2739 1 1388 1371 1319
2740 1 1390 1371 1319
2741 2 1371 1376 1416
2742 2 1371 1379 1422
2743 2 1371 1383 1418
2744 2 1371 1388 1340
2745 4 966 1396 1415
2746 5 966 1396 1428
2747 5 1415 1396 1428
2748 4 1393 1399 1421
2749 5 1393 1399 1431
2750 5 1421 1399 1431
2751 4 541 1403 1417
2752 5 541 1403 1435
2753 5 1417 1403 1435
2754 4 106 1408 1411
2755 5 106 1408 1440
2756 5 1411 1408 1440
2757 4 1322 1411 1408
2758 6 1322 1411 1340
2759 6 1408 1411 1340
2760 4 1396 1415 1334
2761 6 1396 1415 1416
2762 6 1334 1415 1416
2763 7 1376 1416 1314
2764 8 1376 1416 1415
2765 8 1314 1416 1415
2766 4 1397 1417 1403
2767 6 1397 1417 1418
2768 6 1403 1417 1418
2769 7 1377 1418 1383
2770 8 1377 1418 1417
2771 8 1383 1418 1417
2772 3 1371 1390 1372
2773 1 1374 1372 1377
2774 1 1374 1372 1381
2775 1 1374 1372 1386
2776 1 1374 1372 1390
2777 1 1374 1372 1391
2778 1 1377 1372 1381
2779 1 1377 1372 1386
2780 1 1377 1372 1390
2781 1 1377 1372 1391
2782 1 1381 1372 1386
2783 1 1381 1372 1390
2784 1 1381 1372 1391
2785 1 1386 1372 1390
2786 1 1386 1372 1391
2787 1 1390 1372 1391
2788 2 1372 1374 1412
2789 2 1372 1377 1418
2790 2 1372 1381 1422
2791 2 1372 1386 1488
2792 4 1466 1555 1552
2793 6 1466 1555 1484
2794 6 1552 1555 1484
2795 3 1443 1391 1372
2796 4 104 1394 1483
2797 5 104 1394 1426
2798 5 1483 1394 1426
2799 4 531 1397 1417
2800 5 531 1397 1429
2801 5 1417 1397 1429
2802 4 1407 1401 1421
2803 5 1407 1401 1433
2804 5 1421 1401 1433
2805 4 972 1406 1487
2806 5 972 1406 1438
2807 5 1487 1406 1438
2808 7 1374 1412 1460
2809 8 1374 1412 1483
2810 8 1460 1412 1483
2811 4 1399 1421 1401
2812 6 1399 1421 1422
2813 6 1401 1421 1422
2814 7 1379 1422 1381
2815 8 1379 1422 1421
2816 8 1381 1422 1421
2817 1 1448 1443 1451
2818 1 1448 1443 1455
2819 1 1448 1443 1460
2820 1 1448 1443 1462
2821 1 1448 1443 1391
2822 1 1451 1443 1455
2823 1 1451 1443 1460
2824 1 1451 1443 1462
2825 1 1451 1443 1391
2826 1 1455 1443 1460
2827 1 1455 1443 1462
2828 1 1455 1443 1391
2829 1 1460 1443 1462
2830 1 1460 1443 1391
2831 1 1462 1443 1391
2832 1 1446 1444 1449
2833 1 1446 1444 1453
2834 1 1446 1444 1458
2835 1 1446 1444 1462
2836 1 1446 1444 1463
2837 1 1449 1444 1453
2838 1 1449 1444 1458
2839 1 1449 1444 1462
2840 1 1449 1444 1463
2841 1 1453 1444 1458
2842 1 1453 1444 1462
2843 1 1453 1444 1463
2844 1 1458 1444 1462
2845 1 1458 1444 1463
2846 1 1462 1444 1463
2847 2 1444 1446 1484
2848 2 1443 1448 1488
2849 2 1444 1449 1490
2850 2 1443 1451 1494
2851 2 1444 1453 1494
2852 2 1443 1455 1490
2853 2 1444 1458 1560
2854 2 1443 1460 1412
2855 3 1443 1462 1444
2856 4 176 1466 1555
2857 5 176 1466 1498
2858 5 1555 1466 1498
2859 4 1038 1468 1487
2860 5 1038 1468 1500
2861 5 1487 1468 1500
2862 4 603 1469 1489
2863 5 603 1469 1501
2864 5 1489 1469 1501
2865 4 1465 1471 1493
2866 5 1465 1471 1503
2867 5 1493 1471 1503
2868 4 1479 1473 1493
2869 5 1479 1473 1505
2870 5 1493 1473 1505
2871 4 613 1475 1489
2872 5 613 1475 1507
2873 5 1489 1475 1507
2874 4 1044 1478 1559
2875 5 1044 1478 1510
2876 5 1559 1478 1510
2877 4 178 1480 1483
2878 5 178 1480 1512
2879 5 1483 1480 1512
2880 4 1394 1483 1480
2881 6 1394 1483 1412
2882 6 1480 1483 1412
2883 7 1446 1484 1532
2884 8 1446 1484 1555
2885 8 1532 1484 1555
2886 4 1468 1487 1406
2887 6 1468 1487 1488
2888 6 1406 1487 1488
2889 7 1448 1488 1386
2890 8 1448 1488 1487
2891 8 1386 1488 1487
2892 4 1469 1489 1475
2893 6 1469 1489 1490
2894 6 1475 1489 1490
2895 7 1449 1490 1455
2896 8 1449 1490 1489
2897 8 1455 1490 1489
2898 4 1471 1493 1473
2899 6 1471 1493 1494
2900 6 1473 1493 1494
2901 7 1451 1494 1453
2902 8 1451 1494 1493
2903 8 1453 1494 1493
2904 3 1515 1463 1444
2905 1 1520 1515 1523
2906 1 1520 1515 1527
2907 1 1520 1515 1532
2908 1 1520 1515 1534
2909 1 1520 1515 1463
2910 1 1523 1515 1527
2911 1 1523 1515 1532
2912 1 1523 1515 1534
2913 1 1523 1515 1463
2914 1 1527 1515 1532
2915 1 1527 1515 1534
2916 1 1527 1515 1463
2917 1 1532 1515 1534
2918 1 1532 1515 1463
2919 1 1534 1515 1463
2920 1 1518 1516 1521
2921 1 1518 1516 1525
2922 1 1518 1516 1530
2923 1 1518 1516 1534
2924 1 1518 1516 1535
2925 1 1521 1516 1525
2926 1 1521 1516 1530
2927 1 1521 1516 1534
2928 1 1521 1516 1535
2929 1 1525 1516 1530
2930 1 1525 1516 1534
2931 1 1525 1516 1535
2932 1 1530 1516 1534
2933 1 1530 1516 1535
2934 1 1534 1516 1535
2935 2 1516 1518 1556
2936 2 1515 1520 1560
2937 2 1516 1521 1562
2938 2 1515 1523 1566
2939 2 1516 1525 1566
2940 2 1515 1527 1562
2941 2 1516 1530 1632
2942 2 1515 1532 1484
2943 3 1515 1534 1516
2944 3 1587 1535 1516
2945 4 248 1538 1627
2946 5 248 1538 1570
2947 5 1627 1538 1570
2948 4 1110 1540 1559
2949 5 1110 1540 1572
2950 5 1559 1540 1572
2951 4 675 1541 1561
2952 5 675 1541 1573
2953 5 1561 1541 1573
2954 4 1537 1543 1565
2955 5 1537 1543 1575
2956 5 1565 1543 1575
2957 4 1551 1545 1565
2958 5 1551 1545 1577
2959 5 1565 1545 1577
2960 4 685 1547 1561
2961 5 685 1547 1579
2962 5 1561 1547 1579
2963 4 1116 1550 1631
2964 5 1116 1550 1582
2965 5 1631 1550 1582
2966 4 250 1552 1555
2967 5 250 1552 1584
2968 5 1555 1552 1584
2969 7 1518 1556 1604
2970 8 1518 1556 1627
2971 8 1604 1556 1627
2972 4 1540 1559 1478
2973 6 1540 1559 1560
2974 6 1478 1559 1560
2975 7 1520 1560 1458
2976 8 1520 1560 1559
2977 8 1458 1560 1559
2978 4 1541 1561 1547
2979 6 1541 1561 1562
2980 6 1547 1561 1562
2981 7 1521 1562 1527
2982 8 1521 1562 1561
2983 8 1527 1562 1561
2984 4 1543 1565 1545
2985 6 1543 1565 1566
2986 6 1545 1565 1566
2987 7 1523 1566 1525
2988 8 1523 1566 1565
2989 8 1525 1566 1565
2990 1 1592 1587 1595
2991 1 1592 1587 1599
2992 1 1592 1587 1604
2993 1 1592 1587 1606
2994 1 1592 1587 1535
2995 1 1595 1587 1599
2996 1 1595 1587 1604
2997 1 1595 1587 1606
2998 1 1595 1587 1535
2999 1 1599 1587 1604
3000 1 1599 1587 1606
3001 1 1599 1587 1535
3002 1 1604 1587 1606
3003 1 1604 1587 1535
3004 1 1606 1587 1535
3005 2 1587 1592 1632
3006 2 1587 1595 1638
3007 2 1587 1599 1634
3008 2 1587 1604 1556
3009 4 1182 1612 1631
3010 5 1182 1612 1644
3011 5 1631 1612 1644
3012 4 1609 1615 1637
3013 5 1609 1615 1647
3014 5 1637 1615 1647
3015 4 757 1619 1633
3016 5 757 1619 1651
3017 5 1633 1619 1651
3018 4 322 1624 1627
3019 5 322 1624 1656
3020 5 1627 1624 1656
3021 4 1538 1627 1624
3022 6 1538 1627 1556
3023 6 1624 1627 1556
3024 4 1612 1631 1550
3025 6 1612 1631 1632
3026 6 1550 1631 1632
3027 7 1592 1632 1530
3028 8 1592 1632 1631
3029 8 1530 1632 1631
3030 4 1613 1633 1619
3031 6 1613 1633 1634
3032 6 1619 1633 1634
3033 7 1593 1634 1599
3034 8 1593 1634 1633
3035 8 1599 1634 1633
3036 3 1587 1606 1588
3037 4 1682 1339 1336
3038 6 1682 1339 1700
3039 6 1336 1339 1700
3040 1 1590 1588 1593
3041 1 1590 1588 1597
3042 1 1590 1588 1602
3043 1 1590 1588 1606
3044 1 1590 1588 1607
3045 1 1593 1588 1597
3046 1 1593 1588 1602
3047 1 1593 1588 1606
3048 1 1593 1588 1607
3049 1 1597 1588 1602
3050 1 1597 1588 1606
3051 1 1597 1588 1607
3052 1 1602 1588 1606
3053 1 1602 1588 1607
3054 1 1606 1588 1607
3055 2 1588 1590 1628
3056 2 1588 1593 1634
3057 2 1588 1597 1638
3058 2 1588 1602 1704
3059 3 1659 1607 1588
3060 4 320 1610 1699
3061 5 320 1610 1642
3062 5 1699 1610 1642
3063 4 747 1613 1633
3064 5 747 1613 1645
3065 5 1633 1613 1645
3066 4 1623 1617 1637
3067 5 1623 1617 1649
3068 5 1637 1617 1649
3069 4 1188 1622 1703
3070 5 1188 1622 1654
3071 5 1703 1622 1654
3072 7 1590 1628 1676
3073 8 1590 1628 1699
3074 8 1676 1628 1699
3075 4 1615 1637 1617
3076 6 1615 1637 1638
3077 6 1617 1637 1638
3078 7 1595 1638 1597
3079 8 1595 1638 1637
3080 8 1597 1638 1637
3081 1 1664 1659 1667
3082 1 1664 1659 1671
3083 1 1664 1659 1676
3084 1 1664 1659 1678
3085 1 1664 1659 1607
3086 1 1667 1659 1671
3087 1 1667 1659 1676
3088 1 1667 1659 1678
3089 1 1667 1659 1607
3090 1 1671 1659 1676
3091 1 1671 1659 1678
3092 1 1671 1659 1607
3093 1 1676 1659 1678
3094 1 1676 1659 1607
3095 1 1678 1659 1607
3096 1 1662 1660 1665
3097 1 1662 1660 1669
3098 1 1662 1660 1674
3099 1 1662 1660 1678
3100 1 1662 1660 1679
3101 1 1665 1660 1669
3102 1 1665 1660 1674
3103 1 1665 1660 1678
3104 1 1665 1660 1679
3105 1 1669 1660 1674
3106 1 1669 1660 1678
3107 1 1669 1660 1679
3108 1 1674 1660 1678
3109 1 1674 1660 1679
3110 1 1678 1660 1679
3111 2 1660 1662 1700
3112 2 1659 1664 1704
3113 2 1660 1665 1706
3114 2 1659 1667 1710
3115 2 1660 1669 1710
3116 2 1659 1671 1706
3117 2 1660 1674 1344
3118 2 1659 1676 1628
3119 3 1659 1678 1660
3120 4 392 1682 1339
3121 5 392 1682 1714
3122 5 1339 1682 1714
3123 4 1254 1684 1703
3124 5 1254 1684 1716
3125 5 1703 1684 1716
3126 4 819 1685 1705
3127 5 819 1685 1717
3128 5 1705 1685 1717
3129 4 1681 1687 1709
3130 5 1681 1687 1719
3131 5 1709 1687 1719
3132 4 1695 1689 1709
3133 5 1695 1689 1721
3134 5 1709 1689 1721
3135 4 829 1691 1705
3136 5 829 1691 1723
3137 5 1705 1691 1723
3138 4 1260 1694 1343
3139 5 1260 1694 1726
3140 5 1343 1694 1726
3141 4 394 1696 1699
3142 5 394 1696 1728
3143 5 1699 1696 1728
3144 4 1610 1699 1696
3145 6 1610 1699 1628
3146 6 1696 1699 1628
3147 7 1662 1700 1316
3148 8 1662 1700 1339
3149 8 1316 1700 1339
3150 4 1684 1703 1622
3151 6 1684 1703 1704
3152 6 1622 1703 1704
3153 7 1664 1704 1602
3154 8 1664 1704 1703
3155 8 1602 1704 1703
3156 4 1685 1705 1691
3157 6 1685 1705 1706
3158 6 1691 1705 1706
3159 7 1665 1706 1671
3160 8 1665 1706 1705
3161 8 1671 1706 1705
3162 4 1687 1709 1689
3163 6 1687 1709 1710
3164 6 1689 1709 1710
3165 7 1667 1710 1669
3166 8 1667 1710 1709
3167 8 1669 1710 1709
3168 3 1299 1679 1660
3169 1 869 865 874
3170 1 869 865 878
3171 1 869 865 881
3172 1 869 865 1245
3173 1 869 865 888
3174 1 874 865 878
3175 1 874 865 881
3176 1 874 865 1245
3177 1 874 865 888
3178 1 878 865 881
3179 1 878 865 1245
3180 1 878 865 888
3181 1 881 865 1245
3182 1 881 865 888
3183 1 1245 865 888
3184 1 871 866 876
3185 1 871 866 880
3186 1 871 866 883
3187 1 871 866 885
3188 1 871 866 888
3189 1 876 866 880
3190 1 876 866 883
3191 1 876 866 885
3192 1 876 866 888
3193 1 880 866 883
3194 1 880 866 885
3195 1 880 866 888
3196 1 883 866 885
3197 1 883 866 888
3198 1 885 866 888
3199 2 865 869 906
3200 2 866 871 910
3201 2 865 874 1276
3202 2 866 876 992
3203 2 865 878 920
3204 2 866 880 916
3205 2 865 881 910
3206 2 866 883 906
3207 3 937 885 866
3208 3 865 888 866
3209 4 895 889 905
3210 5 895 889 921
3211 5 905 889 921
3212 4 29 891 909
3213 5 29 891 923
3214 5 909 891 923
3215 4 1324 894 915
3216 5 1324 894 926
3217 5 915 894 926
3218 4 458 896 991
3219 5 458 896 928
3220 5 991 896 928
3221 4 472 898 919
3222 5 472 898 930
3223 5 919 898 930
3224 4 1334 900 987
3225 5 1334 900 932
3226 5 987 900 932
3227 4 35 901 909
3228 5 35 901 933
3229 5 909 901 933
3230 4 897 903 905
3231 5 897 903 935
3232 5 905 903 935
3233 4 889 905 903
3234 6 889 905 906
3235 6 903 905 906
3236 7 869 906 883
3237 8 869 906 905
3238 8 883 906 905
3239 4 891 909 901
3240 6 891 909 910
3241 6 901 909 910
3242 7 871 910 881
3243 8 871 910 909
3244 8 881 910 909
3245 7 946 916 880
3246 8 946 916 987
3247 8 880 916 987
3248 4 1256 919 898
3249 6 1256 919 920
3250 6 898 919 920
3251 7 1236 920 878
3252 8 1236 920 919
3253 8 878 920 919
3254 1 941 937 946
3255 1 941 937 950
3256 1 941 937 953
3257 1 941 937 885
3258 1 941 937 960
3259 1 946 937 950
3260 1 946 937 953
3261 1 946 937 885
3262 1 946 937 960
3263 1 950 937 953
3264 1 950 937 885
3265 1 950 937 960
3266 1 953 937 885
3267 1 953 937 960
3268 1 885 937 960
3269 2 937 941 978
3270 2 937 946 916
3271 2 937 950 992
3272 2 937 953 982
3273 4 967 961 977
3274 5 967 961 993
3275 5 977 961 993
3276 4 1396 966 987
3277 5 1396 966 998
3278 5 987 966 998
3279 4 544 970 991
3280 5 544 970 1002
3281 5 991 970 1002
3282 4 107 973 981
3283 5 107 973 1005
3284 5 981 973 1005
3285 4 961 977 975
3286 6 961 977 978
3287 6 975 977 978
3288 7 941 978 955
3289 8 941 978 977
3290 8 955 978 977
3291 4 966 987 900
3292 6 966 987 916
3293 6 900 987 916
3294 4 896 991 970
3295 6 896 991 992
3296 6 970 991 992
3297 7 876 992 950
3298 8 876 992 991
3299 8 950 992 991
3300 3 937 960 938
3301 1 943 938 948
3302 1 943 938 952
3303 1 943 938 955
3304 1 943 938 957
3305 1 943 938 960
3306 1 948 938 952
3307 1 948 938 955
3308 1 948 938 957
3309 1 948 938 960
3310 1 952 938 955
3311 1 952 938 957
3312 1 952 938 960
3313 1 955 938 957
3314 1 955 938 960
3315 1 957 938 960
3316 2 938 943 982
3317 2 938 948 1064
3318 2 938 952 988
3319 2 938 955 978
3320 3 1009 957 938
3321 4 1110 1131 1044
3322 6 1110 1131 1060
3323 6 1044 1131 1060
3324 4 101 963 981
3325 5 101 963 995
3326 5 981 963 995
3327 4 530 968 1063
3328 5 530 968 1000
3329 5 1063 968 1000
3330 4 1406 972 1059
3331 5 1406 972 1004
3332 5 1059 972 1004
3333 4 969 975 977
3334 5 969 975 1007
3335 5 977 975 1007
3336 4 963 981 973
3337 6 963 981 982
3338 6 973 981 982
3339 7 943 982 953
3340 8 943 982 981
3341 8 953 982 981
3342 7 1018 988 952
3343 8 1018 988 1059
3344 8 952 988 1059
3345 1 1013 1009 1018
3346 1 1013 1009 1022
3347 1 1013 1009 1025
3348 1 1013 1009 957
3349 1 1013 1009 1032
3350 1 1018 1009 1022
3351 1 1018 1009 1025
3352 1 1018 1009 957
3353 1 1018 1009 1032
3354 1 1022 1009 1025
3355 1 1022 1009 957
3356 1 1022 1009 1032
3357 1 1025 1009 957
3358 1 1025 1009 1032
3359 1 957 1009 1032
3360 1 1015 1010 1020
3361 1 1015 1010 1024
3362 1 1015 1010 1027
3363 1 1015 1010 1029
3364 1 1015 1010 1032
3365 1 1020 1010 1024
3366 1 1020 1010 1027
3367 1 1020 1010 1029
3368 1 1020 1010 1032
3369 1 1024 1010 1027
3370 1 1024 1010 1029
3371 1 1024 1010 1032
3372 1 1027 1010 1029
3373 1 1027 1010 1032
3374 1 1029 1010 1032
3375 2 1009 1013 1050
3376 2 1010 1015 1054
3377 2 1009 1018 988
3378 2 1010 1020 1136
3379 2 1009 1022 1064
3380 2 1010 1024 1060
3381 2 1009 1025 1054
3382 2 1010 1027 1050
3383 3 1009 1032 1010
3384 4 1039 1033 1049
3385 5 1039 1033 1065
3386 5 1049 1033 1065
3387 4 173 1035 1053
3388 5 173 1035 1067
3389 5 1053 1035 1067
3390 4 1468 1038 1059
3391 5 1468 1038 1070
3392 5 1059 1038 1070
3393 4 602 1040 1135
3394 5 602 1040 1072
3395 5 1135 1040 1072
3396 4 616 1042 1063
3397 5 616 1042 1074
3398 5 1063 1042 1074
3399 4 1478 1044 1131
3400 5 1478 1044 1076
3401 5 1131 1044 1076
3402 4 179 1045 1053
3403 5 179 1045 1077
3404 5 1053 1045 1077
3405 4 1041 1047 1049
3406 5 1041 1047 1079
3407 5 1049 1047 1079
3408 4 1033 1049 1047
3409 6 1033 1049 1050
3410 6 1047 1049 1050
3411 7 1013 1050 1027
3412 8 1013 1050 1049
3413 8 1027 1050 1049
3414 4 1035 1053 1045
3415 6 1035 1053 1054
3416 6 1045 1053 1054
3417 7 1015 1054 1025
3418 8 1015 1054 1053
3419 8 1025 1054 1053
3420 4 1038 1059 972
3421 6 1038 1059 988
3422 6 972 1059 988
3423 7 1090 1060 1024
3424 8 1090 1060 1131
3425 8 1024 1060 1131
3426 4 968 1063 1042
3427 6 968 1063 1064
3428 6 1042 1063 1064
3429 7 948 1064 1022
3430 8 948 1064 1063
3431 8 1022 1064 1063
3432 3 1081 1029 1010
3433 1 1085 1081 1090
3434 1 1085 1081 1094
3435 1 1085 1081 1097
3436 1 1085 1081 1029
3437 1 1085 1081 1104
3438 1 1090 1081 1094
3439 1 1090 1081 1097
3440 1 1090 1081 1029
3441 1 1090 1081 1104
3442 1 1094 1081 1097
3443 1 1094 1081 1029
3444 1 1094 1081 1104
3445 1 1097 1081 1029
3446 1 1097 1081 1104
3447 1 1029 1081 1104
3448 1 1087 1082 1092
3449 1 1087 1082 1096
3450 1 1087 1082 1099
3451 1 1087 1082 1101
3452 1 1087 1082 1104
3453 1 1092 1082 1096
3454 1 1092 1082 1099
3455 1 1092 1082 1101
3456 1 1092 1082 1104
3457 1 1096 1082 1099
3458 1 1096 1082 1101
3459 1 1096 1082 1104
3460 1 1099 1082 1101
3461 1 1099 1082 1104
3462 1 1101 1082 1104
3463 2 1081 1085 1122
3464 2 1082 1087 1126
3465 2 1081 1090 1060
3466 2 1082 1092 1208
3467 2 1081 1094 1136
3468 2 1082 1096 1132
3469 2 1081 1097 1126
3470 2 1082 1099 1122
3471 3 1153 1101 1082
3472 3 1081 1104 1082
3473 4 1111 1105 1121
3474 5 1111 1105 1137
3475 5 1121 1105 1137
3476 4 245 1107 1125
3477 5 245 1107 1139
3478 5 1125 1107 1139
3479 4 1540 1110 1131
3480 5 1540 1110 1142
3481 5 1131 1110 1142
3482 4 674 1112 1207
3483 5 674 1112 1144
3484 5 1207 1112 1144
3485 4 688 1114 1135
3486 5 688 1114 1146
3487 5 1135 1114 1146
3488 4 1550 1116 1203
3489 5 1550 1116 1148
3490 5 1203 1116 1148
3491 4 251 1117 1125
3492 5 251 1117 1149
3493 5 1125 1117 1149
3494 4 1113 1119 1121
3495 5 1113 1119 1151
3496 5 1121 1119 1151
3497 4 1105 1121 1119
3498 6 1105 1121 1122
3499 6 1119 1121 1122
3500 7 1085 1122 1099
3501 8 1085 1122 1121
3502 8 1099 1122 1121
3503 4 1107 1125 1117
3504 6 1107 1125 1126
3505 6 1117 1125 1126
3506 7 1087 1126 1097
3507 8 1087 1126 1125
3508 8 1097 1126 1125
3509 7 1162 1132 1096
3510 8 1162 1132 1203
3511 8 1096 1132 1203
3512 4 1040 1135 1114
3513 6 1040 1135 1136
3514 6 1114 1135 1136
3515 7 1020 1136 1094
3516 8 1020 1136 1135
3517 8 1094 1136 1135
3518 1 1157 1153 1162
3519 1 1157 1153 1166
3520 1 1157 1153 1169
3521 1 1157 1153 1101
3522 1 1157 1153 1176
3523 1 1162 1153 1166
3524 1 1162 1153 1169
3525 1 1162 1153 1101
3526 1 1162 1153 1176
3527 1 1166 1153 1169
3528 1 1166 1153 1101
3529 1 1166 1153 1176
3530 1 1169 1153 1101
3531 1 1169 1153 1176
3532 1 1101 1153 1176
3533 2 1153 1157 1194
3534 2 1153 1162 1132
3535 2 1153 1166 1208
3536 2 1153 1169 1198
3537 4 1183 1177 1193
3538 5 1183 1177 1209
3539 5 1193 1177 1209
3540 4 1612 1182 1203
3541 5 1612 1182 1214
3542 5 1203 1182 1214
3543 4 760 1186 1207
3544 5 760 1186 1218
3545 5 1207 1186 1218
3546 4 323 1189 1197
3547 5 323 1189 1221
3548 5 1197 1189 1221
3549 4 1177 1193 1191
3550 6 1177 1193 1194
3551 6 1191 1193 1194
3552 7 1157 1194 1171
3553 8 1157 1194 1193
3554 8 1171 1194 1193
3555 4 1182 1203 1116
3556 6 1182 1203 1132
3557 6 1116 1203 1132
3558 4 1112 1207 1186
3559 6 1112 1207 1208
3560 6 1186 1207 1208
3561 7 1092 1208 1166
3562 8 1092 1208 1207
3563 8 1166 1208 1207
3564 3 1153 1176 1154
3565 4 894 915 1260
3566 6 894 915 1276
3567 6 1260 915 1276
3568 1 1159 1154 1164
3569 1 1159 1154 1168
3570 1 1159 1154 1171
3571 1 1159 1154 1173
3572 1 1159 1154 1176
3573 1 1164 1154 1168
3574 1 1164 1154 1171
3575 1 1164 1154 1173
3576 1 1164 1154 1176
3577 1 1168 1154 1171
3578 1 1168 1154 1173
3579 1 1168 1154 1176
3580 1 1171 1154 1173
3581 1 1171 1154 1176
3582 1 1173 1154 1176
3583 2 1154 1159 1198
3584 2 1154 1164 1280
3585 2 1154 1168 1204
3586 2 1154 1171 1194
3587 3 1225 1173 1154
3588 4 317 1179 1197
3589 5 317 1179 1211
3590 5 1197 1179 1211
3591 4 746 1184 1279
3592 5 746 1184 1216
3593 5 1279 1184 1216
3594 4 1622 1188 1275
3595 5 1622 1188 1220
3596 5 1275 1188 1220
3597 4 1185 1191 1193
3598 5 1185 1191 1223
3599 5 1193 1191 1223
3600 4 1179 1197 1189
3601 6 1179 1197 1198
3602 6 1189 1197 1198
3603 7 1159 1198 1169
3604 8 1159 1198 1197
3605 8 1169 1198 1197
3606 7 1234 1204 1168
3607 8 1234 1204 1275
3608 8 1168 1204 1275
3609 1 1229 1225 1234
3610 1 1229 1225 1238
3611 1 1229 1225 1241
3612 1 1229 1225 1173
3613 1 1229 1225 1248
3614 1 1234 1225 1238
3615 1 1234 1225 1241
3616 1 1234 1225 1173
3617 1 1234 1225 1248
3618 1 1238 1225 1241
3619 1 1238 1225 1173
3620 1 1238 1225 1248
3621 1 1241 1225 1173
3622 1 1241 1225 1248
3623 1 1173 1225 1248
3624 1 1231 1226 1236
3625 1 1231 1226 1240
3626 1 1231 1226 1243
3627 1 1231 1226 1245
3628 1 1231 1226 1248
3629 1 1236 1226 1240
3630 1 1236 1226 1243
3631 1 1236 1226 1245
3632 1 1236 1226 1248
3633 1 1240 1226 1243
3634 1 1240 1226 1245
3635 1 1240 1226 1248
3636 1 1243 1226 1245
3637 1 1243 1226 1248
3638 1 1245 1226 1248
3639 2 1225 1229 1266
3640 2 1226 1231 1270
3641 2 1225 1234 1204
3642 2 1226 1236 920
3643 2 1225 1238 1280
3644 2 1226 1240 1276
3645 2 1225 1241 1270
3646 2 1226 1243 1266
3647 3 1225 1248 1226
3648 4 1255 1249 1265
3649 5 1255 1249 1281
3650 5 1265 1249 1281
3651 4 389 1251 1269
3652 5 389 1251 1283
3653 5 1269 1251 1283
3654 4 1684 1254 1275
3655 5 1684 1254 1286
3656 5 1275 1254 1286
3657 4 818 1256 919
3658 5 818 1256 1288
3659 5 919 1256 1288
3660 4 832 1258 1279
3661 5 832 1258 1290
3662 5 1279 1258 1290
3663 4 1694 1260 915
3664 5 1694 1260 1292
3665 5 915 1260 1292
3666 4 395 1261 1269
3667 5 395 1261 1293
3668 5 1269 1261 1293
3669 4 1257 1263 1265
3670 5 1257 1263 1295
3671 5 1265 1263 1295
3672 4 1249 1265 1263
3673 6 1249 1265 1266
3674 6 1263 1265 1266
3675 7 1229 1266 1243
3676 8 1229 1266 1265
3677 8 1243 1266 1265
3678 4 1251 1269 1261
3679 6 1251 1269 1270
3680 6 1261 1269 1270
3681 7 1231 1270 1241
3682 8 1231 1270 1269
3683 8 1241 1270 1269
3684 4 1254 1275 1188
3685 6 1254 1275 1204
3686 6 1188 1275 1204
3687 7 874 1276 1240
3688 8 874 1276 915
3689 8 1240 1276 915
3690 4 1184 1279 1258
3691 6 1184 1279 1280
3692 6 1258 1279 1280
3693 7 1164 1280 1238
3694 8 1164 1280 1279
3695 8 1238 1280 1279
3696 3 865 1245 1226
3697 1 1301 1297 1306
3698 1 1301 1297 1310
3699 1 1301 1297 1313
3700 1 1301 1297 1677
3701 1 1301 1297 1320
3702 1 1306 1297 1310
3703 1 1306 1297 1313
3704 1 1306 1297 1677
3705 1 1306 1297 1320
3706 1 1310 1297 1313
3707 1 1310 1297 1677
3708 1 1310 1297 1320
3709 1 1313 1297 1677
3710 1 1313 1297 1320
3711 1 1677 1297 1320
3712 1 1303 1298 1308
3713 1 1303 1298 1312
3714 1 1303 1298 1315
3715 1 1303 1298 1317
3716 1 1303 1298 1320
3717 1 1308 1298 1312
3718 1 1308 1298 1315
3719 1 1308 1298 1317
3720 1 1308 1298 1320
3721 1 1312 1298 1315
3722 1 1312 1298 1317
3723 1 1312 1298 1320
3724 1 1315 1298 1317
3725 1 1315 1298 1320
3726 1 1317 1298 1320
3727 2 1297 1301 1338
3728 2 1298 1303 1342
3729 2 1297 1306 1708
3730 2 1298 1308 1424
3731 2 1297 1310 1352
3732 2 1298 1312 1348
3733 2 1297 1313 1342
3734 2 1298 1315 1338
3735 3 1369 1317 1298
3736 3 1297 1320 1298
3737 4 1327 1321 1337
3738 5 1327 1321 1353
3739 5 1337 1321 1353
3740 4 461 1323 1341
3741 5 461 1323 1355
3742 5 1341 1323 1355
3743 4 892 1326 1347
3744 5 892 1326 1358
3745 5 1347 1326 1358
3746 4 26 1328 1423
3747 5 26 1328 1360
3748 5 1423 1328 1360
3749 4 40 1330 1351
3750 5 40 1330 1362
3751 5 1351 1330 1362
3752 4 902 1332 1419
3753 5 902 1332 1364
3754 5 1419 1332 1364
3755 4 467 1333 1341
3756 5 467 1333 1365
3757 5 1341 1333 1365
3758 4 1329 1335 1337
3759 5 1329 1335 1367
3760 5 1337 1335 1367
3761 4 1321 1337 1335
3762 6 1321 1337 1338
3763 6 1335 1337 1338
3764 7 1301 1338 1315
3765 8 1301 1338 1337
3766 8 1315 1338 1337
3767 4 1323 1341 1333
3768 6 1323 1341 1342
3769 6 1333 1341 1342
3770 7 1303 1342 1313
3771 8 1303 1342 1341
3772 8 1313 1342 1341
3773 7 1378 1348 1312
3774 8 1378 1348 1419
3775 8 1312 1348 1419
3776 4 1688 1351 1330
3777 6 1688 1351 1352
3778 6 1330 1351 1352
3779 7 1668 1352 1310
3780 8 1668 1352 1351
3781 8 1310 1352 1351
3782 1 1373 1369 1378
3783 1 1373 1369 1382
3784 1 1373 1369 1385
3785 1 1373 1369 1317
3786 1 1373 1369 1392
3787 1 1378 1369 1382
3788 1 1378 1369 1385
3789 1 1378 1369 1317
3790 1 1378 1369 1392
3791 1 1382 1369 1385
3792 1 1382 1369 1317
3793 1 1382 1369 1392
3794 1 1385 1369 1317
3795 1 1385 1369 1392
3796 1 1317 1369 1392
3797 2 1369 1373 1410
3798 2 1369 1378 1348
3799 2 1369 1382 1424
3800 2 1369 1385 1414
3801 4 1399 1393 1409
3802 5 1399 1393 1425
3803 5 1409 1393 1425
3804 4 964 1398 1419
3805 5 964 1398 1430
3806 5 1419 1398 1430
3807 4 112 1402 1423
3808 5 112 1402 1434
3809 5 1423 1402 1434
3810 4 539 1405 1413
3811 5 539 1405 1437
3812 5 1413 1405 1437
3813 4 1393 1409 1407
3814 6 1393 1409 1410
3815 6 1407 1409 1410
3816 7 1373 1410 1387
3817 8 1373 1410 1409
3818 8 1387 1410 1409
3819 4 1398 1419 1332
3820 6 1398 1419 1348
3821 6 1332 1419 1348
3822 4 1328 1423 1402
3823 6 1328 1423 1424
3824 6 1402 1423 1424
3825 7 1308 1424 1382
3826 8 1308 1424 1423
3827 8 1382 1424 1423
3828 3 1369 1392 1370
3829 1 1375 1370 1380
3830 1 1375 1370 1384
3831 1 1375 1370 1387
3832 1 1375 1370 1389
3833 1 1375 1370 1392
3834 1 1380 1370 1384
3835 1 1380 1370 1387
3836 1 1380 1370 1389
3837 1 1380 1370 1392
3838 1 1384 1370 1387
3839 1 1384 1370 1389
3840 1 1384 1370 1392
3841 1 1387 1370 1389
3842 1 1387 1370 1392
3843 1 1389 1370 1392
3844 2 1370 1375 1414
3845 2 1370 1380 1496
3846 2 1370 1384 1420
3847 2 1370 1387 1410
3848 3 1441 1389 1370
3849 4 1542 1563 1476
3850 6 1542 1563 1492
3851 6 1476 1563 1492
3852 4 533 1395 1413
3853 5 533 1395 1427
3854 5 1413 1395 1427
3855 4 98 1400 1495
3856 5 98 1400 1432
3857 5 1495 1400 1432
3858 4 974 1404 1491
3859 5 974 1404 1436
3860 5 1491 1404 1436
3861 4 1401 1407 1409
3862 5 1401 1407 1439
3863 5 1409 1407 1439
3864 4 1395 1413 1405
3865 6 1395 1413 1414
3866 6 1405 1413 1414
3867 7 1375 1414 1385
3868 8 1375 1414 1413
3869 8 1385 1414 1413
3870 7 1450 1420 1384
3871 8 1450 1420 1491
3872 8 1384 1420 1491
3873 1 1445 1441 1450
3874 1 1445 1441 1454
3875 1 1445 1441 1457
3876 1 1445 1441 1389
3877 1 1445 1441 1464
3878 1 1450 1441 1454
3879 1 1450 1441 1457
3880 1 1450 1441 1389
3881 1 1450 1441 1464
3882 1 1454 1441 1457
3883 1 1454 1441 1389
3884 1 1454 1441 1464
3885 1 1457 1441 1389
3886 1 1457 1441 1464
3887 1 1389 1441 1464
3888 1 1447 1442 1452
3889 1 1447 1442 1456
3890 1 1447 1442 1459
3891 1 1447 1442 1461
3892 1 1447 1442 1464
3893 1 1452 1442 1456
3894 1 1452 1442 1459
3895 1 1452 1442 1461
3896 1 1452 1442 1464
3897 1 1456 1442 1459
3898 1 1456 1442 1461
3899 1 1456 1442 1464
3900 1 1459 1442 1461
3901 1 1459 1442 1464
3902 1 1461 1442 1464
3903 2 1441 1445 1482
3904 2 1442 1447 1486
3905 2 1441 1450 1420
3906 2 1442 1452 1568
3907 2 1441 1454 1496
3908 2 1442 1456 1492
3909 2 1441 1457 1486
3910 2 1442 1459 1482
3911 3 1441 1464 1442
3912 4 1471 1465 1481
3913 5 1471 1465 1497
3914 5 1481 1465 1497
3915 4 605 1467 1485
3916 5 605 1467 1499
3917 5 1485 1467 1499
3918 4 1036 1470 1491
3919 5 1036 1470 1502
3920 5 1491 1470 1502
3921 4 170 1472 1567
3922 5 170 1472 1504
3923 5 1567 1472 1504
3924 4 184 1474 1495
3925 5 184 1474 1506
3926 5 1495 1474 1506
3927 4 1046 1476 1563
3928 5 1046 1476 1508
3929 5 1563 1476 1508
3930 4 611 1477 1485
3931 5 611 1477 1509
3932 5 1485 1477 1509
3933 4 1473 1479 1481
3934 5 1473 1479 1511
3935 5 1481 1479 1511
3936 4 1465 1481 1479
3937 6 1465 1481 1482
3938 6 1479 1481 1482
3939 7 1445 1482 1459
3940 8 1445 1482 1481
3941 8 1459 1482 1481
3942 4 1467 1485 1477
3943 6 1467 1485 1486
3944 6 1477 1485 1486
3945 7 1447 1486 1457
3946 8 1447 1486 1485
3947 8 1457 1486 1485
3948 4 1470 1491 1404
3949 6 1470 1491 1420
3950 6 1404 1491 1420
3951 7 1522 1492 1456
3952 8 1522 1492 1563
3953 8 1456 1492 1563
3954 4 1400 1495 1474
3955 6 1400 1495 1496
3956 6 1474 1495 1496
3957 7 1380 1496 1454
3958 8 1380 1496 1495
3959 8 1454 1496 1495
3960 3 1513 1461 1442
3961 1 1517 1513 1522
3962 1 1517 1513 1526
3963 1 1517 1513 1529
3964 1 1517 1513 1461
3965 1 1517 1513 1536
3966 1 1522 1513 1526
3967 1 1522 1513 1529
3968 1 1522 1513 1461
3969 1 1522 1513 1536
3970 1 1526 1513 1529
3971 1 1526 1513 1461
3972 1 1526 1513 1536
3973 1 1529 1513 1461
3974 1 1529 1513 1536
3975 1 1461 1513 1536
3976 1 1519 1514 1524
3977 1 1519 1514 1528
3978 1 1519 1514 1531
3979 1 1519 1514 1533
3980 1 1519 1514 1536
3981 1 1524 1514 1528
3982 1 1524 1514 1531
3983 1 1524 1514 1533
3984 1 1524 1514 1536
3985 1 1528 1514 1531
3986 1 1528 1514 1533
3987 1 1528 1514 1536
3988 1 1531 1514 1533
3989 1 1531 1514 1536
3990 1 1533 1514 1536
3991 2 1513 1517 1554
3992 2 1514 1519 1558
3993 2 1513 1522 1492
3994 2 1514 1524 1640
3995 2 1513 1526 1568
3996 2 1514 1528 1564
3997 2 1513 1529 1558
3998 2 1514 1531 1554
3999 3 1585 1533 1514
4000 3 1513 1536 1514
4001 4 1543 1537 1553
4002 5 1543 1537 1569
4003 5 1553 1537 1569
4004 4 677 1539 1557
4005 5 677 1539 1571
4006 5 1557 1539 1571
4007 4 1108 1542 1563
4008 5 1108 1542 1574
4009 5 1563 1542 1574
4010 4 242 1544 1639
4011 5 242 1544 1576
4012 5 1639 1544 1576
4013 4 256 1546 1567
4014 5 256 1546 1578
4015 5 1567 1546 1578
4016 4 1118 1548 1635
4017 5 1118 1548 1580
4018 5 1635 1548 1580
4019 4 683 1549 1557
4020 5 683 1549 1581
4021 5 1557 1549 1581
4022 4 1545 1551 1553
4023 5 1545 1551 1583
4024 5 1553 1551 1583
4025 4 1537 1553 1551
4026 6 1537 1553 1554
4027 6 1551 1553 1554
4028 7 1517 1554 1531
4029 8 1517 1554 1553
4030 8 1531 1554 1553
4031 4 1539 1557 1549
4032 6 1539 1557 1558
4033 6 1549 1557 1558
4034 7 1519 1558 1529
4035 8 1519 1558 1557
4036 8 1529 1558 1557
4037 7 1594 1564 1528
4038 8 1594 1564 1635
4039 8 1528 1564 1635
4040 4 1472 1567 1546
4041 6 1472 1567 1568
4042 6 1546 1567 1568
4043 7 1452 1568 1526
4044 8 1452 1568 1567
4045 8 1526 1568 1567
4046 1 1589 1585 1594
4047 1 1589 1585 1598
4048 1 1589 1585 1601
4049 1 1589 1585 1533
4050 1 1589 1585 1608
4051 1 1594 1585 1598
4052 1 1594 1585 1601
4053 1 1594 1585 1533
4054 1 1594 1585 1608
4055 1 1598 1585 1601
4056 1 1598 1585 1533
4057 1 1598 1585 1608
4058 1 1601 1585 1533
4059 1 1601 1585 1608
4060 1 1533 1585 1608
4061 2 1585 1589 1626
4062 2 1585 1594 1564
4063 2 1585 1598 1640
4064 2 1585 1601 1630
4065 4 1615 1609 1625
4066 5 1615 1609 1641
4067 5 1625 1609 1641
4068 4 1180 1614 1635
4069 5 1180 1614 1646
4070 5 1635 1614 1646
4071 4 328 1618 1639
4072 5 328 1618 1650
4073 5 1639 1618 1650
4074 4 755 1621 1629
4075 5 755 1621 1653
4076 5 1629 1621 1653
4077 4 1609 1625 1623
4078 6 1609 1625 1626
4079 6 1623 1625 1626
4080 7 1589 1626 1603
4081 8 1589 1626 1625
4082 8 1603 1626 1625
4083 4 1614 1635 1548
4084 6 1614 1635 1564
4085 6 1548 1635 1564
4086 4 1544 1639 1618
4087 6 1544 1639 1640
4088 6 1618 1639 1640
4089 7 1524 1640 1598
4090 8 1524 1640 1639
4091 8 1598 1640 1639
4092 3 1585 1608 1586
4093 4 1326 1347 1692
4094 6 1326 1347 1708
4095 6 1692 1347 1708
4096 1 1591 1586 1596
4097 1 1591 1586 1600
4098 1 1591 1586 1603
4099 1 1591 1586 1605
4100 1 1591 1586 1608
4101 1 1596 1586 1600
4102 1 1596 1586 1603
4103 1 1596 1586 1605
4104 1 1596 1586 1608
4105 1 1600 1586 1603
4106 1 1600 1586 1605
4107 1 1600 1586 1608
4108 1 1603 1586 1605
4109 1 1603 1586 1608
4110 1 1605 1586 1608
4111 2 1586 1591 1630
4112 2 1586 1596 1712
4113 2 1586 1600 1636
4114 2 1586 1603 1626
4115 3 1657 1605 1586
4116 4 749 1611 1629
4117 5 749 1611 1643
4118 5 1629 1611 1643
4119 4 314 1616 1711
4120 5 314 1616 1648
4121 5 1711 1616 1648
4122 4 1190 1620 1707
4123 5 1190 1620 1652
4124 5 1707 1620 1652
4125 4 1617 1623 1625
4126 5 1617 1623 1655
4127 5 1625 1623 1655
4128 4 1611 1629 1621
4129 6 1611 1629 1630
4130 6 1621 1629 1630
4131 7 1591 1630 1601
4132 8 1591 1630 1629
4133 8 1601 1630 1629
4134 7 1666 1636 1600
4135 8 1666 1636 1707
4136 8 1600 1636 1707
4137 1 1661 1657 1666
4138 1 1661 1657 1670
4139 1 1661 1657 1673
4140 1 1661 1657 1605
4141 1 1661 1657 1680
4142 1 1666 1657 1670
4143 1 1666 1657 1673
4144 1 1666 1657 1605
4145 1 1666 1657 1680
4146 1 1670 1657 1673
4147 1 1670 1657 1605
4148 1 1670 1657 1680
4149 1 1673 1657 1605
4150 1 1673 1657 1680
4151 1 1605 1657 1680
4152 1 1663 1658 1668
4153 1 1663 1658 1672
4154 1 1663 1658 1675
4155 1 1663 1658 1677
4156 1 1663 1658 1680
4157 1 1668 1658 1672
4158 1 1668 1658 1675
4159 1 1668 1658 1677
4160 1 1668 1658 1680
4161 1 1672 1658 1675
4162 1 1672 1658 1677
4163 1 1672 1658 1680
4164 1 1675 1658 1677
4165 1 1675 1658 1680
4166 1 1677 1658 1680
4167 2 1657 1661 1698
4168 2 1658 1663 1702
4169 2 1657 1666 1636
4170 2 1658 1668 1352
4171 2 1657 1670 1712
4172 2 1658 1672 1708
4173 2 1657 1673 1702
4174 2 1658 1675 1698
4175 3 1657 1680 1658
4176 4 1687 1681 1697
4177 5 1687 1681 1713
4178 5 1697 1681 1713
4179 4 821 1683 1701
4180 5 821 1683 1715
4181 5 1701 1683 1715
4182 4 1252 1686 1707
4183 5 1252 1686 1718
4184 5 1707 1686 1718
4185 4 386 1688 1351
4186 5 386 1688 1720
4187 5 1351 1688 1720
4188 4 400 1690 1711
4189 5 400 1690 1722
4190 5 1711 1690 1722
4191 4 1262 1692 1347
4192 5 1262 1692 1724
4193 5 1347 1692 1724
4194 4 827 1693 1701
4195 5 827 1693 1725
4196 5 1701 1693 1725
4197 4 1689 1695 1697
4198 5 1689 1695 1727
4199 5 1697 1695 1727
4200 4 1681 1697 1695
4201 6 1681 1697 1698
4202 6 1695 1697 1698
4203 7 1661 1698 1675
4204 8 1661 1698 1697
4205 8 1675 1698 1697
4206 4 1683 1701 1693
4207 6 1683 1701 1702
4208 6 1693 1701 1702
4209 7 1663 1702 1673
4210 8 1663 1702 1701
4211 8 1673 1702 1701
4212 4 1686 1707 1620
4213 6 1686 1707 1636
4214 6 1620 1707 1636
4215 7 1306 1708 1672
4216 8 1306 1708 1347
4217 8 1672 1708 1347
4218 4 1616 1711 1690
4219 6 1616 1711 1712
4220 6 1690 1711 1712
4221 7 1596 1712 1670
4222 8 1596 1712 1711
4223 8 1670 1712 1711
4224 3 1297 1677 1658

Dihedrals

1 1 4 6 44 92
2 1 4 6 44 115
3 1 3 8 48 378
4 1 3 8 48 47
5 1 4 9 50 15
6 1 4 9 50 49
7 1 3 11 54 13
8 1 3 11 54 53
9 1 4 13 54 11
10 1 4 13 54 53
11 1 3 15 50 9
12 1 3 15 50 49
13 1 4 18 120 80
14 1 4 18 120 119
15 1 3 20 404 366
16 1 3 20 404 43
17 2 1328 26 115 112
18 2 1328 26 115 44
19 2 58 26 115 112
20 2 58 26 115 44
21 2 115 26 1328 1423
22 2 115 26 1328 1360
23 2 58 26 1328 1423
24 2 58 26 1328 1360
25 2 462 28 47 398
26 2 462 28 47 48
27 2 60 28 47 398
28 2 60 28 47 48
29 2 47 28 462 483
30 2 47 28 462 494
31 2 60 28 462 483
32 2 60 28 462 494
33 2 891 29 49 35
34 2 891 29 49 50
35 2 61 29 49 35
36 2 61 29 49 50
37 2 25 31 53 33
38 2 25 31 53 54
39 2 63 31 53 33
40 2 63 31 53 54
41 2 53 33 39 41
42 2 53 33 39 71
43 2 65 33 39 41
44 2 65 33 39 71
45 2 39 33 53 31
46 2 39 33 53 54
47 2 65 33 53 31
48 2 65 33 53 54
49 2 901 35 49 29
50 2 901 35 49 50
51 2 67 35 49 29
52 2 67 35 49 50
53 2 49 35 901 909
54 2 49 35 901 933
55 2 67 35 901 909
56 2 67 35 901 933
57 2 468 38 119 100
58 2 468 38 119 120
59 2 70 38 119 100
60 2 70 38 119 120
61 2 1330 40 43 386
62 2 1330 40 43 404
63 2 72 40 43 386
64 2 72 40 43 404
65 3 28 47 48 8
66 3 28 47 48 378
67 3 398 47 48 8
68 3 398 47 48 378
69 3 29 49 50 9
70 3 29 49 50 15
71 3 35 49 50 9
72 3 35 49 50 15
73 3 31 53 54 11
74 3 31 53 54 13
75 3 33 53 54 11
76 3 33 53 54 13
77 1 75 80 120 18
78 1 75 80 120 119
79 1 75 83 126 85
80 1 75 83 126 125
81 1 75 87 122 81
82 1 75 87 122 121
83 1 75 92 44 6
84 1 75 92 44 115
85 2 534 100 119 38
86 2 534 100 119 120
87 2 132 100 119 38
88 2 132 100 119 120
89 2 119 100 534 555
90 2 119 100 534 566
91 2 132 100 534 555
92 2 132 100 534 566
93 2 97 103 125 105
94 2 97 103 125 126
95 2 135 103 125 105
96 2 135 103 125 126
97 2 973 107 121 101
98 2 973 107 121 122
99 2 139 107 121 101
100 2 139 107 121 122
101 2 121 107 973 981
102 2 121 107 973 1005
103 2 139 107 973 981
104 2 139 107 973 1005
105 2 1402 112 115 26
106 2 1402 112 115 44
107 2 144 112 115 26
108 2 144 112 115 44
109 3 26 115 44 6
110 3 26 115 44 92
111 3 112 115 44 6
112 3 112 115 44 92
113 3 100 119 120 80
114 3 100 119 120 18
115 3 38 119 120 80
116 3 38 119 120 18
117 3 101 121 122 81
118 3 101 121 122 87
119 3 107 121 122 81
120 3 107 121 122 87
121 1 76 78 116 164
122 1 76 78 116 187
123 1 76 81 122 87
124 1 76 81 122 121
125 1 76 85 126 83
126 1 76 85 126 125
127 1 76 90 192 152
128 1 76 90 192 191
129 3 170 259 188 150
130 3 170 259 188 236
131 3 256 259 188 150
132 3 256 259 188 236
133 2 1400 98 187 184
134 2 1400 98 187 116
135 2 130 98 187 184
136 2 130 98 187 116
137 2 187 98 1400 1495
138 2 187 98 1400 1432
139 2 130 98 1400 1495
140 2 130 98 1400 1432
141 2 963 101 121 107
142 2 963 101 121 122
143 2 133 101 121 107
144 2 133 101 121 122
145 2 125 105 111 113
146 2 125 105 111 143
147 2 137 105 111 113
148 2 137 105 111 143
149 2 111 105 125 103
150 2 111 105 125 126
151 2 137 105 125 103
152 2 137 105 125 126
153 2 540 110 191 172
154 2 540 110 191 192
155 2 142 110 191 172
156 2 142 110 191 192
157 3 103 125 126 83
158 3 103 125 126 85
159 3 105 125 126 83
160 3 105 125 126 85
161 1 148 150 188 236
162 1 148 150 188 259
163 1 147 152 192 90
164 1 147 152 192 191
165 1 148 153 194 159
166 1 148 153 194 193
167 1 147 155 198 157
168 1 147 155 198 197
169 1 148 157 198 155
170 1 148 157 198 197
171 1 147 159 194 153
172 1 147 159 194 193
173 1 148 162 264 224
174 1 148 162 264 263
175 1 147 164 116 78
176 1 147 164 116 187
177 2 1472 170 259 256
178 2 1472 170 259 188
179 2 202 170 259 256
180 2 202 170 259 188
181 2 259 170 1472 1567
182 2 259 170 1472 1504
183 2 202 170 1472 1567
184 2 202 170 1472 1504
185 2 606 172 191 110
186 2 606 172 191 192
187 2 204 172 191 110
188 2 204 172 191 192
189 2 191 172 606 627
190 2 191 172 606 638
191 2 204 172 606 627
192 2 204 172 606 638
193 2 1035 173 193 179
194 2 1035 173 193 194
195 2 205 173 193 179
196 2 205 173 193 194
197 2 169 175 197 177
198 2 169 175 197 198
199 2 207 175 197 177
200 2 207 175 197 198
201 2 197 177 183 185
202 2 197 177 183 215
203 2 209 177 183 185
204 2 209 177 183 215
205 2 183 177 197 175
206 2 183 177 197 198
207 2 209 177 197 175
208 2 209 177 197 198
209 2 1045 179 193 173
210 2 1045 179 193 194
211 2 211 179 193 173
212 2 211 179 193 194
213 2 193 179 1045 1053
214 2 193 179 1045 1077
215 2 211 179 1045 1053
216 2 211 179 1045 1077
217 2 612 182 263 244
218 2 612 182 263 264
219 2 214 182 263 244
220 2 214 182 263 264
221 2 1474 184 187 98
222 2 1474 184 187 116
223 2 216 184 187 98
224 2 216 184 187 116
225 3 98 187 116 78
226 3 98 187 116 164
227 3 184 187 116 78
228 3 184 187 116 164
229 3 172 191 192 152
230 3 172 191 192 90
231 3 110 191 192 152
232 3 110 191 192 90
233 3 173 193 194 153
234 3 173 193 194 159
235 3 179 193 194 153
236 3 179 193 194 159
237 3 175 197 198 155
238 3 175 197 198 157
239 3 177 197 198 155
240 3 177 197 198 157
241 1 220 222 260 308
242 1 220 222 260 331
243 1 219 224 264 162
244 1 219 224 264 263
245 1 220 225 266 231
246 1 220 225 266 265
247 1 219 227 270 229
248 1 219 227 270 269
249 1 220 229 270 227
250 1 220 229 270 269
251 1 219 231 266 225
252 1 219 231 266 265
253 1 220 234 336 296
254 1 220 234 336 335
255 1 219 236 188 150
256 1 219 236 188 259
257 2 1544 242 331 328
258 2 1544 242 331 260
259 2 274 242 331 328
260 2 274 242 331 260
261 2 331 242 1544 1639
262 2 331 242 1544 1576
263 2 274 242 1544 1639
264 2 274 242 1544 1576
265 2 678 244 263 182
266 2 678 244 263 264
267 2 276 244 263 182
268 2 276 244 263 264
269 2 263 244 678 699
270 2 263 244 678 710
271 2 276 244 678 699
272 2 276 244 678 710
273 2 1107 245 265 251
274 2 1107 245 265 266
275 2 277 245 265 251
276 2 277 245 265 266
277 2 241 247 269 249
278 2 241 247 269 270
279 2 279 247 269 249
280 2 279 247 269 270
281 2 269 249 255 257
282 2 269 249 255 287
283 2 281 249 255 257
284 2 281 249 255 287
285 2 255 249 269 247
286 2 255 249 269 270
287 2 281 249 269 247
288 2 281 249 269 270
289 2 1117 251 265 245
290 2 1117 251 265 266
291 2 283 251 265 245
292 2 283 251 265 266
293 2 265 251 1117 1125
294 2 265 251 1117 1149
295 2 283 251 1117 1125
296 2 283 251 1117 1149
297 2 684 254 335 316
298 2 684 254 335 336
299 2 286 254 335 316
300 2 286 254 335 336
301 2 1546 256 259 170
302 2 1546 256 259 188
303 2 288 256 259 170
304 2 288 256 259 188
305 3 244 263 264 224
306 3 244 263 264 162
307 3 182 263 264 224
308 3 182 263 264 162
309 3 245 265 266 225
310 3 245 265 266 231
311 3 251 265 266 225
312 3 251 265 266 231
313 3 247 269 270 227
314 3 247 269 270 229
315 3 249 269 270 227
316 3 249 269 270 229
317 1 291 296 336 234
318 1 291 296 336 335
319 1 291 299 342 301
320 1 291 299 342 341
321 1 291 303 338 297
322 1 291 303 338 337
323 1 291 308 260 222
324 1 291 308 260 331
325 2 750 316 335 254
326 2 750 316 335 336
327 2 348 316 335 254
328 2 348 316 335 336
329 2 335 316 750 771
330 2 335 316 750 782
331 2 348 316 750 771
332 2 348 316 750 782
333 2 313 319 341 321
334 2 313 319 341 342
335 2 351 319 341 321
336 2 351 319 341 342
337 2 1189 323 337 317
338 2 1189 323 337 338
339 2 355 323 337 317
340 2 355 323 337 338
341 2 337 323 1189 1197
342 2 337 323 1189 1221
343 2 355 323 1189 1197
344 2 355 323 1189 1221
345 2 1618 328 331 242
346 2 1618 328 331 260
347 2 360 328 331 242
348 2 360 328 331 260
349 3 242 331 260 222
350 3 242 331 260 308
351 3 328 331 260 222
352 3 328 331 260 308
353 3 316 335 336 296
354 3 316 335 336 234
355 3 254 335 336 296
356 3 254 335 336 234
357 3 317 337 338 297
358 3 317 337 338 303
359 3 323 337 338 297
360 3 323 337 338 303
361 3 386 43 404 366
362 3 386 43 404 20
363 3 40 43 404 366
364 3 40 43 404 20
365 1 292 294 332 380
366 1 292 294 332 403
367 1 292 297 338 303
368 1 292 297 338 337
369 1 292 301 342 299
370 1 292 301 342 341
371 1 292 306 408 368
372 1 292 306 408 407
373 2 1616 314 403 400
374 2 1616 314 403 332
375 2 346 314 403 400
376 2 346 314 403 332
377 2 403 314 1616 1711
378 2 403 314 1616 1648
379 2 346 314 1616 1711
380 2 346 314 1616 1648
381 2 1179 317 337 323
382 2 1179 317 337 338
383 2 349 317 337 323
384 2 349 317 337 338
385 2 341 321 327 329
386 2 341 321 327 359
387 2 353 321 327 329
388 2 353 321 327 359
389 2 327 321 341 319
390 2 327 321 341 342
391 2 353 321 341 319
392 2 353 321 341 342
393 2 756 326 407 388
394 2 756 326 407 408
395 2 358 326 407 388
396 2 358 326 407 408
397 3 319 341 342 299
398 3 319 341 342 301
399 3 321 341 342 299
400 3 321 341 342 301
401 1 364 366 404 20
402 1 364 366 404 43
403 1 363 368 408 306
404 1 363 368 408 407
405 1 364 369 410 375
406 1 364 369 410 409
407 1 363 371 414 373
408 1 363 371 414 413
409 1 364 373 414 371
410 1 364 373 414 413
411 1 363 375 410 369
412 1 363 375 410 409
413 1 364 378 48 8
414 1 364 378 48 47
415 1 363 380 332 294
416 1 363 380 332 403
417 2 1688 386 43 40
418 2 1688 386 43 404
419 2 418 386 43 40
420 2 418 386 43 404
421 2 43 386 1688 1351
422 2 43 386 1688 1720
423 2 418 386 1688 1351
424 2 418 386 1688 1720
425 2 822 388 407 326
426 2 822 388 407 408
427 2 420 388 407 326
428 2 420 388 407 408
429 2 407 388 822 843
430 2 407 388 822 854
431 2 420 388 822 843
432 2 420 388 822 854
433 2 1251 389 409 395
434 2 1251 389 409 410
435 2 421 389 409 395
436 2 421 389 409 410
437 2 385 391 413 393
438 2 385 391 413 414
439 2 423 391 413 393
440 2 423 391 413 414
441 2 413 393 399 401
442 2 413 393 399 431
443 2 425 393 399 401
444 2 425 393 399 431
445 2 399 393 413 391
446 2 399 393 413 414
447 2 425 393 413 391
448 2 425 393 413 414
449 2 1261 395 409 389
450 2 1261 395 409 410
451 2 427 395 409 389
452 2 427 395 409 410
453 2 409 395 1261 1269
454 2 409 395 1261 1293
455 2 427 395 1261 1269
456 2 427 395 1261 1293
457 2 828 398 47 28
458 2 828 398 47 48
459 2 430 398 47 28
460 2 430 398 47 48
461 2 1690 400 403 314
462 2 1690 400 403 332
463 2 432 400 403 314
464 2 432 400 403 332
465 3 314 403 332 294
466 3 314 403 332 380
467 3 400 403 332 294
468 3 400 403 332 380
469 3 388 407 408 368
470 3 388 407 408 306
471 3 326 407 408 368
472 3 326 407 408 306
473 3 389 409 410 369
474 3 389 409 410 375
475 3 395 409 410 369
476 3 395 409 410 375
477 3 391 413 414 371
478 3 391 413 414 373
479 3 393 413 414 371
480 3 393 413 414 373
481 1 436 438 476 524
482 1 436 438 476 547
483 1 435 440 480 810
484 1 435 440 480 479
485 1 436 441 482 447
486 1 436 441 482 481
487 1 435 443 486 445
488 1 435 443 486 485
489 1 436 445 486 443
490 1 436 445 486 485
491 1 435 447 482 441
492 1 435 447 482 481
493 1 436 450 552 512
494 1 436 450 552 551
495 1 435 452 836 798
496 1 435 452 836 475
497 2 896 458 547 544
498 2 896 458 547 476
499 2 490 458 547 544
500 2 490 458 547 476
501 2 547 458 896 991
502 2 547 458 896 928
503 2 490 458 896 991
504 2 490 458 896 928
505 2 479 460 30 51
506 2 479 460 30 62
507 2 492 460 30 51
508 2 492 460 30 62
509 2 30 460 479 830
510 2 30 460 479 480
511 2 492 460 479 830
512 2 492 460 479 480
513 2 1323 461 481 467
514 2 1323 461 481 482
515 2 493 461 481 467
516 2 493 461 481 482
517 2 457 463 485 465
518 2 457 463 485 486
519 2 495 463 485 465
520 2 495 463 485 486
521 2 485 465 471 473
522 2 485 465 471 503
523 2 497 465 471 473
524 2 497 465 471 503
525 2 471 465 485 463
526 2 471 465 485 486
527 2 497 465 485 463
528 2 497 465 485 486
529 2 1333 467 481 461
530 2 1333 467 481 482
531 2 499 467 481 461
532 2 499 467 481 482
533 2 481 467 1333 1341
534 2 481 467 1333 1365
535 2 499 467 1333 1341
536 2 499 467 1333 1365
537 2 36 470 551 532
538 2 36 470 551 552
539 2 502 470 551 532
540 2 502 470 551 552
541 2 898 472 475 818
542 2 898 472 475 836
543 2 504 472 475 818
544 2 504 472 475 836
545 3 460 479 480 440
546 3 460 479 480 810
547 3 830 479 480 440
548 3 830 479 480 810
549 3 461 481 482 441
550 3 461 481 482 447
551 3 467 481 482 441
552 3 467 481 482 447
553 3 463 485 486 443
554 3 463 485 486 445
555 3 465 485 486 443
556 3 465 485 486 445
557 1 507 512 552 450
558 1 507 512 552 551
559 1 507 515 558 517
560 1 507 515 558 557
561 1 507 519 554 513
562 1 507 519 554 553
563 1 507 524 476 438
564 1 507 524 476 547
565 2 551 532 102 123
566 2 551 532 102 134
567 2 564 532 102 123
568 2 564 532 102 134
569 2 102 532 551 470
570 2 102 532 551 552
571 2 564 532 551 470
572 2 564 532 551 552
573 2 529 535 557 537
574 2 529 535 557 558
575 2 567 535 557 537
576 2 567 535 557 558
577 2 1405 539 553 533
578 2 1405 539 553 554
579 2 571 539 553 533
580 2 571 539 553 554
581 2 553 539 1405 1413
582 2 553 539 1405 1437
583 2 571 539 1405 1413
584 2 571 539 1405 1437
585 2 970 544 547 458
586 2 970 544 547 476
587 2 576 544 547 458
588 2 576 544 547 476
589 3 458 547 476 438
590 3 458 547 476 524
591 3 544 547 476 438
592 3 544 547 476 524
593 3 532 551 552 512
594 3 532 551 552 450
595 3 470 551 552 512
596 3 470 551 552 450
597 3 533 553 554 513
598 3 533 553 554 519
599 3 539 553 554 513
600 3 539 553 554 519
601 1 508 510 548 596
602 1 508 510 548 619
603 1 508 513 554 519
604 1 508 513 554 553
605 1 508 517 558 515
606 1 508 517 558 557
607 1 508 522 624 584
608 1 508 522 624 623
609 3 602 691 620 582
610 3 602 691 620 668
611 3 688 691 620 582
612 3 688 691 620 668
613 2 968 530 619 616
614 2 968 530 619 548
615 2 562 530 619 616
616 2 562 530 619 548
617 2 619 530 968 1063
618 2 619 530 968 1000
619 2 562 530 968 1063
620 2 562 530 968 1000
621 2 1395 533 553 539
622 2 1395 533 553 554
623 2 565 533 553 539
624 2 565 533 553 554
625 2 557 537 543 545
626 2 557 537 543 575
627 2 569 537 543 545
628 2 569 537 543 575
629 2 543 537 557 535
630 2 543 537 557 558
631 2 569 537 557 535
632 2 569 537 557 558
633 2 108 542 623 604
634 2 108 542 623 624
635 2 574 542 623 604
636 2 574 542 623 624
637 3 535 557 558 515
638 3 535 557 558 517
639 3 537 557 558 515
640 3 537 557 558 517
641 1 580 582 620 668
642 1 580 582 620 691
643 1 579 584 624 522
644 1 579 584 624 623
645 1 580 585 626 591
646 1 580 585 626 625
647 1 579 587 630 589
648 1 579 587 630 629
649 1 580 589 630 587
650 1 580 589 630 629
651 1 579 591 626 585
652 1 579 591 626 625
653 1 580 594 696 656
654 1 580 594 696 695
655 1 579 596 548 510
656 1 579 596 548 619
657 2 1040 602 691 688
658 2 1040 602 691 620
659 2 634 602 691 688
660 2 634 602 691 620
661 2 691 602 1040 1135
662 2 691 602 1040 1072
663 2 634 602 1040 1135
664 2 634 602 1040 1072
665 2 623 604 174 195
666 2 623 604 174 206
667 2 636 604 174 195
668 2 636 604 174 206
669 2 174 604 623 542
670 2 174 604 623 624
671 2 636 604 623 542
672 2 636 604 623 624
673 2 1467 605 625 611
674 2 1467 605 625 626
675 2 637 605 625 611
676 2 637 605 625 626
677 2 601 607 629 609
678 2 601 607 629 630
679 2 639 607 629 609
680 2 639 607 629 630
681 2 629 609 615 617
682 2 629 609 615 647
683 2 641 609 615 617
684 2 641 609 615 647
685 2 615 609 629 607
686 2 615 609 629 630
687 2 641 609 629 607
688 2 641 609 629 630
689 2 1477 611 625 605
690 2 1477 611 625 626
691 2 643 611 625 605
692 2 643 611 625 626
693 2 625 611 1477 1485
694 2 625 611 1477 1509
695 2 643 611 1477 1485
696 2 643 611 1477 1509
697 2 180 614 695 676
698 2 180 614 695 696
699 2 646 614 695 676
700 2 646 614 695 696
701 2 1042 616 619 530
702 2 1042 616 619 548
703 2 648 616 619 530
704 2 648 616 619 548
705 3 530 619 548 510
706 3 530 619 548 596
707 3 616 619 548 510
708 3 616 619 548 596
709 3 604 623 624 584
710 3 604 623 624 522
711 3 542 623 624 584
712 3 542 623 624 522
713 3 605 625 626 585
714 3 605 625 626 591
715 3 611 625 626 585
716 3 611 625 626 591
717 3 607 629 630 587
718 3 607 629 630 589
719 3 609 629 630 587
720 3 609 629 630 589
721 1 652 654 692 740
722 1 652 654 692 763
723 1 651 656 696 594
724 1 651 656 696 695
725 1 652 657 698 663
726 1 652 657 698 697
727 1 651 659 702 661
728 1 651 659 702 701
729 1 652 661 702 659
730 1 652 661 702 701
731 1 651 663 698 657
732 1 651 663 698 697
733 1 652 666 768 728
734 1 652 666 768 767
735 1 651 668 620 582
736 1 651 668 620 691
737 2 1112 674 763 760
738 2 1112 674 763 692
739 2 706 674 763 760
740 2 706 674 763 692
741 2 763 674 1112 1207
742 2 763 674 1112 1144
743 2 706 674 1112 1207
744 2 706 674 1112 1144
745 2 695 676 246 267
746 2 695 676 246 278
747 2 708 676 246 267
748 2 708 676 246 278
749 2 246 676 695 614
750 2 246 676 695 696
751 2 708 676 695 614
752 2 708 676 695 696
753 2 1539 677 697 683
754 2 1539 677 697 698
755 2 709 677 697 683
756 2 709 677 697 698
757 2 673 679 701 681
758 2 673 679 701 702
759 2 711 679 701 681
760 2 711 679 701 702
761 2 701 681 687 689
762 2 701 681 687 719
763 2 713 681 687 689
764 2 713 681 687 719
765 2 687 681 701 679
766 2 687 681 701 702
767 2 713 681 701 679
768 2 713 681 701 702
769 2 1549 683 697 677
770 2 1549 683 697 698
771 2 715 683 697 677
772 2 715 683 697 698
773 2 697 683 1549 1557
774 2 697 683 1549 1581
775 2 715 683 1549 1557
776 2 715 683 1549 1581
777 2 252 686 767 748
778 2 252 686 767 768
779 2 718 686 767 748
780 2 718 686 767 768
781 2 1114 688 691 602
782 2 1114 688 691 620
783 2 720 688 691 602
784 2 720 688 691 620
785 3 676 695 696 656
786 3 676 695 696 594
787 3 614 695 696 656
788 3 614 695 696 594
789 3 677 697 698 657
790 3 677 697 698 663
791 3 683 697 698 657
792 3 683 697 698 663
793 3 679 701 702 659
794 3 679 701 702 661
795 3 681 701 702 659
796 3 681 701 702 661
797 1 723 728 768 666
798 1 723 728 768 767
799 1 723 731 774 733
800 1 723 731 774 773
801 1 723 735 770 729
802 1 723 735 770 769
803 1 723 740 692 654
804 1 723 740 692 763
805 2 767 748 318 339
806 2 767 748 318 350
807 2 780 748 318 339
808 2 780 748 318 350
809 2 318 748 767 686
810 2 318 748 767 768
811 2 780 748 767 686
812 2 780 748 767 768
813 2 745 751 773 753
814 2 745 751 773 774
815 2 783 751 773 753
816 2 783 751 773 774
817 2 1621 755 769 749
818 2 1621 755 769 770
819 2 787 755 769 749
820 2 787 755 769 770
821 2 769 755 1621 1629
822 2 769 755 1621 1653
823 2 787 755 1621 1629
824 2 787 755 1621 1653
825 2 1186 760 763 674
826 2 1186 760 763 692
827 2 792 760 763 674
828 2 792 760 763 692
829 3 674 763 692 654
830 3 674 763 692 740
831 3 760 763 692 654
832 3 760 763 692 740
833 3 748 767 768 728
834 3 748 767 768 666
835 3 686 767 768 728
836 3 686 767 768 666
837 3 749 769 770 729
838 3 749 769 770 735
839 3 755 769 770 729
840 3 755 769 770 735
841 3 818 475 836 798
842 3 818 475 836 452
843 3 472 475 836 798
844 3 472 475 836 452
845 1 724 726 764 812
846 1 724 726 764 835
847 1 724 729 770 735
848 1 724 729 770 769
849 1 724 733 774 731
850 1 724 733 774 773
851 1 724 738 840 800
852 1 724 738 840 839
853 2 1184 746 835 832
854 2 1184 746 835 764
855 2 778 746 835 832
856 2 778 746 835 764
857 2 835 746 1184 1279
858 2 835 746 1184 1216
859 2 778 746 1184 1279
860 2 778 746 1184 1216
861 2 1611 749 769 755
862 2 1611 749 769 770
863 2 781 749 769 755
864 2 781 749 769 770
865 2 773 753 759 761
866 2 773 753 759 791
867 2 785 753 759 761
868 2 785 753 759 791
869 2 759 753 773 751
870 2 759 753 773 774
871 2 785 753 773 751
872 2 785 753 773 774
873 2 324 758 839 820
874 2 324 758 839 840
875 2 790 758 839 820
876 2 790 758 839 840
877 3 751 773 774 731
878 3 751 773 774 733
879 3 753 773 774 731
880 3 753 773 774 733
881 1 796 798 836 452
882 1 796 798 836 475
883 1 795 800 840 738
884 1 795 800 840 839
885 1 796 801 842 807
886 1 796 801 842 841
887 1 795 803 846 805
888 1 795 803 846 845
889 1 796 805 846 803
890 1 796 805 846 845
891 1 795 807 842 801
892 1 795 807 842 841
893 1 796 810 480 440
894 1 796 810 480 479
895 1 795 812 764 726
896 1 795 812 764 835
897 2 1256 818 475 472
898 2 1256 818 475 836
899 2 850 818 475 472
900 2 850 818 475 836
901 2 475 818 1256 919
902 2 475 818 1256 1288
903 2 850 818 1256 919
904 2 850 818 1256 1288
905 2 839 820 390 411
906 2 839 820 390 422
907 2 852 820 390 411
908 2 852 820 390 422
909 2 390 820 839 758
910 2 390 820 839 840
911 2 852 820 839 758
912 2 852 820 839 840
913 2 1683 821 841 827
914 2 1683 821 841 842
915 2 853 821 841 827
916 2 853 821 841 842
917 2 817 823 845 825
918 2 817 823 845 846
919 2 855 823 845 825
920 2 855 823 845 846
921 2 845 825 831 833
922 2 845 825 831 863
923 2 857 825 831 833
924 2 857 825 831 863
925 2 831 825 845 823
926 2 831 825 845 846
927 2 857 825 845 823
928 2 857 825 845 846
929 2 1693 827 841 821
930 2 1693 827 841 842
931 2 859 827 841 821
932 2 859 827 841 842
933 2 841 827 1693 1701
934 2 841 827 1693 1725
935 2 859 827 1693 1701
936 2 859 827 1693 1725
937 2 396 830 479 460
938 2 396 830 479 480
939 2 862 830 479 460
940 2 862 830 479 480
941 2 1258 832 835 746
942 2 1258 832 835 764
943 2 864 832 835 746
944 2 864 832 835 764
945 3 746 835 764 726
946 3 746 835 764 812
947 3 832 835 764 726
948 3 832 835 764 812
949 3 820 839 840 800
950 3 820 839 840 738
951 3 758 839 840 800
952 3 758 839 840 738
953 3 821 841 842 801
954 3 821 841 842 807
955 3 827 841 842 801
956 3 827 841 842 807
957 3 823 845 846 803
958 3 823 845 846 805
959 3 825 845 846 803
960 3 825 845 846 805
961 1 1 5 42 19
962 1 1 5 42 41
963 1 2 7 46 17
964 1 2 7 46 45
965 1 1 10 412 376
966 1 1 10 412 51
967 1 2 12 128 86
968 1 2 12 128 127
969 1 1 14 56 372
970 1 1 14 56 55
971 1 2 16 52 82
972 1 2 16 52 123
973 1 1 17 46 7
974 1 1 17 46 45
975 1 2 19 42 5
976 1 2 19 42 41
977 2 41 25 31 53
978 2 41 25 31 63
979 2 57 25 31 53
980 2 57 25 31 63
981 2 31 25 41 39
982 2 31 25 41 42
983 2 57 25 41 39
984 2 57 25 41 42
985 2 893 27 45 37
986 2 893 27 45 46
987 2 59 27 45 37
988 2 59 27 45 46
989 2 45 27 893 913
990 2 45 27 893 925
991 2 59 27 893 913
992 2 59 27 893 925
993 2 460 30 51 396
994 2 460 30 51 412
995 2 62 30 51 396
996 2 62 30 51 412
997 2 1322 32 127 106
998 2 1322 32 127 128
999 2 64 32 127 106
1000 2 64 32 127 128
1001 2 1336 34 55 392
1002 2 1336 34 55 56
1003 2 66 34 55 392
1004 2 66 34 55 56
1005 2 55 34 1336 1339
1006 2 55 34 1336 1368
1007 2 66 34 1336 1339
1008 2 66 34 1336 1368
1009 2 470 36 123 102
1010 2 470 36 123 52
1011 2 68 36 123 102
1012 2 68 36 123 52
1013 2 123 36 470 551
1014 2 123 36 470 502
1015 2 68 36 470 551
1016 2 68 36 470 502
1017 2 899 37 45 27
1018 2 899 37 45 46
1019 2 69 37 45 27
1020 2 69 37 45 46
1021 2 33 39 41 25
1022 2 33 39 41 42
1023 2 71 39 41 25
1024 2 71 39 41 42
1025 3 25 41 42 5
1026 3 25 41 42 19
1027 3 39 41 42 5
1028 3 39 41 42 19
1029 3 27 45 46 7
1030 3 27 45 46 17
1031 3 37 45 46 7
1032 3 37 45 46 17
1033 3 392 55 56 372
1034 3 392 55 56 14
1035 3 34 55 56 372
1036 3 34 55 56 14
1037 1 73 77 114 91
1038 1 73 77 114 113
1039 1 73 82 52 16
1040 1 73 82 52 123
1041 1 73 86 128 12
1042 1 73 86 128 127
1043 1 73 89 118 79
1044 1 73 89 118 117
1045 2 113 97 103 125
1046 2 113 97 103 135
1047 2 129 97 103 125
1048 2 129 97 103 135
1049 2 103 97 113 111
1050 2 103 97 113 114
1051 2 129 97 113 111
1052 2 129 97 113 114
1053 2 532 102 123 36
1054 2 532 102 123 52
1055 2 134 102 123 36
1056 2 134 102 123 52
1057 2 1408 106 127 32
1058 2 1408 106 127 128
1059 2 138 106 127 32
1060 2 138 106 127 128
1061 2 127 106 1408 1411
1062 2 127 106 1408 1440
1063 2 138 106 1408 1411
1064 2 138 106 1408 1440
1065 2 971 109 117 99
1066 2 971 109 117 118
1067 2 141 109 117 99
1068 2 141 109 117 118
1069 3 97 113 114 77
1070 3 97 113 114 91
1071 3 111 113 114 77
1072 3 111 113 114 91
1073 3 102 123 52 82
1074 3 102 123 52 16
1075 3 36 123 52 82
1076 3 36 123 52 16
1077 3 32 127 128 12
1078 3 32 127 128 86
1079 3 106 127 128 12
1080 3 106 127 128 86
1081 1 74 79 118 89
1082 1 74 79 118 117
1083 1 74 84 200 158
1084 1 74 84 200 199
1085 1 74 88 124 154
1086 1 74 88 124 195
1087 1 74 91 114 77
1088 1 74 91 114 113
1089 3 246 267 196 226
1090 3 246 267 196 160
1091 3 180 267 196 226
1092 3 180 267 196 160
1093 2 965 99 117 109
1094 2 965 99 117 118
1095 2 131 99 117 109
1096 2 131 99 117 118
1097 2 117 99 965 985
1098 2 117 99 965 997
1099 2 131 99 965 985
1100 2 131 99 965 997
1101 2 1394 104 199 178
1102 2 1394 104 199 200
1103 2 136 104 199 178
1104 2 136 104 199 200
1105 2 542 108 195 174
1106 2 542 108 195 124
1107 2 140 108 195 174
1108 2 140 108 195 124
1109 2 195 108 542 623
1110 2 195 108 542 574
1111 2 140 108 542 623
1112 2 140 108 542 574
1113 2 105 111 113 97
1114 2 105 111 113 114
1115 2 143 111 113 97
1116 2 143 111 113 114
1117 3 99 117 118 79
1118 3 99 117 118 89
1119 3 109 117 118 79
1120 3 109 117 118 89
1121 1 145 149 186 163
1122 1 145 149 186 185
1123 1 146 151 190 161
1124 1 146 151 190 189
1125 1 145 154 124 88
1126 1 145 154 124 195
1127 1 146 156 272 230
1128 1 146 156 272 271
1129 1 145 158 200 84
1130 1 145 158 200 199
1131 1 146 160 196 226
1132 1 146 160 196 267
1133 1 145 161 190 151
1134 1 145 161 190 189
1135 1 146 163 186 149
1136 1 146 163 186 185
1137 2 185 169 175 197
1138 2 185 169 175 207
1139 2 201 169 175 197
1140 2 201 169 175 207
1141 2 175 169 185 183
1142 2 175 169 185 186
1143 2 201 169 185 183
1144 2 201 169 185 186
1145 2 1037 171 189 181
1146 2 1037 171 189 190
1147 2 203 171 189 181
1148 2 203 171 189 190
1149 2 189 171 1037 1057
1150 2 189 171 1037 1069
1151 2 203 171 1037 1057
1152 2 203 171 1037 1069
1153 2 604 174 195 108
1154 2 604 174 195 124
1155 2 206 174 195 108
1156 2 206 174 195 124
1157 2 1466 176 271 250
1158 2 1466 176 271 272
1159 2 208 176 271 250
1160 2 208 176 271 272
1161 2 1480 178 199 104
1162 2 1480 178 199 200
1163 2 210 178 199 104
1164 2 210 178 199 200
1165 2 199 178 1480 1483
1166 2 199 178 1480 1512
1167 2 210 178 1480 1483
1168 2 210 178 1480 1512
1169 2 614 180 267 246
1170 2 614 180 267 196
1171 2 212 180 267 246
1172 2 212 180 267 196
1173 2 267 180 614 695
1174 2 267 180 614 646
1175 2 212 180 614 695
1176 2 212 180 614 646
1177 2 1043 181 189 171
1178 2 1043 181 189 190
1179 2 213 181 189 171
1180 2 213 181 189 190
1181 2 177 183 185 169
1182 2 177 183 185 186
1183 2 215 183 185 169
1184 2 215 183 185 186
1185 3 169 185 186 149
1186 3 169 185 186 163
1187 3 183 185 186 149
1188 3 183 185 186 163
1189 3 171 189 190 151
1190 3 171 189 190 161
1191 3 181 189 190 151
1192 3 181 189 190 161
1193 3 174 195 124 154
1194 3 174 195 124 88
1195 3 108 195 124 154
1196 3 108 195 124 88
1197 3 104 199 200 84
1198 3 104 199 200 158
1199 3 178 199 200 84
1200 3 178 199 200 158
1201 1 217 221 258 235
1202 1 217 221 258 257
1203 1 218 223 262 233
1204 1 218 223 262 261
1205 1 217 226 196 160
1206 1 217 226 196 267
1207 1 218 228 344 302
1208 1 218 228 344 343
1209 1 217 230 272 156
1210 1 217 230 272 271
1211 1 218 232 268 298
1212 1 218 232 268 339
1213 1 217 233 262 223
1214 1 217 233 262 261
1215 1 218 235 258 221
1216 1 218 235 258 257
1217 2 257 241 247 269
1218 2 257 241 247 279
1219 2 273 241 247 269
1220 2 273 241 247 279
1221 2 247 241 257 255
1222 2 247 241 257 258
1223 2 273 241 257 255
1224 2 273 241 257 258
1225 2 1109 243 261 253
1226 2 1109 243 261 262
1227 2 275 243 261 253
1228 2 275 243 261 262
1229 2 261 243 1109 1129
1230 2 261 243 1109 1141
1231 2 275 243 1109 1129
1232 2 275 243 1109 1141
1233 2 676 246 267 180
1234 2 676 246 267 196
1235 2 278 246 267 180
1236 2 278 246 267 196
1237 2 1538 248 343 322
1238 2 1538 248 343 344
1239 2 280 248 343 322
1240 2 280 248 343 344
1241 2 1552 250 271 176
1242 2 1552 250 271 272
1243 2 282 250 271 176
1244 2 282 250 271 272
1245 2 271 250 1552 1555
1246 2 271 250 1552 1584
1247 2 282 250 1552 1555
1248 2 282 250 1552 1584
1249 2 686 252 339 318
1250 2 686 252 339 268
1251 2 284 252 339 318
1252 2 284 252 339 268
1253 2 339 252 686 767
1254 2 339 252 686 718
1255 2 284 252 686 767
1256 2 284 252 686 718
1257 2 1115 253 261 243
1258 2 1115 253 261 262
1259 2 285 253 261 243
1260 2 285 253 261 262
1261 2 249 255 257 241
1262 2 249 255 257 258
1263 2 287 255 257 241
1264 2 287 255 257 258
1265 3 241 257 258 221
1266 3 241 257 258 235
1267 3 255 257 258 221
1268 3 255 257 258 235
1269 3 243 261 262 223
1270 3 243 261 262 233
1271 3 253 261 262 223
1272 3 253 261 262 233
1273 3 176 271 272 156
1274 3 176 271 272 230
1275 3 250 271 272 156
1276 3 250 271 272 230
1277 1 289 293 330 307
1278 1 289 293 330 329
1279 1 289 298 268 232
1280 1 289 298 268 339
1281 1 289 302 344 228
1282 1 289 302 344 343
1283 1 289 305 334 295
1284 1 289 305 334 333
1285 2 329 313 319 341
1286 2 329 313 319 351
1287 2 345 313 319 341
1288 2 345 313 319 351
1289 2 319 313 329 327
1290 2 319 313 329 330
1291 2 345 313 329 327
1292 2 345 313 329 330
1293 2 748 318 339 252
1294 2 748 318 339 268
1295 2 350 318 339 252
1296 2 350 318 339 268
1297 2 1624 322 343 248
1298 2 1624 322 343 344
1299 2 354 322 343 248
1300 2 354 322 343 344
1301 2 343 322 1624 1627
1302 2 343 322 1624 1656
1303 2 354 322 1624 1627
1304 2 354 322 1624 1656
1305 2 1187 325 333 315
1306 2 1187 325 333 334
1307 2 357 325 333 315
1308 2 357 325 333 334
1309 3 313 329 330 293
1310 3 313 329 330 307
1311 3 327 329 330 293
1312 3 327 329 330 307
1313 3 318 339 268 298
1314 3 318 339 268 232
1315 3 252 339 268 298
1316 3 252 339 268 232
1317 3 248 343 344 228
1318 3 248 343 344 302
1319 3 322 343 344 228
1320 3 322 343 344 302
1321 3 30 51 412 10
1322 3 30 51 412 376
1323 3 396 51 412 10
1324 3 396 51 412 376
1325 1 290 295 334 305
1326 1 290 295 334 333
1327 1 290 300 416 374
1328 1 290 300 416 415
1329 1 290 304 340 370
1330 1 290 304 340 411
1331 1 290 307 330 293
1332 1 290 307 330 329
1333 2 1181 315 333 325
1334 2 1181 315 333 334
1335 2 347 315 333 325
1336 2 347 315 333 334
1337 2 333 315 1181 1201
1338 2 333 315 1181 1213
1339 2 347 315 1181 1201
1340 2 347 315 1181 1213
1341 2 1610 320 415 394
1342 2 1610 320 415 416
1343 2 352 320 415 394
1344 2 352 320 415 416
1345 2 758 324 411 390
1346 2 758 324 411 340
1347 2 356 324 411 390
1348 2 356 324 411 340
1349 2 411 324 758 839
1350 2 411 324 758 790
1351 2 356 324 758 839
1352 2 356 324 758 790
1353 2 321 327 329 313
1354 2 321 327 329 330
1355 2 359 327 329 313
1356 2 359 327 329 330
1357 3 315 333 334 295
1358 3 315 333 334 305
1359 3 325 333 334 295
1360 3 325 333 334 305
1361 1 361 365 402 379
1362 1 361 365 402 401
1363 1 362 367 406 377
1364 1 362 367 406 405
1365 1 361 370 340 304
1366 1 361 370 340 411
1367 1 362 372 56 14
1368 1 362 372 56 55
1369 1 361 374 416 300
1370 1 361 374 416 415
1371 1 362 376 412 10
1372 1 362 376 412 51
1373 1 361 377 406 367
1374 1 361 377 406 405
1375 1 362 379 402 365
1376 1 362 379 402 401
1377 2 401 385 391 413
1378 2 401 385 391 423
1379 2 417 385 391 413
1380 2 417 385 391 423
1381 2 391 385 401 399
1382 2 391 385 401 402
1383 2 417 385 401 399
1384 2 417 385 401 402
1385 2 1253 387 405 397
1386 2 1253 387 405 406
1387 2 419 387 405 397
1388 2 419 387 405 406
1389 2 405 387 1253 1273
1390 2 405 387 1253 1285
1391 2 419 387 1253 1273
1392 2 419 387 1253 1285
1393 2 820 390 411 324
1394 2 820 390 411 340
1395 2 422 390 411 324
1396 2 422 390 411 340
1397 2 1682 392 55 34
1398 2 1682 392 55 56
1399 2 424 392 55 34
1400 2 424 392 55 56
1401 2 1696 394 415 320
1402 2 1696 394 415 416
1403 2 426 394 415 320
1404 2 426 394 415 416
1405 2 415 394 1696 1699
1406 2 415 394 1696 1728
1407 2 426 394 1696 1699
1408 2 426 394 1696 1728
1409 2 830 396 51 30
1410 2 830 396 51 412
1411 2 428 396 51 30
1412 2 428 396 51 412
1413 2 51 396 830 479
1414 2 51 396 830 862
1415 2 428 396 830 479
1416 2 428 396 830 862
1417 2 1259 397 405 387
1418 2 1259 397 405 406
1419 2 429 397 405 387
1420 2 429 397 405 406
1421 2 393 399 401 385
1422 2 393 399 401 402
1423 2 431 399 401 385
1424 2 431 399 401 402
1425 3 385 401 402 365
1426 3 385 401 402 379
1427 3 399 401 402 365
1428 3 399 401 402 379
1429 3 387 405 406 367
1430 3 387 405 406 377
1431 3 397 405 406 367
1432 3 397 405 406 377
1433 3 390 411 340 370
1434 3 390 411 340 304
1435 3 324 411 340 370
1436 3 324 411 340 304
1437 3 320 415 416 300
1438 3 320 415 416 374
1439 3 394 415 416 300
1440 3 394 415 416 374
1441 1 433 437 474 451
1442 1 433 437 474 473
1443 1 434 439 478 449
1444 1 434 439 478 477
1445 1 433 442 844 808
1446 1 433 442 844 483
1447 1 434 444 560 518
1448 1 434 444 560 559
1449 1 433 446 488 804
1450 1 433 446 488 487
1451 1 434 448 484 514
1452 1 434 448 484 555
1453 1 433 449 478 439
1454 1 433 449 478 477
1455 1 434 451 474 437
1456 1 434 451 474 473
1457 2 473 457 463 485
1458 2 473 457 463 495
1459 2 489 457 463 485
1460 2 489 457 463 495
1461 2 463 457 473 471
1462 2 463 457 473 474
1463 2 489 457 473 471
1464 2 489 457 473 474
1465 2 1325 459 477 469
1466 2 1325 459 477 478
1467 2 491 459 477 469
1468 2 491 459 477 478
1469 2 477 459 1325 1345
1470 2 477 459 1325 1357
1471 2 491 459 1325 1345
1472 2 491 459 1325 1357
1473 2 28 462 483 828
1474 2 28 462 483 844
1475 2 494 462 483 828
1476 2 494 462 483 844
1477 2 890 464 559 538
1478 2 890 464 559 560
1479 2 496 464 559 538
1480 2 496 464 559 560
1481 2 904 466 487 824
1482 2 904 466 487 488
1483 2 498 466 487 824
1484 2 498 466 487 488
1485 2 487 466 904 907
1486 2 487 466 904 936
1487 2 498 466 904 907
1488 2 498 466 904 936
1489 2 555 468 38 119
1490 2 555 468 38 70
1491 2 500 468 38 119
1492 2 500 468 38 70
1493 2 38 468 555 534
1494 2 38 468 555 484
1495 2 500 468 555 534
1496 2 500 468 555 484
1497 2 1331 469 477 459
1498 2 1331 469 477 478
1499 2 501 469 477 459
1500 2 501 469 477 478
1501 2 465 471 473 457
1502 2 465 471 473 474
1503 2 503 471 473 457
1504 2 503 471 473 474
1505 3 457 473 474 437
1506 3 457 473 474 451
1507 3 471 473 474 437
1508 3 471 473 474 451
1509 3 459 477 478 439
1510 3 459 477 478 449
1511 3 469 477 478 439
1512 3 469 477 478 449
1513 3 824 487 488 804
1514 3 824 487 488 446
1515 3 466 487 488 804
1516 3 466 487 488 446
1517 1 505 509 546 523
1518 1 505 509 546 545
1519 1 505 514 484 448
1520 1 505 514 484 555
1521 1 505 518 560 444
1522 1 505 518 560 559
1523 1 505 521 550 511
1524 1 505 521 550 549
1525 2 545 529 535 557
1526 2 545 529 535 567
1527 2 561 529 535 557
1528 2 561 529 535 567
1529 2 535 529 545 543
1530 2 535 529 545 546
1531 2 561 529 545 543
1532 2 561 529 545 546
1533 2 100 534 555 468
1534 2 100 534 555 484
1535 2 566 534 555 468
1536 2 566 534 555 484
1537 2 976 538 559 464
1538 2 976 538 559 560
1539 2 570 538 559 464
1540 2 570 538 559 560
1541 2 559 538 976 979
1542 2 559 538 976 1008
1543 2 570 538 976 979
1544 2 570 538 976 1008
1545 2 1403 541 549 531
1546 2 1403 541 549 550
1547 2 573 541 549 531
1548 2 573 541 549 550
1549 3 529 545 546 509
1550 3 529 545 546 523
1551 3 543 545 546 509
1552 3 543 545 546 523
1553 3 534 555 484 514
1554 3 534 555 484 448
1555 3 468 555 484 514
1556 3 468 555 484 448
1557 3 464 559 560 444
1558 3 464 559 560 518
1559 3 538 559 560 444
1560 3 538 559 560 518
1561 1 506 511 550 521
1562 1 506 511 550 549
1563 1 506 516 632 590
1564 1 506 516 632 631
1565 1 506 520 556 586
1566 1 506 520 556 627
1567 1 506 523 546 509
1568 1 506 523 546 545
1569 3 678 699 628 658
1570 3 678 699 628 592
1571 3 612 699 628 658
1572 3 612 699 628 592
1573 2 1397 531 549 541
1574 2 1397 531 549 550
1575 2 563 531 549 541
1576 2 563 531 549 550
1577 2 549 531 1397 1417
1578 2 549 531 1397 1429
1579 2 563 531 1397 1417
1580 2 563 531 1397 1429
1581 2 962 536 631 610
1582 2 962 536 631 632
1583 2 568 536 631 610
1584 2 568 536 631 632
1585 2 627 540 110 191
1586 2 627 540 110 142
1587 2 572 540 110 191
1588 2 572 540 110 142
1589 2 110 540 627 606
1590 2 110 540 627 556
1591 2 572 540 627 606
1592 2 572 540 627 556
1593 2 537 543 545 529
1594 2 537 543 545 546
1595 2 575 543 545 529
1596 2 575 543 545 546
1597 3 531 549 550 511
1598 3 531 549 550 521
1599 3 541 549 550 511
1600 3 541 549 550 521
1601 1 577 581 618 595
1602 1 577 581 618 617
1603 1 578 583 622 593
1604 1 578 583 622 621
1605 1 577 586 556 520
1606 1 577 586 556 627
1607 1 578 588 704 662
1608 1 578 588 704 703
1609 1 577 590 632 516
1610 1 577 590 632 631
1611 1 578 592 628 658
1612 1 578 592 628 699
1613 1 577 593 622 583
1614 1 577 593 622 621
1615 1 578 595 618 581
1616 1 578 595 618 617
1617 2 617 601 607 629
1618 2 617 601 607 639
1619 2 633 601 607 629
1620 2 633 601 607 639
1621 2 607 601 617 615
1622 2 607 601 617 618
1623 2 633 601 617 615
1624 2 633 601 617 618
1625 2 1469 603 621 613
1626 2 1469 603 621 622
1627 2 635 603 621 613
1628 2 635 603 621 622
1629 2 621 603 1469 1489
1630 2 621 603 1469 1501
1631 2 635 603 1469 1489
1632 2 635 603 1469 1501
1633 2 172 606 627 540
1634 2 172 606 627 556
1635 2 638 606 627 540
1636 2 638 606 627 556
1637 2 1034 608 703 682
1638 2 1034 608 703 704
1639 2 640 608 703 682
1640 2 640 608 703 704
1641 2 1048 610 631 536
1642 2 1048 610 631 632
1643 2 642 610 631 536
1644 2 642 610 631 632
1645 2 631 610 1048 1051
1646 2 631 610 1048 1080
1647 2 642 610 1048 1051
1648 2 642 610 1048 1080
1649 2 699 612 182 263
1650 2 699 612 182 214
1651 2 644 612 182 263
1652 2 644 612 182 214
1653 2 182 612 699 678
1654 2 182 612 699 628
1655 2 644 612 699 678
1656 2 644 612 699 628
1657 2 1475 613 621 603
1658 2 1475 613 621 622
1659 2 645 613 621 603
1660 2 645 613 621 622
1661 2 609 615 617 601
1662 2 609 615 617 618
1663 2 647 615 617 601
1664 2 647 615 617 618
1665 3 601 617 618 581
1666 3 601 617 618 595
1667 3 615 617 618 581
1668 3 615 617 618 595
1669 3 603 621 622 583
1670 3 603 621 622 593
1671 3 613 621 622 583
1672 3 613 621 622 593
1673 3 606 627 556 586
1674 3 606 627 556 520
1675 3 540 627 556 586
1676 3 540 627 556 520
1677 3 536 631 632 516
1678 3 536 631 632 590
1679 3 610 631 632 516
1680 3 610 631 632 590
1681 1 649 653 690 667
1682 1 649 653 690 689
1683 1 650 655 694 665
1684 1 650 655 694 693
1685 1 649 658 628 592
1686 1 649 658 628 699
1687 1 650 660 776 734
1688 1 650 660 776 775
1689 1 649 662 704 588
1690 1 649 662 704 703
1691 1 650 664 700 730
1692 1 650 664 700 771
1693 1 649 665 694 655
1694 1 649 665 694 693
1695 1 650 667 690 653
1696 1 650 667 690 689
1697 2 689 673 679 701
1698 2 689 673 679 711
1699 2 705 673 679 701
1700 2 705 673 679 711
1701 2 679 673 689 687
1702 2 679 673 689 690
1703 2 705 673 689 687
1704 2 705 673 689 690
1705 2 1541 675 693 685
1706 2 1541 675 693 694
1707 2 707 675 693 685
1708 2 707 675 693 694
1709 2 693 675 1541 1561
1710 2 693 675 1541 1573
1711 2 707 675 1541 1561
1712 2 707 675 1541 1573
1713 2 244 678 699 612
1714 2 244 678 699 628
1715 2 710 678 699 612
1716 2 710 678 699 628
1717 2 1106 680 775 754
1718 2 1106 680 775 776
1719 2 712 680 775 754
1720 2 712 680 775 776
1721 2 1120 682 703 608
1722 2 1120 682 703 704
1723 2 714 682 703 608
1724 2 714 682 703 704
1725 2 703 682 1120 1123
1726 2 703 682 1120 1152
1727 2 714 682 1120 1123
1728 2 714 682 1120 1152
1729 2 771 684 254 335
1730 2 771 684 254 286
1731 2 716 684 254 335
1732 2 716 684 254 286
1733 2 254 684 771 750
1734 2 254 684 771 700
1735 2 716 684 771 750
1736 2 716 684 771 700
1737 2 1547 685 693 675
1738 2 1547 685 693 694
1739 2 717 685 693 675
1740 2 717 685 693 694
1741 2 681 687 689 673
1742 2 681 687 689 690
1743 2 719 687 689 673
1744 2 719 687 689 690
1745 3 673 689 690 653
1746 3 673 689 690 667
1747 3 687 689 690 653
1748 3 687 689 690 667
1749 3 675 693 694 655
1750 3 675 693 694 665
1751 3 685 693 694 655
1752 3 685 693 694 665
1753 3 608 703 704 588
1754 3 608 703 704 662
1755 3 682 703 704 588
1756 3 682 703 704 662
1757 1 721 725 762 739
1758 1 721 725 762 761
1759 1 721 730 700 664
1760 1 721 730 700 771
1761 1 721 734 776 660
1762 1 721 734 776 775
1763 1 721 737 766 727
1764 1 721 737 766 765
1765 2 761 745 751 773
1766 2 761 745 751 783
1767 2 777 745 751 773
1768 2 777 745 751 783
1769 2 751 745 761 759
1770 2 751 745 761 762
1771 2 777 745 761 759
1772 2 777 745 761 762
1773 2 316 750 771 684
1774 2 316 750 771 700
1775 2 782 750 771 684
1776 2 782 750 771 700
1777 2 1192 754 775 680
1778 2 1192 754 775 776
1779 2 786 754 775 680
1780 2 786 754 775 776
1781 2 775 754 1192 1195
1782 2 775 754 1192 1224
1783 2 786 754 1192 1195
1784 2 786 754 1192 1224
1785 2 1619 757 765 747
1786 2 1619 757 765 766
1787 2 789 757 765 747
1788 2 789 757 765 766
1789 3 745 761 762 725
1790 3 745 761 762 739
1791 3 759 761 762 725
1792 3 759 761 762 739
1793 3 750 771 700 730
1794 3 750 771 700 664
1795 3 684 771 700 730
1796 3 684 771 700 664
1797 3 680 775 776 660
1798 3 680 775 776 734
1799 3 754 775 776 660
1800 3 754 775 776 734
1801 3 462 483 844 442
1802 3 462 483 844 808
1803 3 828 483 844 442
1804 3 828 483 844 808
1805 1 722 727 766 737
1806 1 722 727 766 765
1807 1 722 732 848 806
1808 1 722 732 848 847
1809 1 722 736 772 802
1810 1 722 736 772 843
1811 1 722 739 762 725
1812 1 722 739 762 761
1813 2 1613 747 765 757
1814 2 1613 747 765 766
1815 2 779 747 765 757
1816 2 779 747 765 766
1817 2 765 747 1613 1633
1818 2 765 747 1613 1645
1819 2 779 747 1613 1633
1820 2 779 747 1613 1645
1821 2 1178 752 847 826
1822 2 1178 752 847 848
1823 2 784 752 847 826
1824 2 784 752 847 848
1825 2 843 756 326 407
1826 2 843 756 326 358
1827 2 788 756 326 407
1828 2 788 756 326 358
1829 2 326 756 843 822
1830 2 326 756 843 772
1831 2 788 756 843 822
1832 2 788 756 843 772
1833 2 753 759 761 745
1834 2 753 759 761 762
1835 2 791 759 761 745
1836 2 791 759 761 762
1837 3 747 765 766 727
1838 3 747 765 766 737
1839 3 757 765 766 727
1840 3 757 765 766 737
1841 1 793 797 834 811
1842 1 793 797 834 833
1843 1 794 799 838 809
1844 1 794 799 838 837
1845 1 793 802 772 736
1846 1 793 802 772 843
1847 1 794 804 488 446
1848 1 794 804 488 487
1849 1 793 806 848 732
1850 1 793 806 848 847
1851 1 794 808 844 442
1852 1 794 808 844 483
1853 1 793 809 838 799
1854 1 793 809 838 837
1855 1 794 811 834 797
1856 1 794 811 834 833
1857 2 833 817 823 845
1858 2 833 817 823 855
1859 2 849 817 823 845
1860 2 849 817 823 855
1861 2 823 817 833 831
1862 2 823 817 833 834
1863 2 849 817 833 831
1864 2 849 817 833 834
1865 2 1685 819 837 829
1866 2 1685 819 837 838
1867 2 851 819 837 829
1868 2 851 819 837 838
1869 2 837 819 1685 1705
1870 2 837 819 1685 1717
1871 2 851 819 1685 1705
1872 2 851 819 1685 1717
1873 2 388 822 843 756
1874 2 388 822 843 772
1875 2 854 822 843 756
1876 2 854 822 843 772
1877 2 1250 824 487 466
1878 2 1250 824 487 488
1879 2 856 824 487 466
1880 2 856 824 487 488
1881 2 1264 826 847 752
1882 2 1264 826 847 848
1883 2 858 826 847 752
1884 2 858 826 847 848
1885 2 847 826 1264 1267
1886 2 847 826 1264 1296
1887 2 858 826 1264 1267
1888 2 858 826 1264 1296
1889 2 483 828 398 47
1890 2 483 828 398 430
1891 2 860 828 398 47
1892 2 860 828 398 430
1893 2 398 828 483 462
1894 2 398 828 483 844
1895 2 860 828 483 462
1896 2 860 828 483 844
1897 2 1691 829 837 819
1898 2 1691 829 837 838
1899 2 861 829 837 819
1900 2 861 829 837 838
1901 2 825 831 833 817
1902 2 825 831 833 834
1903 2 863 831 833 817
1904 2 863 831 833 834
1905 3 817 833 834 797
1906 3 817 833 834 811
1907 3 831 833 834 797
1908 3 831 833 834 811
1909 3 819 837 838 799
1910 3 819 837 838 809
1911 3 829 837 838 799
1912 3 829 837 838 809
1913 3 822 843 772 802
1914 3 822 843 772 736
1915 3 756 843 772 802
1916 3 756 843 772 736
1917 3 752 847 848 732
1918 3 752 847 848 806
1919 3 826 847 848 732
1920 3 826 847 848 806
1921 1 868 870 908 956
1922 1 868 870 908 979
1923 1 867 872 912 1242
1924 1 867 872 912 911
1925 1 868 873 914 879
1926 1 868 873 914 913
1927 1 867 875 918 877
1928 1 867 875 918 917
1929 1 868 877 918 875
1930 1 868 877 918 917
1931 1 867 879 914 873
1932 1 867 879 914 913
1933 1 868 882 984 944
1934 1 868 882 984 983
1935 1 867 884 1268 1230
1936 1 867 884 1268 907
1937 2 979 890 464 559
1938 2 979 890 464 496
1939 2 922 890 464 559
1940 2 922 890 464 496
1941 2 464 890 979 976
1942 2 464 890 979 908
1943 2 922 890 979 976
1944 2 922 890 979 908
1945 2 1326 892 911 1262
1946 2 1326 892 911 912
1947 2 924 892 911 1262
1948 2 924 892 911 912
1949 2 911 892 1326 1347
1950 2 911 892 1326 1358
1951 2 924 892 1326 1347
1952 2 924 892 1326 1358
1953 2 27 893 913 899
1954 2 27 893 913 914
1955 2 925 893 913 899
1956 2 925 893 913 914
1957 2 889 895 917 897
1958 2 889 895 917 918
1959 2 927 895 917 897
1960 2 927 895 917 918
1961 2 917 897 903 905
1962 2 917 897 903 935
1963 2 929 897 903 905
1964 2 929 897 903 935
1965 2 903 897 917 895
1966 2 903 897 917 918
1967 2 929 897 917 895
1968 2 929 897 917 918
1969 2 913 899 37 45
1970 2 913 899 37 69
1971 2 931 899 37 45
1972 2 931 899 37 69
1973 2 37 899 913 893
1974 2 37 899 913 914
1975 2 931 899 913 893
1976 2 931 899 913 914
1977 2 1332 902 983 964
1978 2 1332 902 983 984
1979 2 934 902 983 964
1980 2 934 902 983 984
1981 2 466 904 907 1250
1982 2 466 904 907 1268
1983 2 936 904 907 1250
1984 2 936 904 907 1268
1985 3 892 911 912 872
1986 3 892 911 912 1242
1987 3 1262 911 912 872
1988 3 1262 911 912 1242
1989 3 893 913 914 873
1990 3 893 913 914 879
1991 3 899 913 914 873
1992 3 899 913 914 879
1993 3 895 917 918 875
1994 3 895 917 918 877
1995 3 897 917 918 875
1996 3 897 917 918 877
1997 1 939 944 984 882
1998 1 939 944 984 983
1999 1 939 947 990 949
2000 1 939 947 990 989
2001 1 939 951 986 945
2002 1 939 951 986 985
2003 1 939 956 908 870
2004 1 939 956 908 979
2005 2 1398 964 983 902
2006 2 1398 964 983 984
2007 2 996 964 983 902
2008 2 996 964 983 984
2009 2 983 964 1398 1419
2010 2 983 964 1398 1430
2011 2 996 964 1398 1419
2012 2 996 964 1398 1430
2013 2 961 967 989 969
2014 2 961 967 989 990
2015 2 999 967 989 969
2016 2 999 967 989 990
2017 2 985 971 109 117
2018 2 985 971 109 141
2019 2 1003 971 109 117
2020 2 1003 971 109 141
2021 2 109 971 985 965
2022 2 109 971 985 986
2023 2 1003 971 985 965
2024 2 1003 971 985 986
2025 2 538 976 979 890
2026 2 538 976 979 908
2027 2 1008 976 979 890
2028 2 1008 976 979 908
2029 3 890 979 908 870
2030 3 890 979 908 956
2031 3 976 979 908 870
2032 3 976 979 908 956
2033 3 964 983 984 944
2034 3 964 983 984 882
2035 3 902 983 984 944
2036 3 902 983 984 882
2037 3 965 985 986 945
2038 3 965 985 986 951
2039 3 971 985 986 945
2040 3 971 985 986 951
2041 1 940 942 980 1028
2042 1 940 942 980 1051
2043 1 940 945 986 951
2044 1 940 945 986 985
2045 1 940 949 990 947
2046 1 940 949 990 989
2047 1 940 954 1056 1016
2048 1 940 954 1056 1055
2049 3 1034 1123 1052 1014
2050 3 1034 1123 1052 1100
2051 3 1120 1123 1052 1014
2052 3 1120 1123 1052 1100
2053 2 1051 962 536 631
2054 2 1051 962 536 568
2055 2 994 962 536 631
2056 2 994 962 536 568
2057 2 536 962 1051 1048
2058 2 536 962 1051 980
2059 2 994 962 1051 1048
2060 2 994 962 1051 980
2061 2 99 965 985 971
2062 2 99 965 985 986
2063 2 997 965 985 971
2064 2 997 965 985 986
2065 2 989 969 975 977
2066 2 989 969 975 1007
2067 2 1001 969 975 977
2068 2 1001 969 975 1007
2069 2 975 969 989 967
2070 2 975 969 989 990
2071 2 1001 969 989 967
2072 2 1001 969 989 990
2073 2 1404 974 1055 1036
2074 2 1404 974 1055 1056
2075 2 1006 974 1055 1036
2076 2 1006 974 1055 1056
2077 3 967 989 990 947
2078 3 967 989 990 949
2079 3 969 989 990 947
2080 3 969 989 990 949
2081 1 1012 1014 1052 1100
2082 1 1012 1014 1052 1123
2083 1 1011 1016 1056 954
2084 1 1011 1016 1056 1055
2085 1 1012 1017 1058 1023
2086 1 1012 1017 1058 1057
2087 1 1011 1019 1062 1021
2088 1 1011 1019 1062 1061
2089 1 1012 1021 1062 1019
2090 1 1012 1021 1062 1061
2091 1 1011 1023 1058 1017
2092 1 1011 1023 1058 1057
2093 1 1012 1026 1128 1088
2094 1 1012 1026 1128 1127
2095 1 1011 1028 980 942
2096 1 1011 1028 980 1051
2097 2 1123 1034 608 703
2098 2 1123 1034 608 640
2099 2 1066 1034 608 703
2100 2 1066 1034 608 640
2101 2 608 1034 1123 1120
2102 2 608 1034 1123 1052
2103 2 1066 1034 1123 1120
2104 2 1066 1034 1123 1052
2105 2 1470 1036 1055 974
2106 2 1470 1036 1055 1056
2107 2 1068 1036 1055 974
2108 2 1068 1036 1055 1056
2109 2 1055 1036 1470 1491
2110 2 1055 1036 1470 1502
2111 2 1068 1036 1470 1491
2112 2 1068 1036 1470 1502
2113 2 171 1037 1057 1043
2114 2 171 1037 1057 1058
2115 2 1069 1037 1057 1043
2116 2 1069 1037 1057 1058
2117 2 1033 1039 1061 1041
2118 2 1033 1039 1061 1062
2119 2 1071 1039 1061 1041
2120 2 1071 1039 1061 1062
2121 2 1061 1041 1047 1049
2122 2 1061 1041 1047 1079
2123 2 1073 1041 1047 1049
2124 2 1073 1041 1047 1079
2125 2 1047 1041 1061 1039
2126 2 1047 1041 1061 1062
2127 2 1073 1041 1061 1039
2128 2 1073 1041 1061 1062
2129 2 1057 1043 181 189
2130 2 1057 1043 181 213
2131 2 1075 1043 181 189
2132 2 1075 1043 181 213
2133 2 181 1043 1057 1037
2134 2 181 1043 1057 1058
2135 2 1075 1043 1057 1037
2136 2 1075 1043 1057 1058
2137 2 1476 1046 1127 1108
2138 2 1476 1046 1127 1128
2139 2 1078 1046 1127 1108
2140 2 1078 1046 1127 1128
2141 2 610 1048 1051 962
2142 2 610 1048 1051 980
2143 2 1080 1048 1051 962
2144 2 1080 1048 1051 980
2145 3 962 1051 980 942
2146 3 962 1051 980 1028
2147 3 1048 1051 980 942
2148 3 1048 1051 980 1028
2149 3 1036 1055 1056 1016
2150 3 1036 1055 1056 954
2151 3 974 1055 1056 1016
2152 3 974 1055 1056 954
2153 3 1037 1057 1058 1017
2154 3 1037 1057 1058 1023
2155 3 1043 1057 1058 1017
2156 3 1043 1057 1058 1023
2157 3 1039 1061 1062 1019
2158 3 1039 1061 1062 1021
2159 3 1041 1061 1062 1019
2160 3 1041 1061 1062 1021
2161 1 1084 1086 1124 1172
2162 1 1084 1086 1124 1195
2163 1 1083 1088 1128 1026
2164 1 1083 1088 1128 1127
2165 1 1084 1089 1130 1095
2166 1 1084 1089 1130 1129
2167 1 1083 1091 1134 1093
2168 1 1083 1091 1134 1133
2169 1 1084 1093 1134 1091
2170 1 1084 1093 1134 1133
2171 1 1083 1095 1130 1089
2172 1 1083 1095 1130 1129
2173 1 1084 1098 1200 1160
2174 1 1084 1098 1200 1199
2175 1 1083 1100 1052 1014
2176 1 1083 1100 1052 1123
2177 2 1195 1106 680 775
2178 2 1195 1106 680 712
2179 2 1138 1106 680 775
2180 2 1138 1106 680 712
2181 2 680 1106 1195 1192
2182 2 680 1106 1195 1124
2183 2 1138 1106 1195 1192
2184 2 1138 1106 1195 1124
2185 2 1542 1108 1127 1046
2186 2 1542 1108 1127 1128
2187 2 1140 1108 1127 1046
2188 2 1140 1108 1127 1128
2189 2 1127 1108 1542 1563
2190 2 1127 1108 1542 1574
2191 2 1140 1108 1542 1563
2192 2 1140 1108 1542 1574
2193 2 243 1109 1129 1115
2194 2 243 1109 1129 1130
2195 2 1141 1109 1129 1115
2196 2 1141 1109 1129 1130
2197 2 1105 1111 1133 1113
2198 2 1105 1111 1133 1134
2199 2 1143 1111 1133 1113
2200 2 1143 1111 1133 1134
2201 2 1133 1113 1119 1121
2202 2 1133 1113 1119 1151
2203 2 1145 1113 1119 1121
2204 2 1145 1113 1119 1151
2205 2 1119 1113 1133 1111
2206 2 1119 1113 1133 1134
2207 2 1145 1113 1133 1111
2208 2 1145 1113 1133 1134
2209 2 1129 1115 253 261
2210 2 1129 1115 253 285
2211 2 1147 1115 253 261
2212 2 1147 1115 253 285
2213 2 253 1115 1129 1109
2214 2 253 1115 1129 1130
2215 2 1147 1115 1129 1109
2216 2 1147 1115 1129 1130
2217 2 1548 1118 1199 1180
2218 2 1548 1118 1199 1200
2219 2 1150 1118 1199 1180
2220 2 1150 1118 1199 1200
2221 2 682 1120 1123 1034
2222 2 682 1120 1123 1052
2223 2 1152 1120 1123 1034
2224 2 1152 1120 1123 1052
2225 3 1108 1127 1128 1088
2226 3 1108 1127 1128 1026
2227 3 1046 1127 1128 1088
2228 3 1046 1127 1128 1026
2229 3 1109 1129 1130 1089
2230 3 1109 1129 1130 1095
2231 3 1115 1129 1130 1089
2232 3 1115 1129 1130 1095
2233 3 1111 1133 1134 1091
2234 3 1111 1133 1134 1093
2235 3 1113 1133 1134 1091
2236 3 1113 1133 1134 1093
2237 1 1155 1160 1200 1098
2238 1 1155 1160 1200 1199
2239 1 1155 1163 1206 1165
2240 1 1155 1163 1206 1205
2241 1 1155 1167 1202 1161
2242 1 1155 1167 1202 1201
2243 1 1155 1172 1124 1086
2244 1 1155 1172 1124 1195
2245 2 1614 1180 1199 1118
2246 2 1614 1180 1199 1200
2247 2 1212 1180 1199 1118
2248 2 1212 1180 1199 1200
2249 2 1199 1180 1614 1635
2250 2 1199 1180 1614 1646
2251 2 1212 1180 1614 1635
2252 2 1212 1180 1614 1646
2253 2 1177 1183 1205 1185
2254 2 1177 1183 1205 1206
2255 2 1215 1183 1205 1185
2256 2 1215 1183 1205 1206
2257 2 1201 1187 325 333
2258 2 1201 1187 325 357
2259 2 1219 1187 325 333
2260 2 1219 1187 325 357
2261 2 325 1187 1201 1181
2262 2 325 1187 1201 1202
2263 2 1219 1187 1201 1181
2264 2 1219 1187 1201 1202
2265 2 754 1192 1195 1106
2266 2 754 1192 1195 1124
2267 2 1224 1192 1195 1106
2268 2 1224 1192 1195 1124
2269 3 1106 1195 1124 1086
2270 3 1106 1195 1124 1172
2271 3 1192 1195 1124 1086
2272 3 1192 1195 1124 1172
2273 3 1180 1199 1200 1160
2274 3 1180 1199 1200 1098
2275 3 1118 1199 1200 1160
2276 3 1118 1199 1200 1098
2277 3 1181 1201 1202 1161
2278 3 1181 1201 1202 1167
2279 3 1187 1201 1202 1161
2280 3 1187 1201 1202 1167
2281 3 1250 907 1268 1230
2282 3 1250 907 1268 884
2283 3 904 907 1268 1230
2284 3 904 907 1268 884
2285 1 1156 1158 1196 1244
2286 1 1156 1158 1196 1267
2287 1 1156 1161 1202 1167
2288 1 1156 1161 1202 1201
2289 1 1156 1165 1206 1163
2290 1 1156 1165 1206 1205
2291 1 1156 1170 1272 1232
2292 1 1156 1170 1272 1271
2293 2 1267 1178 752 847
2294 2 1267 1178 752 784
2295 2 1210 1178 752 847
2296 2 1210 1178 752 784
2297 2 752 1178 1267 1264
2298 2 752 1178 1267 1196
2299 2 1210 1178 1267 1264
2300 2 1210 1178 1267 1196
2301 2 315 1181 1201 1187
2302 2 315 1181 1201 1202
2303 2 1213 1181 1201 1187
2304 2 1213 1181 1201 1202
2305 2 1205 1185 1191 1193
2306 2 1205 1185 1191 1223
2307 2 1217 1185 1191 1193
2308 2 1217 1185 1191 1223
2309 2 1191 1185 1205 1183
2310 2 1191 1185 1205 1206
2311 2 1217 1185 1205 1183
2312 2 1217 1185 1205 1206
2313 2 1620 1190 1271 1252
2314 2 1620 1190 1271 1272
2315 2 1222 1190 1271 1252
2316 2 1222 1190 1271 1272
2317 3 1183 1205 1206 1163
2318 3 1183 1205 1206 1165
2319 3 1185 1205 1206 1163
2320 3 1185 1205 1206 1165
2321 1 1228 1230 1268 884
2322 1 1228 1230 1268 907
2323 1 1227 1232 1272 1170
2324 1 1227 1232 1272 1271
2325 1 1228 1233 1274 1239
2326 1 1228 1233 1274 1273
2327 1 1227 1235 1278 1237
2328 1 1227 1235 1278 1277
2329 1 1228 1237 1278 1235
2330 1 1228 1237 1278 1277
2331 1 1227 1239 1274 1233
2332 1 1227 1239 1274 1273
2333 1 1228 1242 912 872
2334 1 1228 1242 912 911
2335 1 1227 1244 1196 1158
2336 1 1227 1244 1196 1267
2337 2 907 1250 824 487
2338 2 907 1250 824 856
2339 2 1282 1250 824 487
2340 2 1282 1250 824 856
2341 2 824 1250 907 904
2342 2 824 1250 907 1268
2343 2 1282 1250 907 904
2344 2 1282 1250 907 1268
2345 2 1686 1252 1271 1190
2346 2 1686 1252 1271 1272
2347 2 1284 1252 1271 1190
2348 2 1284 1252 1271 1272
2349 2 1271 1252 1686 1707
2350 2 1271 1252 1686 1718
2351 2 1284 1252 1686 1707
2352 2 1284 1252 1686 1718
2353 2 387 1253 1273 1259
2354 2 387 1253 1273 1274
2355 2 1285 1253 1273 1259
2356 2 1285 1253 1273 1274
2357 2 1249 1255 1277 1257
2358 2 1249 1255 1277 1278
2359 2 1287 1255 1277 1257
2360 2 1287 1255 1277 1278
2361 2 1277 1257 1263 1265
2362 2 1277 1257 1263 1295
2363 2 1289 1257 1263 1265
2364 2 1289 1257 1263 1295
2365 2 1263 1257 1277 1255
2366 2 1263 1257 1277 1278
2367 2 1289 1257 1277 1255
2368 2 1289 1257 1277 1278
2369 2 1273 1259 397 405
2370 2 1273 1259 397 429
2371 2 1291 1259 397 405
2372 2 1291 1259 397 429
2373 2 397 1259 1273 1253
2374 2 397 1259 1273 1274
2375 2 1291 1259 1273 1253
2376 2 1291 1259 1273 1274
2377 2 1692 1262 911 892
2378 2 1692 1262 911 912
2379 2 1294 1262 911 892
2380 2 1294 1262 911 912
2381 2 826 1264 1267 1178
2382 2 826 1264 1267 1196
2383 2 1296 1264 1267 1178
2384 2 1296 1264 1267 1196
2385 3 1178 1267 1196 1158
2386 3 1178 1267 1196 1244
2387 3 1264 1267 1196 1158
2388 3 1264 1267 1196 1244
2389 3 1252 1271 1272 1232
2390 3 1252 1271 1272 1170
2391 3 1190 1271 1272 1232
2392 3 1190 1271 1272 1170
2393 3 1253 1273 1274 1233
2394 3 1253 1273 1274 1239
2395 3 1259 1273 1274 1233
2396 3 1259 1273 1274 1239
2397 3 1255 1277 1278 1235
2398 3 1255 1277 1278 1237
2399 3 1257 1277 1278 1235
2400 3 1257 1277 1278 1237
2401 1 1300 1302 1340 1388
2402 1 1300 1302 1340 1411
2403 1 1299 1304 1344 1674
2404 1 1299 1304 1344 1343
2405 1 1300 1305 1346 1311
2406 1 1300 1305 1346 1345
2407 1 1299 1307 1350 1309
2408 1 1299 1307 1350 1349
2409 1 1300 1309 1350 1307
2410 1 1300 1309 1350 1349
2411 1 1299 1311 1346 1305
2412 1 1299 1311 1346 1345
2413 1 1300 1314 1416 1376
2414 1 1300 1314 1416 1415
2415 1 1299 1316 1700 1662
2416 1 1299 1316 1700 1339
2417 2 1411 1322 32 127
2418 2 1411 1322 32 64
2419 2 1354 1322 32 127
2420 2 1354 1322 32 64
2421 2 32 1322 1411 1408
2422 2 32 1322 1411 1340
2423 2 1354 1322 1411 1408
2424 2 1354 1322 1411 1340
2425 2 1343 1324 894 915
2426 2 1343 1324 894 926
2427 2 1356 1324 894 915
2428 2 1356 1324 894 926
2429 2 894 1324 1343 1694
2430 2 894 1324 1343 1344
2431 2 1356 1324 1343 1694
2432 2 1356 1324 1343 1344
2433 2 459 1325 1345 1331
2434 2 459 1325 1345 1346
2435 2 1357 1325 1345 1331
2436 2 1357 1325 1345 1346
2437 2 1321 1327 1349 1329
2438 2 1321 1327 1349 1350
2439 2 1359 1327 1349 1329
2440 2 1359 1327 1349 1350
2441 2 1349 1329 1335 1337
2442 2 1349 1329 1335 1367
2443 2 1361 1329 1335 1337
2444 2 1361 1329 1335 1367
2445 2 1335 1329 1349 1327
2446 2 1335 1329 1349 1350
2447 2 1361 1329 1349 1327
2448 2 1361 1329 1349 1350
2449 2 1345 1331 469 477
2450 2 1345 1331 469 501
2451 2 1363 1331 469 477
2452 2 1363 1331 469 501
2453 2 469 1331 1345 1325
2454 2 469 1331 1345 1346
2455 2 1363 1331 1345 1325
2456 2 1363 1331 1345 1346
2457 2 900 1334 1415 1396
2458 2 900 1334 1415 1416
2459 2 1366 1334 1415 1396
2460 2 1366 1334 1415 1416
2461 2 34 1336 1339 1682
2462 2 34 1336 1339 1700
2463 2 1368 1336 1339 1682
2464 2 1368 1336 1339 1700
2465 3 1324 1343 1344 1304
2466 3 1324 1343 1344 1674
2467 3 1694 1343 1344 1304
2468 3 1694 1343 1344 1674
2469 3 1325 1345 1346 1305
2470 3 1325 1345 1346 1311
2471 3 1331 1345 1346 1305
2472 3 1331 1345 1346 1311
2473 3 1327 1349 1350 1307
2474 3 1327 1349 1350 1309
2475 3 1329 1349 1350 1307
2476 3 1329 1349 1350 1309
2477 1 1371 1376 1416 1314
2478 1 1371 1376 1416 1415
2479 1 1371 1379 1422 1381
2480 1 1371 1379 1422 1421
2481 1 1371 1383 1418 1377
2482 1 1371 1383 1418 1417
2483 1 1371 1388 1340 1302
2484 1 1371 1388 1340 1411
2485 2 1415 1396 966 987
2486 2 1415 1396 966 998
2487 2 1428 1396 966 987
2488 2 1428 1396 966 998
2489 2 966 1396 1415 1334
2490 2 966 1396 1415 1416
2491 2 1428 1396 1415 1334
2492 2 1428 1396 1415 1416
2493 2 1393 1399 1421 1401
2494 2 1393 1399 1421 1422
2495 2 1431 1399 1421 1401
2496 2 1431 1399 1421 1422
2497 2 1417 1403 541 549
2498 2 1417 1403 541 573
2499 2 1435 1403 541 549
2500 2 1435 1403 541 573
2501 2 541 1403 1417 1397
2502 2 541 1403 1417 1418
2503 2 1435 1403 1417 1397
2504 2 1435 1403 1417 1418
2505 2 106 1408 1411 1322
2506 2 106 1408 1411 1340
2507 2 1440 1408 1411 1322
2508 2 1440 1408 1411 1340
2509 3 1322 1411 1340 1302
2510 3 1322 1411 1340 1388
2511 3 1408 1411 1340 1302
2512 3 1408 1411 1340 1388
2513 3 1396 1415 1416 1376
2514 3 1396 1415 1416 1314
2515 3 1334 1415 1416 1376
2516 3 1334 1415 1416 1314
2517 3 1397 1417 1418 1377
2518 3 1397 1417 1418 1383
2519 3 1403 1417 1418 1377
2520 3 1403 1417 1418 1383
2521 1 1372 1374 1412 1460
2522 1 1372 1374 1412 1483
2523 1 1372 1377 1418 1383
2524 1 1372 1377 1418 1417
2525 1 1372 1381 1422 1379
2526 1 1372 1381 1422 1421
2527 1 1372 1386 1488 1448
2528 1 1372 1386 1488 1487
2529 3 1466 1555 1484 1446
2530 3 1466 1555 1484 1532
2531 3 1552 1555 1484 1446
2532 3 1552 1555 1484 1532
2533 2 1483 1394 104 199
2534 2 1483 1394 104 136
2535 2 1426 1394 104 199
2536 2 1426 1394 104 136
2537 2 104 1394 1483 1480
2538 2 104 1394 1483 1412
2539 2 1426 1394 1483 1480
2540 2 1426 1394 1483 1412
2541 2 531 1397 1417 1403
2542 2 531 1397 1417 1418
2543 2 1429 1397 1417 1403
2544 2 1429 1397 1417 1418
2545 2 1421 1401 1407 1409
2546 2 1421 1401 1407 1439
2547 2 1433 1401 1407 1409
2548 2 1433 1401 1407 1439
2549 2 1407 1401 1421 1399
2550 2 1407 1401 1421 1422
2551 2 1433 1401 1421 1399
2552 2 1433 1401 1421 1422
2553 2 972 1406 1487 1468
2554 2 972 1406 1487 1488
2555 2 1438 1406 1487 1468
2556 2 1438 1406 1487 1488
2557 3 1399 1421 1422 1379
2558 3 1399 1421 1422 1381
2559 3 1401 1421 1422 1379
2560 3 1401 1421 1422 1381
2561 1 1444 1446 1484 1532
2562 1 1444 1446 1484 1555
2563 1 1443 1448 1488 1386
2564 1 1443 1448 1488 1487
2565 1 1444 1449 1490 1455
2566 1 1444 1449 1490 1489
2567 1 1443 1451 1494 1453
2568 1 1443 1451 1494 1493
2569 1 1444 1453 1494 1451
2570 1 1444 1453 1494 1493
2571 1 1443 1455 1490 1449
2572 1 1443 1455 1490 1489
2573 1 1444 1458 1560 1520
2574 1 1444 1458 1560 1559
2575 1 1443 1460 1412 1374
2576 1 1443 1460 1412 1483
2577 2 1555 1466 176 271
2578 2 1555 1466 176 208
2579 2 1498 1466 176 271
2580 2 1498 1466 176 208
2581 2 176 1466 1555 1552
2582 2 176 1466 1555 1484
2583 2 1498 1466 1555 1552
2584 2 1498 1466 1555 1484
2585 2 1487 1468 1038 1059
2586 2 1487 1468 1038 1070
2587 2 1500 1468 1038 1059
2588 2 1500 1468 1038 1070
2589 2 1038 1468 1487 1406
2590 2 1038 1468 1487 1488
2591 2 1500 1468 1487 1406
2592 2 1500 1468 1487 1488
2593 2 603 1469 1489 1475
2594 2 603 1469 1489 1490
2595 2 1501 1469 1489 1475
2596 2 1501 1469 1489 1490
2597 2 1465 1471 1493 1473
2598 2 1465 1471 1493 1494
2599 2 1503 1471 1493 1473
2600 2 1503 1471 1493 1494
2601 2 1493 1473 1479 1481
2602 2 1493 1473 1479 1511
2603 2 1505 1473 1479 1481
2604 2 1505 1473 1479 1511
2605 2 1479 1473 1493 1471
2606 2 1479 1473 1493 1494
2607 2 1505 1473 1493 1471
2608 2 1505 1473 1493 1494
2609 2 1489 1475 613 621
2610 2 1489 1475 613 645
2611 2 1507 1475 613 621
2612 2 1507 1475 613 645
2613 2 613 1475 1489 1469
2614 2 613 1475 1489 1490
2615 2 1507 1475 1489 1469
2616 2 1507 1475 1489 1490
2617 2 1044 1478 1559 1540
2618 2 1044 1478 1559 1560
2619 2 1510 1478 1559 1540
2620 2 1510 1478 1559 1560
2621 2 178 1480 1483 1394
2622 2 178 1480 1483 1412
2623 2 1512 1480 1483 1394
2624 2 1512 1480 1483 1412
2625 3 1394 1483 1412 1374
2626 3 1394 1483 1412 1460
2627 3 1480 1483 1412 1374
2628 3 1480 1483 1412 1460
2629 3 1468 1487 1488 1448
2630 3 1468 1487 1488 1386
2631 3 1406 1487 1488 1448
2632 3 1406 1487 1488 1386
2633 3 1469 1489 1490 1449
2634 3 1469 1489 1490 1455
2635 3 1475 1489 1490 1449
2636 3 1475 1489 1490 1455
2637 3 1471 1493 1494 1451
2638 3 1471 1493 1494 1453
2639 3 1473 1493 1494 1451
2640 3 1473 1493 1494 1453
2641 1 1516 1518 1556 1604
2642 1 1516 1518 1556 1627
2643 1 1515 1520 1560 1458
2644 1 1515 1520 1560 1559
2645 1 1516 1521 1562 1527
2646 1 1516 1521 1562 1561
2647 1 1515 1523 1566 1525
2648 1 1515 1523 1566 1565
2649 1 1516 1525 1566 1523
2650 1 1516 1525 1566 1565
2651 1 1515 1527 1562 1521
2652 1 1515 1527 1562 1561
2653 1 1516 1530 1632 1592
2654 1 1516 1530 1632 1631
2655 1 1515 1532 1484 1446
2656 1 1515 1532 1484 1555
2657 2 1627 1538 248 343
2658 2 1627 1538 248 280
2659 2 1570 1538 248 343
2660 2 1570 1538 248 280
2661 2 248 1538 1627 1624
2662 2 248 1538 1627 1556
2663 2 1570 1538 1627 1624
2664 2 1570 1538 1627 1556
2665 2 1559 1540 1110 1131
2666 2 1559 1540 1110 1142
2667 2 1572 1540 1110 1131
2668 2 1572 1540 1110 1142
2669 2 1110 1540 1559 1478
2670 2 1110 1540 1559 1560
2671 2 1572 1540 1559 1478
2672 2 1572 1540 1559 1560
2673 2 675 1541 1561 1547
2674 2 675 1541 1561 1562
2675 2 1573 1541 1561 1547
2676 2 1573 1541 1561 1562
2677 2 1537 1543 1565 1545
2678 2 1537 1543 1565 1566
2679 2 1575 1543 1565 1545
2680 2 1575 1543 1565 1566
2681 2 1565 1545 1551 1553
2682 2 1565 1545 1551 1583
2683 2 1577 1545 1551 1553
2684 2 1577 1545 1551 1583
2685 2 1551 1545 1565 1543
2686 2 1551 1545 1565 1566
2687 2 1577 1545 1565 1543
2688 2 1577 1545 1565 1566
2689 2 1561 1547 685 693
2690 2 1561 1547 685 717
2691 2 1579 1547 685 693
2692 2 1579 1547 685 717
2693 2 685 1547 1561 1541
2694 2 685 1547 1561 1562
2695 2 1579 1547 1561 1541
2696 2 1579 1547 1561 1562
2697 2 1116 1550 1631 1612
2698 2 1116 1550 1631 1632
2699 2 1582 1550 1631 1612
2700 2 1582 1550 1631 1632
2701 2 250 1552 1555 1466
2702 2 250 1552 1555 1484
2703 2 1584 1552 1555 1466
2704 2 1584 1552 1555 1484
2705 3 1540 1559 1560 1520
2706 3 1540 1559 1560 1458
2707 3 1478 1559 1560 1520
2708 3 1478 1559 1560 1458
2709 3 1541 1561 1562 1521
2710 3 1541 1561 1562 1527
2711 3 1547 1561 1562 1521
2712 3 1547 1561 1562 1527
2713 3 1543 1565 1566 1523
2714 3 1543 1565 1566 1525
2715 3 1545 1565 1566 1523
2716 3 1545 1565 1566 1525
2717 1 1587 1592 1632 1530
2718 1 1587 1592 1632 1631
2719 1 1587 1595 1638 1597
2720 1 1587 1595 1638 1637
2721 1 1587 1599 1634 1593
2722 1 1587 1599 1634 1633
2723 1 1587 1604 1556 1518
2724 1 1587 1604 1556 1627
2725 2 1631 1612 1182 1203
2726 2 1631 1612 1182 1214
2727 2 1644 1612 1182 1203
2728 2 1644 1612 1182 1214
2729 2 1182 1612 1631 1550
2730 2 1182 1612 1631 1632
2731 2 1644 1612 1631 1550
2732 2 1644 1612 1631 1632
2733 2 1609 1615 1637 1617
2734 2 1609 1615 1637 1638
2735 2 1647 1615 1637 1617
2736 2 1647 1615 1637 1638
2737 2 1633 1619 757 765
2738 2 1633 1619 757 789
2739 2 1651 1619 757 765
2740 2 1651 1619 757 789
2741 2 757 1619 1633 1613
2742 2 757 1619 1633 1634
2743 2 1651 1619 1633 1613
2744 2 1651 1619 1633 1634
2745 2 322 1624 1627 1538
2746 2 322 1624 1627 1556
2747 2 1656 1624 1627 1538
2748 2 1656 1624 1627 1556
2749 3 1538 1627 1556 1518
2750 3 1538 1627 1556 1604
2751 3 1624 1627 1556 1518
2752 3 1624 1627 1556 1604
2753 3 1612 1631 1632 1592
2754 3 1612 1631 1632 1530
2755 3 1550 1631 1632 1592
2756 3 1550 1631 1632 1530
2757 3 1613 1633 1634 1593
2758 3 1613 1633 1634 1599
2759 3 1619 1633 1634 1593
2760 3 1619 1633 1634 1599
2761 3 1682 1339 1700 1662
2762 3 1682 1339 1700 1316
2763 3 1336 1339 1700 1662
2764 3 1336 1339 1700 1316
2765 1 1588 1590 1628 1676
2766 1 1588 1590 1628 1699
2767 1 1588 1593 1634 1599
2768 1 1588 1593 1634 1633
2769 1 1588 1597 1638 1595
2770 1 1588 1597 1638 1637
2771 1 1588 1602 1704 1664
2772 1 1588 1602 1704 1703
2773 2 1699 1610 320 415
2774 2 1699 1610 320 352
2775 2 1642 1610 320 415
2776 2 1642 1610 320 352
2777 2 320 1610 1699 1696
2778 2 320 1610 1699 1628
2779 2 1642 1610 1699 1696
2780 2 1642 1610 1699 1628
2781 2 747 1613 1633 1619
2782 2 747 1613 1633 1634
2783 2 1645 1613 1633 1619
2784 2 1645 1613 1633 1634
2785 2 1637 1617 1623 1625
2786 2 1637 1617 1623 1655
2787 2 1649 1617 1623 1625
2788 2 1649 1617 1623 1655
2789 2 1623 1617 1637 1615
2790 2 1623 1617 1637 1638
2791 2 1649 1617 1637 1615
2792 2 1649 1617 1637 1638
2793 2 1188 1622 1703 1684
2794 2 1188 1622 1703 1704
2795 2 1654 1622 1703 1684
2796 2 1654 1622 1703 1704
2797 3 1615 1637 1638 1595
2798 3 1615 1637 1638 1597
2799 3 1617 1637 1638 1595
2800 3 1617 1637 1638 1597
2801 1 1660 1662 1700 1316
2802 1 1660 1662 1700 1339
2803 1 1659 1664 1704 1602
2804 1 1659 1664 1704 1703
2805 1 1660 1665 1706 1671
2806 1 1660 1665 1706 1705
2807 1 1659 1667 1710 1669
2808 1 1659 1667 1710 1709
2809 1 1660 1669 1710 1667
2810 1 1660 1669 1710 1709
2811 1 1659 1671 1706 1665
2812 1 1659 1671 1706 1705
2813 1 1660 1674 1344 1304
2814 1 1660 1674 1344 1343
2815 1 1659 1676 1628 1590
2816 1 1659 1676 1628 1699
2817 2 1339 1682 392 55
2818 2 1339 1682 392 424
2819 2 1714 1682 392 55
2820 2 1714 1682 392 424
2821 2 392 1682 1339 1336
2822 2 392 1682 1339 1700
2823 2 1714 1682 1339 1336
2824 2 1714 1682 1339 1700
2825 2 1703 1684 1254 1275
2826 2 1703 1684 1254 1286
2827 2 1716 1684 1254 1275
2828 2 1716 1684 1254 1286
2829 2 1254 1684 1703 1622
2830 2 1254 1684 1703 1704
2831 2 1716 1684 1703 1622
2832 2 1716 1684 1703 1704
2833 2 819 1685 1705 1691
2834 2 819 1685 1705 1706
2835 2 1717 1685 1705 1691
2836 2 1717 1685 1705 1706
2837 2 1681 1687 1709 1689
2838 2 1681 1687 1709 1710
2839 2 1719 1687 1709 1689
2840 2 1719 1687 1709 1710
2841 2 1709 1689 1695 1697
2842 2 1709 1689 1695 1727
2843 2 1721 1689 1695 1697
2844 2 1721 1689 1695 1727
2845 2 1695 1689 1709 1687
2846 2 1695 1689 1709 1710
2847 2 1721 1689 1709 1687
2848 2 1721 1689 1709 1710
2849 2 1705 1691 829 837
2850 2 1705 1691 829 861
2851 2 1723 1691 829 837
2852 2 1723 1691 829 861
2853 2 829 1691 1705 1685
2854 2 829 1691 1705 1706
2855 2 1723 1691 1705 1685
2856 2 1723 1691 1705 1706
2857 2 1260 1694 1343 1324
2858 2 1260 1694 1343 1344
2859 2 1726 1694 1343 1324
2860 2 1726 1694 1343 1344
2861 2 394 1696 1699 1610
2862 2 394 1696 1699 1628
2863 2 1728 1696 1699 1610
2864 2 1728 1696 1699 1628
2865 3 1610 1699 1628 1590
2866 3 1610 1699 1628 1676
2867 3 1696 1699 1628 1590
2868 3 1696 1699 1628 1676
2869 3 1684 1703 1704 1664
2870 3 1684 1703 1704 1602
2871 3 1622 1703 1704 1664
2872 3 1622 1703 1704 1602
2873 3 1685 1705 1706 1665
2874 3 1685 1705 1706 1671
2875 3 1691 1705 1706 1665
2876 3 1691 1705 1706 1671
2877 3 1687 1709 1710 1667
2878 3 1687 1709 1710 1669
2879 3 1689 1709 1710 1667
2880 3 1689 1709 1710 1669
2881 1 865 869 906 883
2882 1 865 869 906 905
2883 1 866 871 910 881
2884 1 866 871 910 909
2885 1 865 874 1276 1240
2886 1 865 874 1276 915
2887 1 866 876 992 950
2888 1 866 876 992 991
2889 1 865 878 920 1236
2890 1 865 878 920 919
2891 1 866 880 916 946
2892 1 866 880 916 987
2893 1 865 881 910 871
2894 1 865 881 910 909
2895 1 866 883 906 869
2896 1 866 883 906 905
2897 2 905 889 895 917
2898 2 905 889 895 927
2899 2 921 889 895 917
2900 2 921 889 895 927
2901 2 895 889 905 903
2902 2 895 889 905 906
2903 2 921 889 905 903
2904 2 921 889 905 906
2905 2 909 891 29 49
2906 2 909 891 29 61
2907 2 923 891 29 49
2908 2 923 891 29 61
2909 2 29 891 909 901
2910 2 29 891 909 910
2911 2 923 891 909 901
2912 2 923 891 909 910
2913 2 1324 894 915 1260
2914 2 1324 894 915 1276
2915 2 926 894 915 1260
2916 2 926 894 915 1276
2917 2 458 896 991 970
2918 2 458 896 991 992
2919 2 928 896 991 970
2920 2 928 896 991 992
2921 2 919 898 472 475
2922 2 919 898 472 504
2923 2 930 898 472 475
2924 2 930 898 472 504
2925 2 472 898 919 1256
2926 2 472 898 919 920
2927 2 930 898 919 1256
2928 2 930 898 919 920
2929 2 1334 900 987 966
2930 2 1334 900 987 916
2931 2 932 900 987 966
2932 2 932 900 987 916
2933 2 987 900 1334 1415
2934 2 987 900 1334 1366
2935 2 932 900 1334 1415
2936 2 932 900 1334 1366
2937 2 35 901 909 891
2938 2 35 901 909 910
2939 2 933 901 909 891
2940 2 933 901 909 910
2941 2 897 903 905 889
2942 2 897 903 905 906
2943 2 935 903 905 889
2944 2 935 903 905 906
2945 3 889 905 906 869
2946 3 889 905 906 883
2947 3 903 905 906 869
2948 3 903 905 906 883
2949 3 891 909 910 871
2950 3 891 909 910 881
2951 3 901 909 910 871
2952 3 901 909 910 881
2953 3 1256 919 920 1236
2954 3 1256 919 920 878
2955 3 898 919 920 1236
2956 3 898 919 920 878
2957 1 937 941 978 955
2958 1 937 941 978 977
2959 1 937 946 916 880
2960 1 937 946 916 987
2961 1 937 950 992 876
2962 1 937 950 992 991
2963 1 937 953 982 943
2964 1 937 953 982 981
2965 2 977 961 967 989
2966 2 977 961 967 999
2967 2 993 961 967 989
2968 2 993 961 967 999
2969 2 967 961 977 975
2970 2 967 961 977 978
2971 2 993 961 977 975
2972 2 993 961 977 978
2973 2 1396 966 987 900
2974 2 1396 966 987 916
2975 2 998 966 987 900
2976 2 998 966 987 916
2977 2 991 970 544 547
2978 2 991 970 544 576
2979 2 1002 970 544 547
2980 2 1002 970 544 576
2981 2 544 970 991 896
2982 2 544 970 991 992
2983 2 1002 970 991 896
2984 2 1002 970 991 992
2985 2 107 973 981 963
2986 2 107 973 981 982
2987 2 1005 973 981 963
2988 2 1005 973 981 982
2989 3 961 977 978 941
2990 3 961 977 978 955
2991 3 975 977 978 941
2992 3 975 977 978 955
2993 3 966 987 916 946
2994 3 966 987 916 880
2995 3 900 987 916 946
2996 3 900 987 916 880
2997 3 896 991 992 876
2998 3 896 991 992 950
2999 3 970 991 992 876
3000 3 970 991 992 950
3001 1 938 943 982 953
3002 1 938 943 982 981
3003 1 938 948 1064 1022
3004 1 938 948 1064 1063
3005 1 938 952 988 1018
3006 1 938 952 988 1059
3007 1 938 955 978 941
3008 1 938 955 978 977
3009 3 1110 1131 1060 1090
3010 3 1110 1131 1060 1024
3011 3 1044 1131 1060 1090
3012 3 1044 1131 1060 1024
3013 2 981 963 101 121
3014 2 981 963 101 133
3015 2 995 963 101 121
3016 2 995 963 101 133
3017 2 101 963 981 973
3018 2 101 963 981 982
3019 2 995 963 981 973
3020 2 995 963 981 982
3021 2 530 968 1063 1042
3022 2 530 968 1063 1064
3023 2 1000 968 1063 1042
3024 2 1000 968 1063 1064
3025 2 1406 972 1059 1038
3026 2 1406 972 1059 988
3027 2 1004 972 1059 1038
3028 2 1004 972 1059 988
3029 2 1059 972 1406 1487
3030 2 1059 972 1406 1438
3031 2 1004 972 1406 1487
3032 2 1004 972 1406 1438
3033 2 969 975 977 961
3034 2 969 975 977 978
3035 2 1007 975 977 961
3036 2 1007 975 977 978
3037 3 963 981 982 943
3038 3 963 981 982 953
3039 3 973 981 982 943
3040 3 973 981 982 953
3041 1 1009 1013 1050 1027
3042 1 1009 1013 1050 1049
3043 1 1010 1015 1054 1025
3044 1 1010 1015 1054 1053
3045 1 1009 1018 988 952
3046 1 1009 1018 988 1059
3047 1 1010 1020 1136 1094
3048 1 1010 1020 1136 1135
3049 1 1009 1022 1064 948
3050 1 1009 1022 1064 1063
3051 1 1010 1024 1060 1090
3052 1 1010 1024 1060 1131
3053 1 1009 1025 1054 1015
3054 1 1009 1025 1054 1053
3055 1 1010 1027 1050 1013
3056 1 1010 1027 1050 1049
3057 2 1049 1033 1039 1061
3058 2 1049 1033 1039 1071
3059 2 1065 1033 1039 1061
3060 2 1065 1033 1039 1071
3061 2 1039 1033 1049 1047
3062 2 1039 1033 1049 1050
3063 2 1065 1033 1049 1047
3064 2 1065 1033 1049 1050
3065 2 1053 1035 173 193
3066 2 1053 1035 173 205
3067 2 1067 1035 173 193
3068 2 1067 1035 173 205
3069 2 173 1035 1053 1045
3070 2 173 1035 1053 1054
3071 2 1067 1035 1053 1045
3072 2 1067 1035 1053 1054
3073 2 1468 1038 1059 972
3074 2 1468 1038 1059 988
3075 2 1070 1038 1059 972
3076 2 1070 1038 1059 988
3077 2 602 1040 1135 1114
3078 2 602 1040 1135 1136
3079 2 1072 1040 1135 1114
3080 2 1072 1040 1135 1136
3081 2 1063 1042 616 619
3082 2 1063 1042 616 648
3083 2 1074 1042 616 619
3084 2 1074 1042 616 648
3085 2 616 1042 1063 968
3086 2 616 1042 1063 1064
3087 2 1074 1042 1063 968
3088 2 1074 1042 1063 1064
3089 2 1478 1044 1131 1110
3090 2 1478 1044 1131 1060
3091 2 1076 1044 1131 1110
3092 2 1076 1044 1131 1060
3093 2 1131 1044 1478 1559
3094 2 1131 1044 1478 1510
3095 2 1076 1044 1478 1559
3096 2 1076 1044 1478 1510
3097 2 179 1045 1053 1035
3098 2 179 1045 1053 1054
3099 2 1077 1045 1053 1035
3100 2 1077 1045 1053 1054
3101 2 1041 1047 1049 1033
3102 2 1041 1047 1049 1050
3103 2 1079 1047 1049 1033
3104 2 1079 1047 1049 1050
3105 3 1033 1049 1050 1013
3106 3 1033 1049 1050 1027
3107 3 1047 1049 1050 1013
3108 3 1047 1049 1050 1027
3109 3 1035 1053 1054 1015
3110 3 1035 1053 1054 1025
3111 3 1045 1053 1054 1015
3112 3 1045 1053 1054 1025
3113 3 1038 1059 988 1018
3114 3 1038 1059 988 952
3115 3 972 1059 988 1018
3116 3 972 1059 988 952
3117 3 968 1063 1064 948
3118 3 968 1063 1064 1022
3119 3 1042 1063 1064 948
3120 3 1042 1063 1064 1022
3121 1 1081 1085 1122 1099
3122 1 1081 1085 1122 1121
3123 1 1082 1087 1126 1097
3124 1 1082 1087 1126 1125
3125 1 1081 1090 1060 1024
3126 1 1081 1090 1060 1131
3127 1 1082 1092 1208 1166
3128 1 1082 1092 1208 1207
3129 1 1081 1094 1136 1020
3130 1 1081 1094 1136 1135
3131 1 1082 1096 1132 1162
3132 1 1082 1096 1132 1203
3133 1 1081 1097 1126 1087
3134 1 1081 1097 1126 1125
3135 1 1082 1099 1122 1085
3136 1 1082 1099 1122 1121
3137 2 1121 1105 1111 1133
3138 2 1121 1105 1111 1143
3139 2 1137 1105 1111 1133
3140 2 1137 1105 1111 1143
3141 2 1111 1105 1121 1119
3142 2 1111 1105 1121 1122
3143 2 1137 1105 1121 1119
3144 2 1137 1105 1121 1122
3145 2 1125 1107 245 265
3146 2 1125 1107 245 277
3147 2 1139 1107 245 265
3148 2 1139 1107 245 277
3149 2 245 1107 1125 1117
3150 2 245 1107 1125 1126
3151 2 1139 1107 1125 1117
3152 2 1139 1107 1125 1126
3153 2 1540 1110 1131 1044
3154 2 1540 1110 1131 1060
3155 2 1142 1110 1131 1044
3156 2 1142 1110 1131 1060
3157 2 674 1112 1207 1186
3158 2 674 1112 1207 1208
3159 2 1144 1112 1207 1186
3160 2 1144 1112 1207 1208
3161 2 1135 1114 688 691
3162 2 1135 1114 688 720
3163 2 1146 1114 688 691
3164 2 1146 1114 688 720
3165 2 688 1114 1135 1040
3166 2 688 1114 1135 1136
3167 2 1146 1114 1135 1040
3168 2 1146 1114 1135 1136
3169 2 1550 1116 1203 1182
3170 2 1550 1116 1203 1132
3171 2 1148 1116 1203 1182
3172 2 1148 1116 1203 1132
3173 2 1203 1116 1550 1631
3174 2 1203 1116 1550 1582
3175 2 1148 1116 1550 1631
3176 2 1148 1116 1550 1582
3177 2 251 1117 1125 1107
3178 2 251 1117 1125 1126
3179 2 1149 1117 1125 1107
3180 2 1149 1117 1125 1126
3181 2 1113 1119 1121 1105
3182 2 1113 1119 1121 1122
3183 2 1151 1119 1121 1105
3184 2 1151 1119 1121 1122
3185 3 1105 1121 1122 1085
3186 3 1105 1121 1122 1099
3187 3 1119 1121 1122 1085
3188 3 1119 1121 1122 1099
3189 3 1107 1125 1126 1087
3190 3 1107 1125 1126 1097
3191 3 1117 1125 1126 1087
3192 3 1117 1125 1126 1097
3193 3 1040 1135 1136 1020
3194 3 1040 1135 1136 1094
3195 3 1114 1135 1136 1020
3196 3 1114 1135 1136 1094
3197 1 1153 1157 1194 1171
3198 1 1153 1157 1194 1193
3199 1 1153 1162 1132 1096
3200 1 1153 1162 1132 1203
3201 1 1153 1166 1208 1092
3202 1 1153 1166 1208 1207
3203 1 1153 1169 1198 1159
3204 1 1153 1169 1198 1197
3205 2 1193 1177 1183 1205
3206 2 1193 1177 1183 1215
3207 2 1209 1177 1183 1205
3208 2 1209 1177 1183 1215
3209 2 1183 1177 1193 1191
3210 2 1183 1177 1193 1194
3211 2 1209 1177 1193 1191
3212 2 1209 1177 1193 1194
3213 2 1612 1182 1203 1116
3214 2 1612 1182 1203 1132
3215 2 1214 1182 1203 1116
3216 2 1214 1182 1203 1132
3217 2 1207 1186 760 763
3218 2 1207 1186 760 792
3219 2 1218 1186 760 763
3220 2 1218 1186 760 792
3221 2 760 1186 1207 1112
3222 2 760 1186 1207 1208
3223 2 1218 1186 1207 1112
3224 2 1218 1186 1207 1208
3225 2 323 1189 1197 1179
3226 2 323 1189 1197 1198
3227 2 1221 1189 1197 1179
3228 2 1221 1189 1197 1198
3229 3 1177 1193 1194 1157
3230 3 1177 1193 1194 1171
3231 3 1191 1193 1194 1157
3232 3 1191 1193 1194 1171
3233 3 1182 1203 1132 1162
3234 3 1182 1203 1132 1096
3235 3 1116 1203 1132 1162
3236 3 1116 1203 1132 1096
3237 3 1112 1207 1208 1092
3238 3 1112 1207 1208 1166
3239 3 1186 1207 1208 1092
3240 3 1186 1207 1208 1166
3241 3 894 915 1276 874
3242 3 894 915 1276 1240
3243 3 1260 915 1276 874
3244 3 1260 915 1276 1240
3245 1 1154 1159 1198 1169
3246 1 1154 1159 1198 1197
3247 1 1154 1164 1280 1238
3248 1 1154 1164 1280 1279
3249 1 1154 1168 1204 1234
3250 1 1154 1168 1204 1275
3251 1 1154 1171 1194 1157
3252 1 1154 1171 1194 1193
3253 2 1197 1179 317 337
3254 2 1197 1179 317 349
3255 2 1211 1179 317 337
3256 2 1211 1179 317 349
3257 2 317 1179 1197 1189
3258 2 317 1179 1197 1198
3259 2 1211 1179 1197 1189
3260 2 1211 1179 1197 1198
3261 2 746 1184 1279 1258
3262 2 746 1184 1279 1280
3263 2 1216 1184 1279 1258
3264 2 1216 1184 1279 1280
3265 2 1622 1188 1275 1254
3266 2 1622 1188 1275 1204
3267 2 1220 1188 1275 1254
3268 2 1220 1188 1275 1204
3269 2 1275 1188 1622 1703
3270 2 1275 1188 1622 1654
3271 2 1220 1188 1622 1703
3272 2 1220 1188 1622 1654
3273 2 1185 1191 1193 1177
3274 2 1185 1191 1193 1194
3275 2 1223 1191 1193 1177
3276 2 1223 1191 1193 1194
3277 3 1179 1197 1198 1159
3278 3 1179 1197 1198 1169
3279 3 1189 1197 1198 1159
3280 3 1189 1197 1198 1169
3281 1 1225 1229 1266 1243
3282 1 1225 1229 1266 1265
3283 1 1226 1231 1270 1241
3284 1 1226 1231 1270 1269
3285 1 1225 1234 1204 1168
3286 1 1225 1234 1204 1275
3287 1 1226 1236 920 878
3288 1 1226 1236 920 919
3289 1 1225 1238 1280 1164
3290 1 1225 1238 1280 1279
3291 1 1226 1240 1276 874
3292 1 1226 1240 1276 915
3293 1 1225 1241 1270 1231
3294 1 1225 1241 1270 1269
3295 1 1226 1243 1266 1229
3296 1 1226 1243 1266 1265
3297 2 1265 1249 1255 1277
3298 2 1265 1249 1255 1287
3299 2 1281 1249 1255 1277
3300 2 1281 1249 1255 1287
3301 2 1255 1249 1265 1263
3302 2 1255 1249 1265 1266
3303 2 1281 1249 1265 1263
3304 2 1281 1249 1265 1266
3305 2 1269 1251 389 409
3306 2 1269 1251 389 421
3307 2 1283 1251 389 409
3308 2 1283 1251 389 421
3309 2 389 1251 1269 1261
3310 2 389 1251 1269 1270
3311 2 1283 1251 1269 1261
3312 2 1283 1251 1269 1270
3313 2 1684 1254 1275 1188
3314 2 1684 1254 1275 1204
3315 2 1286 1254 1275 1188
3316 2 1286 1254 1275 1204
3317 2 818 1256 919 898
3318 2 818 1256 919 920
3319 2 1288 1256 919 898
3320 2 1288 1256 919 920
3321 2 1279 1258 832 835
3322 2 1279 1258 832 864
3323 2 1290 1258 832 835
3324 2 1290 1258 832 864
3325 2 832 1258 1279 1184
3326 2 832 1258 1279 1280
3327 2 1290 1258 1279 1184
3328 2 1290 1258 1279 1280
3329 2 1694 1260 915 894
3330 2 1694 1260 915 1276
3331 2 1292 1260 915 894
3332 2 1292 1260 915 1276
3333 2 915 1260 1694 1343
3334 2 915 1260 1694 1726
3335 2 1292 1260 1694 1343
3336 2 1292 1260 1694 1726
3337 2 395 1261 1269 1251
3338 2 395 1261 1269 1270
3339 2 1293 1261 1269 1251
3340 2 1293 1261 1269 1270
3341 2 1257 1263 1265 1249
3342 2 1257 1263 1265 1266
3343 2 1295 1263 1265 1249
3344 2 1295 1263 1265 1266
3345 3 1249 1265 1266 1229
3346 3 1249 1265 1266 1243
3347 3 1263 1265 1266 1229
3348 3 1263 1265 1266 1243
3349 3 1251 1269 1270 1231
3350 3 1251 1269 1270 1241
3351 3 1261 1269 1270 1231
3352 3 1261 1269 1270 1241
3353 3 1254 1275 1204 1234
3354 3 1254 1275 1204 1168
3355 3 1188 1275 1204 1234
3356 3 1188 1275 1204 1168
3357 3 1184 1279 1280 1164
3358 3 1184 1279 1280 1238
3359 3 1258 1279 1280 1164
3360 3 1258 1279 1280 1238
3361 1 1297 1301 1338 1315
3362 1 1297 1301 1338 1337
3363 1 1298 1303 1342 1313
3364 1 1298 1303 1342 1341
3365 1 1297 1306 1708 1672
3366 1 1297 1306 1708 1347
3367 1 1298 1308 1424 1382
3368 1 1298 1308 1424 1423
3369 1 1297 1310 1352 1668
3370 1 1297 1310 1352 1351
3371 1 1298 1312 1348 1378
3372 1 1298 1312 1348 1419
3373 1 1297 1313 1342 1303
3374 1 1297 1313 1342 1341
3375 1 1298 1315 1338 1301
3376 1 1298 1315 1338 1337
3377 2 1337 1321 1327 1349
3378 2 1337 1321 1327 1359
3379 2 1353 1321 1327 1349
3380 2 1353 1321 1327 1359
3381 2 1327 1321 1337 1335
3382 2 1327 1321 1337 1338
3383 2 1353 1321 1337 1335
3384 2 1353 1321 1337 1338
3385 2 1341 1323 461 481
3386 2 1341 1323 461 493
3387 2 1355 1323 461 481
3388 2 1355 1323 461 493
3389 2 461 1323 1341 1333
3390 2 461 1323 1341 1342
3391 2 1355 1323 1341 1333
3392 2 1355 1323 1341 1342
3393 2 892 1326 1347 1692
3394 2 892 1326 1347 1708
3395 2 1358 1326 1347 1692
3396 2 1358 1326 1347 1708
3397 2 26 1328 1423 1402
3398 2 26 1328 1423 1424
3399 2 1360 1328 1423 1402
3400 2 1360 1328 1423 1424
3401 2 1351 1330 40 43
3402 2 1351 1330 40 72
3403 2 1362 1330 40 43
3404 2 1362 1330 40 72
3405 2 40 1330 1351 1688
3406 2 40 1330 1351 1352
3407 2 1362 1330 1351 1688
3408 2 1362 1330 1351 1352
3409 2 1419 1332 902 983
3410 2 1419 1332 902 934
3411 2 1364 1332 902 983
3412 2 1364 1332 902 934
3413 2 902 1332 1419 1398
3414 2 902 1332 1419 1348
3415 2 1364 1332 1419 1398
3416 2 1364 1332 1419 1348
3417 2 467 1333 1341 1323
3418 2 467 1333 1341 1342
3419 2 1365 1333 1341 1323
3420 2 1365 1333 1341 1342
3421 2 1329 1335 1337 1321
3422 2 1329 1335 1337 1338
3423 2 1367 1335 1337 1321
3424 2 1367 1335 1337 1338
3425 3 1321 1337 1338 1301
3426 3 1321 1337 1338 1315
3427 3 1335 1337 1338 1301
3428 3 1335 1337 1338 1315
3429 3 1323 1341 1342 1303
3430 3 1323 1341 1342 1313
3431 3 1333 1341 1342 1303
3432 3 1333 1341 1342 1313
3433 3 1688 1351 1352 1668
3434 3 1688 1351 1352 1310
3435 3 1330 1351 1352 1668
3436 3 1330 1351 1352 1310
3437 1 1369 1373 1410 1387
3438 1 1369 1373 1410 1409
3439 1 1369 1378 1348 1312
3440 1 1369 1378 1348 1419
3441 1 1369 1382 1424 1308
3442 1 1369 1382 1424 1423
3443 1 1369 1385 1414 1375
3444 1 1369 1385 1414 1413
3445 2 1409 1393 1399 1421
3446 2 1409 1393 1399 1431
3447 2 1425 1393 1399 1421
3448 2 1425 1393 1399 1431
3449 2 1399 1393 1409 1407
3450 2 1399 1393 1409 1410
3451 2 1425 1393 1409 1407
3452 2 1425 1393 1409 1410
3453 2 964 1398 1419 1332
3454 2 964 1398 1419 1348
3455 2 1430 1398 1419 1332
3456 2 1430 1398 1419 1348
3457 2 1423 1402 112 115
3458 2 1423 1402 112 144
3459 2 1434 1402 112 115
3460 2 1434 1402 112 144
3461 2 112 1402 1423 1328
3462 2 112 1402 1423 1424
3463 2 1434 1402 1423 1328
3464 2 1434 1402 1423 1424
3465 2 539 1405 1413 1395
3466 2 539 1405 1413 1414
3467 2 1437 1405 1413 1395
3468 2 1437 1405 1413 1414
3469 3 1393 1409 1410 1373
3470 3 1393 1409 1410 1387
3471 3 1407 1409 1410 1373
3472 3 1407 1409 1410 1387
3473 3 1398 1419 1348 1378
3474 3 1398 1419 1348 1312
3475 3 1332 1419 1348 1378
3476 3 1332 1419 1348 1312
3477 3 1328 1423 1424 1308
3478 3 1328 1423 1424 1382
3479 3 1402 1423 1424 1308
3480 3 1402 1423 1424 1382
3481 1 1370 1375 1414 1385
3482 1 1370 1375 1414 1413
3483 1 1370 1380 1496 1454
3484 1 1370 1380 1496 1495
3485 1 1370 1384 1420 1450
3486 1 1370 1384 1420 1491
3487 1 1370 1387 1410 1373
3488 1 1370 1387 1410 1409
3489 3 1542 1563 1492 1522
3490 3 1542 1563 1492 1456
3491 3 1476 1563 1492 1522
3492 3 1476 1563 1492 1456
3493 2 1413 1395 533 553
3494 2 1413 1395 533 565
3495 2 1427 1395 533 553
3496 2 1427 1395 533 565
3497 2 533 1395 1413 1405
3498 2 533 1395 1413 1414
3499 2 1427 1395 1413 1405
3500 2 1427 1395 1413 1414
3501 2 98 1400 1495 1474
3502 2 98 1400 1495 1496
3503 2 1432 1400 1495 1474
3504 2 1432 1400 1495 1496
3505 2 1491 1404 974 1055
3506 2 1491 1404 974 1006
3507 2 1436 1404 974 1055
3508 2 1436 1404 974 1006
3509 2 974 1404 1491 1470
3510 2 974 1404 1491 1420
3511 2 1436 1404 1491 1470
3512 2 1436 1404 1491 1420
3513 2 1401 1407 1409 1393
3514 2 1401 1407 1409 1410
3515 2 1439 1407 1409 1393
3516 2 1439 1407 1409 1410
3517 3 1395 1413 1414 1375
3518 3 1395 1413 1414 1385
3519 3 1405 1413 1414 1375
3520 3 1405 1413 1414 1385
3521 1 1441 1445 1482 1459
3522 1 1441 1445 1482 1481
3523 1 1442 1447 1486 1457
3524 1 1442 1447 1486 1485
3525 1 1441 1450 1420 1384
3526 1 1441 1450 1420 1491
3527 1 1442 1452 1568 1526
3528 1 1442 1452 1568 1567
3529 1 1441 1454 1496 1380
3530 1 1441 1454 1496 1495
3531 1 1442 1456 1492 1522
3532 1 1442 1456 1492 1563
3533 1 1441 1457 1486 1447
3534 1 1441 1457 1486 1485
3535 1 1442 1459 1482 1445
3536 1 1442 1459 1482 1481
3537 2 1481 1465 1471 1493
3538 2 1481 1465 1471 1503
3539 2 1497 1465 1471 1493
3540 2 1497 1465 1471 1503
3541 2 1471 1465 1481 1479
3542 2 1471 1465 1481 1482
3543 2 1497 1465 1481 1479
3544 2 1497 1465 1481 1482
3545 2 1485 1467 605 625
3546 2 1485 1467 605 637
3547 2 1499 1467 605 625
3548 2 1499 1467 605 637
3549 2 605 1467 1485 1477
3550 2 605 1467 1485 1486
3551 2 1499 1467 1485 1477
3552 2 1499 1467 1485 1486
3553 2 1036 1470 1491 1404
3554 2 1036 1470 1491 1420
3555 2 1502 1470 1491 1404
3556 2 1502 1470 1491 1420
3557 2 170 1472 1567 1546
3558 2 170 1472 1567 1568
3559 2 1504 1472 1567 1546
3560 2 1504 1472 1567 1568
3561 2 1495 1474 184 187
3562 2 1495 1474 184 216
3563 2 1506 1474 184 187
3564 2 1506 1474 184 216
3565 2 184 1474 1495 1400
3566 2 184 1474 1495 1496
3567 2 1506 1474 1495 1400
3568 2 1506 1474 1495 1496
3569 2 1563 1476 1046 1127
3570 2 1563 1476 1046 1078
3571 2 1508 1476 1046 1127
3572 2 1508 1476 1046 1078
3573 2 1046 1476 1563 1542
3574 2 1046 1476 1563 1492
3575 2 1508 1476 1563 1542
3576 2 1508 1476 1563 1492
3577 2 611 1477 1485 1467
3578 2 611 1477 1485 1486
3579 2 1509 1477 1485 1467
3580 2 1509 1477 1485 1486
3581 2 1473 1479 1481 1465
3582 2 1473 1479 1481 1482
3583 2 1511 1479 1481 1465
3584 2 1511 1479 1481 1482
3585 3 1465 1481 1482 1445
3586 3 1465 1481 1482 1459
3587 3 1479 1481 1482 1445
3588 3 1479 1481 1482 1459
3589 3 1467 1485 1486 1447
3590 3 1467 1485 1486 1457
3591 3 1477 1485 1486 1447
3592 3 1477 1485 1486 1457
3593 3 1470 1491 1420 1450
3594 3 1470 1491 1420 1384
3595 3 1404 1491 1420 1450
3596 3 1404 1491 1420 1384
3597 3 1400 1495 1496 1380
3598 3 1400 1495 1496 1454
3599 3 1474 1495 1496 1380
3600 3 1474 1495 1496 1454
3601 1 1513 1517 1554 1531
3602 1 1513 1517 1554 1553
3603 1 1514 1519 1558 1529
3604 1 1514 1519 1558 1557
3605 1 1513 1522 1492 1456
3606 1 1513 1522 1492 1563
3607 1 1514 1524 1640 1598
3608 1 1514 1524 1640 1639
3609 1 1513 1526 1568 1452
3610 1 1513 1526 1568 1567
3611 1 1514 1528 1564 1594
3612 1 1514 1528 1564 1635
3613 1 1513 1529 1558 1519
3614 1 1513 1529 1558 1557
3615 1 1514 1531 1554 1517
3616 1 1514 1531 1554 1553
3617 2 1553 1537 1543 1565
3618 2 1553 1537 1543 1575
3619 2 1569 1537 1543 1565
3620 2 1569 1537 1543 1575
3621 2 1543 1537 1553 1551
3622 2 1543 1537 1553 1554
3623 2 1569 1537 1553 1551
3624 2 1569 1537 1553 1554
3625 2 1557 1539 677 697
3626 2 1557 1539 677 709
3627 2 1571 1539 677 697
3628 2 1571 1539 677 709
3629 2 677 1539 1557 1549
3630 2 677 1539 1557 1558
3631 2 1571 1539 1557 1549
3632 2 1571 1539 1557 1558
3633 2 1108 1542 1563 1476
3634 2 1108 1542 1563 1492
3635 2 1574 1542 1563 1476
3636 2 1574 1542 1563 1492
3637 2 242 1544 1639 1618
3638 2 242 1544 1639 1640
3639 2 1576 1544 1639 1618
3640 2 1576 1544 1639 1640
3641 2 1567 1546 256 259
3642 2 1567 1546 256 288
3643 2 1578 1546 256 259
3644 2 1578 1546 256 288
3645 2 256 1546 1567 1472
3646 2 256 1546 1567 1568
3647 2 1578 1546 1567 1472
3648 2 1578 1546 1567 1568
3649 2 1635 1548 1118 1199
3650 2 1635 1548 1118 1150
3651 2 1580 1548 1118 1199
3652 2 1580 1548 1118 1150
3653 2 1118 1548 1635 1614
3654 2 1118 1548 1635 1564
3655 2 1580 1548 1635 1614
3656 2 1580 1548 1635 1564
3657 2 683 1549 1557 1539
3658 2 683 1549 1557 1558
3659 2 1581 1549 1557 1539
3660 2 1581 1549 1557 1558
3661 2 1545 1551 1553 1537
3662 2 1545 1551 1553 1554
3663 2 1583 1551 1553 1537
3664 2 1583 1551 1553 1554
3665 3 1537 1553 1554 1517
3666 3 1537 1553 1554 1531
3667 3 1551 1553 1554 1517
3668 3 1551 1553 1554 1531
3669 3 1539 1557 1558 1519
3670 3 1539 1557 1558 1529
3671 3 1549 1557 1558 1519
3672 3 1549 1557 1558 1529
3673 3 1472 1567 1568 1452
3674 3 1472 1567 1568 1526
3675 3 1546 1567 1568 1452
3676 3 1546 1567 1568 1526
3677 1 1585 1589 1626 1603
3678 1 1585 1589 1626 1625
3679 1 1585 1594 1564 1528
3680 1 1585 1594 1564 1635
3681 1 1585 1598 1640 1524
3682 1 1585 1598 1640 1639
3683 1 1585 1601 1630 1591
3684 1 1585 1601 1630 1629
3685 2 1625 1609 1615 1637
3686 2 1625 1609 1615 1647
3687 2 1641 1609 1615 1637
3688 2 1641 1609 1615 1647
3689 2 1615 1609 1625 1623
3690 2 1615 1609 1625 1626
3691 2 1641 1609 1625 1623
3692 2 1641 1609 1625 1626
3693 2 1180 1614 1635 1548
3694 2 1180 1614 1635 1564
3695 2 1646 1614 1635 1548
3696 2 1646 1614 1635 1564
3697 2 1639 1618 328 331
3698 2 1639 1618 328 360
3699 2 1650 1618 328 331
3700 2 1650 1618 328 360
3701 2 328 1618 1639 1544
3702 2 328 1618 1639 1640
3703 2 1650 1618 1639 1544
3704 2 1650 1618 1639 1640
3705 2 755 1621 1629 1611
3706 2 755 1621 1629 1630
3707 2 1653 1621 1629 1611
3708 2 1653 1621 1629 1630
3709 3 1609 1625 1626 1589
3710 3 1609 1625 1626 1603
3711 3 1623 1625 1626 1589
3712 3 1623 1625 1626 1603
3713 3 1614 1635 1564 1594
3714 3 1614 1635 1564 1528
3715 3 1548 1635 1564 1594
3716 3 1548 1635 1564 1528
3717 3 1544 1639 1640 1524
3718 3 1544 1639 1640 1598
3719 3 1618 1639 1640 1524
3720 3 1618 1639 1640 1598
3721 3 1326 1347 1708 1306
3722 3 1326 1347 1708 1672
3723 3 1692 1347 1708 1306
3724 3 1692 1347 1708 1672
3725 1 1586 1591 1630 1601
3726 1 1586 1591 1630 1629
3727 1 1586 1596 1712 1670
3728 1 1586 1596 1712 1711
3729 1 1586 1600 1636 1666
3730 1 1586 1600 1636 1707
3731 1 1586 1603 1626 1589
3732 1 1586 1603 1626 1625
3733 2 1629 1611 749 769
3734 2 1629 1611 749 781
3735 2 1643 1611 749 769
3736 2 1643 1611 749 781
3737 2 749 1611 1629 1621
3738 2 749 1611 1629 1630
3739 2 1643 1611 1629 1621
3740 2 1643 1611 1629 1630
3741 2 314 1616 1711 1690
3742 2 314 1616 1711 1712
3743 2 1648 1616 1711 1690
3744 2 1648 1616 1711 1712
3745 2 1707 1620 1190 1271
3746 2 1707 1620 1190 1222
3747 2 1652 1620 1190 1271
3748 2 1652 1620 1190 1222
3749 2 1190 1620 1707 1686
3750 2 1190 1620 1707 1636
3751 2 1652 1620 1707 1686
3752 2 1652 1620 1707 1636
3753 2 1617 1623 1625 1609
3754 2 1617 1623 1625 1626
3755 2 1655 1623 1625 1609
3756 2 1655 1623 1625 1626
3757 3 1611 1629 1630 1591
3758 3 1611 1629 1630 1601
3759 3 1621 1629 1630 1591
3760 3 1621 1629 1630 1601
3761 1 1657 1661 1698 1675
3762 1 1657 1661 1698 1697
3763 1 1658 1663 1702 1673
3764 1 1658 1663 1702 1701
3765 1 1657 1666 1636 1600
3766 1 1657 1666 1636 1707
3767 1 1658 1668 1352 1310
3768 1 1658 1668 1352 1351
3769 1 1657 1670 1712 1596
3770 1 1657 1670 1712 1711
3771 1 1658 1672 1708 1306
3772 1 1658 1672 1708 1347
3773 1 1657 1673 1702 1663
3774 1 1657 1673 1702 1701
3775 1 1658 1675 1698 1661
3776 1 1658 1675 1698 1697
3777 2 1697 1681 1687 1709
3778 2 1697 1681 1687 1719
3779 2 1713 1681 1687 1709
3780 2 1713 1681 1687 1719
3781 2 1687 1681 1697 1695
3782 2 1687 1681 1697 1698
3783 2 1713 1681 1697 1695
3784 2 1713 1681 1697 1698
3785 2 1701 1683 821 841
3786 2 1701 1683 821 853
3787 2 1715 1683 821 841
3788 2 1715 1683 821 853
3789 2 821 1683 1701 1693
3790 2 821 1683 1701 1702
3791 2 1715 1683 1701 1693
3792 2 1715 1683 1701 1702
3793 2 1252 1686 1707 1620
3794 2 1252 1686 1707 1636
3795 2 1718 1686 1707 1620
3796 2 1718 1686 1707 1636
3797 2 386 1688 1351 1330
3798 2 386 1688 1351 1352
3799 2 1720 1688 1351 1330
3800 2 1720 1688 1351 1352
3801 2 1711 1690 400 403
3802 2 1711 1690 400 432
3803 2 1722 1690 400 403
3804 2 1722 1690 400 432
3805 2 400 1690 1711 1616
3806 2 400 1690 1711 1712
3807 2 1722 1690 1711 1616
3808 2 1722 1690 1711 1712
3809 2 1347 1692 1262 911
3810 2 1347 1692 1262 1294
3811 2 1724 1692 1262 911
3812 2 1724 1692 1262 1294
3813 2 1262 1692 1347 1326
3814 2 1262 1692 1347 1708
3815 2 1724 1692 1347 1326
3816 2 1724 1692 1347 1708
3817 2 827 1693 1701 1683
3818 2 827 1693 1701 1702
3819 2 1725 1693 1701 1683
3820 2 1725 1693 1701 1702
3821 2 1689 1695 1697 1681
3822 2 1689 1695 1697 1698
3823 2 1727 1695 1697 1681
3824 2 1727 1695 1697 1698
3825 3 1681 1697 1698 1661
3826 3 1681 1697 1698 1675
3827 3 1695 1697 1698 1661
3828 3 1695 1697 1698 1675
3829 3 1683 1701 1702 1663
3830 3 1683 1701 1702 1673
3831 3 1693 1701 1702 1663
3832 3 1693 1701 1702 1673
3833 3 1686 1707 1636 1666
3834 3 1686 1707 1636 1600
3835 3 1620 1707 1636 1666
3836 3 1620 1707 1636 1600
3837 3 1616 1711 1712 1596
3838 3 1616 1711 1712 1670
3839 3 1690 1711 1712 1596
3840 3 1690 1711 1712 1670

Impropers

1 1 44 6 92 115
2 1 48 8 378 47
3 1 50 9 15 49
4 1 54 11 13 53
5 1 54 13 11 53
6 1 50 15 9 49
7 1 120 18 80 119
8 1 404 20 366 43
9 1 115 26 112 44
10 1 1328 26 1423 1360
11 1 47 28 398 48
12 1 462 28 483 494
13 1 49 29 35 50
14 1 891 29 909 923
15 1 25 31 41 57
16 1 53 31 33 54
17 1 39 33 41 71
18 1 53 33 31 54
19 1 49 35 29 50
20 1 901 35 909 933
21 1 119 38 100 120
22 1 468 38 555 500
23 1 43 40 386 404
24 1 1330 40 1351 1362
25 1 115 44 26 112
26 1 28 47 462 60
27 1 48 47 8 378
28 1 398 47 828 430
29 1 47 48 28 398
30 1 29 49 891 61
31 1 35 49 901 67
32 1 50 49 9 15
33 1 49 50 29 35
34 1 31 53 25 63
35 1 33 53 39 65
36 1 54 53 11 13
37 1 53 54 31 33
38 1 26 58 1328 115
39 1 28 60 462 47
40 1 29 61 891 49
41 1 31 63 25 53
42 1 33 65 39 53
43 1 35 67 901 49
44 1 38 70 468 119
45 1 40 72 1330 43
46 1 120 80 18 119
47 1 126 83 85 125
48 1 122 87 81 121
49 1 44 92 6 115
50 1 119 100 38 120
51 1 534 100 555 566
52 1 97 103 113 129
53 1 125 103 105 126
54 1 121 107 101 122
55 1 973 107 981 1005
56 1 115 112 26 44
57 1 1402 112 1423 1434
58 1 26 115 1328 58
59 1 44 115 6 92
60 1 112 115 1402 144
61 1 38 119 468 70
62 1 100 119 534 132
63 1 120 119 80 18
64 1 119 120 100 38
65 1 101 121 963 133
66 1 107 121 973 139
67 1 122 121 81 87
68 1 121 122 101 107
69 1 100 132 534 119
70 1 103 135 97 125
71 1 107 139 973 121
72 1 112 144 1402 115
73 1 116 78 164 187
74 1 122 81 87 121
75 1 126 85 83 125
76 1 192 90 152 191
77 1 170 259 1472 202
78 1 188 259 150 236
79 1 256 259 1546 288
80 1 187 98 184 116
81 1 1400 98 1495 1432
82 1 121 101 107 122
83 1 963 101 981 995
84 1 111 105 113 143
85 1 125 105 103 126
86 1 191 110 172 192
87 1 540 110 627 572
88 1 187 116 98 184
89 1 103 125 97 135
90 1 105 125 111 137
91 1 126 125 83 85
92 1 125 126 103 105
93 1 98 130 1400 187
94 1 101 133 963 121
95 1 105 137 111 125
96 1 110 142 540 191
97 1 188 150 236 259
98 1 192 152 90 191
99 1 194 153 159 193
100 1 198 155 157 197
101 1 198 157 155 197
102 1 194 159 153 193
103 1 264 162 224 263
104 1 116 164 78 187
105 1 259 170 256 188
106 1 1472 170 1567 1504
107 1 191 172 110 192
108 1 606 172 627 638
109 1 193 173 179 194
110 1 1035 173 1053 1067
111 1 169 175 185 201
112 1 197 175 177 198
113 1 183 177 185 215
114 1 197 177 175 198
115 1 193 179 173 194
116 1 1045 179 1053 1077
117 1 263 182 244 264
118 1 612 182 699 644
119 1 187 184 98 116
120 1 1474 184 1495 1506
121 1 98 187 1400 130
122 1 116 187 78 164
123 1 184 187 1474 216
124 1 259 188 170 256
125 1 110 191 540 142
126 1 172 191 606 204
127 1 192 191 152 90
128 1 191 192 172 110
129 1 173 193 1035 205
130 1 179 193 1045 211
131 1 194 193 153 159
132 1 193 194 173 179
133 1 175 197 169 207
134 1 177 197 183 209
135 1 198 197 155 157
136 1 197 198 175 177
137 1 170 202 1472 259
138 1 172 204 606 191
139 1 173 205 1035 193
140 1 175 207 169 197
141 1 177 209 183 197
142 1 179 211 1045 193
143 1 182 214 612 263
144 1 184 216 1474 187
145 1 328 360 1618 331
146 1 260 222 308 331
147 1 264 224 162 263
148 1 266 225 231 265
149 1 270 227 229 269
150 1 270 229 227 269
151 1 266 231 225 265
152 1 336 234 296 335
153 1 188 236 150 259
154 1 331 242 328 260
155 1 1544 242 1639 1576
156 1 263 244 182 264
157 1 678 244 699 710
158 1 265 245 251 266
159 1 1107 245 1125 1139
160 1 241 247 257 273
161 1 269 247 249 270
162 1 255 249 257 287
163 1 269 249 247 270
164 1 265 251 245 266
165 1 1117 251 1125 1149
166 1 335 254 316 336
167 1 684 254 771 716
168 1 259 256 170 188
169 1 1546 256 1567 1578
170 1 331 260 242 328
171 1 182 263 612 214
172 1 244 263 678 276
173 1 264 263 224 162
174 1 263 264 244 182
175 1 245 265 1107 277
176 1 251 265 1117 283
177 1 266 265 225 231
178 1 265 266 245 251
179 1 247 269 241 279
180 1 249 269 255 281
181 1 270 269 227 229
182 1 269 270 247 249
183 1 242 274 1544 331
184 1 244 276 678 263
185 1 245 277 1107 265
186 1 247 279 241 269
187 1 249 281 255 269
188 1 251 283 1117 265
189 1 254 286 684 335
190 1 256 288 1546 259
191 1 336 296 234 335
192 1 342 299 301 341
193 1 338 303 297 337
194 1 260 308 222 331
195 1 335 316 254 336
196 1 750 316 771 782
197 1 313 319 329 345
198 1 341 319 321 342
199 1 337 323 317 338
200 1 1189 323 1197 1221
201 1 331 328 242 260
202 1 1618 328 1639 1650
203 1 242 331 1544 274
204 1 260 331 222 308
205 1 328 331 1618 360
206 1 254 335 684 286
207 1 316 335 750 348
208 1 336 335 296 234
209 1 335 336 316 254
210 1 317 337 1179 349
211 1 323 337 1189 355
212 1 338 337 297 303
213 1 337 338 317 323
214 1 316 348 750 335
215 1 319 351 313 341
216 1 323 355 1189 337
217 1 40 43 1330 72
218 1 386 43 1688 418
219 1 404 43 366 20
220 1 332 294 380 403
221 1 338 297 303 337
222 1 342 301 299 341
223 1 408 306 368 407
224 1 400 432 1690 403
225 1 403 314 400 332
226 1 1616 314 1711 1648
227 1 337 317 323 338
228 1 1179 317 1197 1211
229 1 327 321 329 359
230 1 341 321 319 342
231 1 407 326 388 408
232 1 756 326 843 788
233 1 403 332 314 400
234 1 319 341 313 351
235 1 321 341 327 353
236 1 342 341 299 301
237 1 341 342 319 321
238 1 314 346 1616 403
239 1 317 349 1179 337
240 1 321 353 327 341
241 1 326 358 756 407
242 1 404 366 20 43
243 1 408 368 306 407
244 1 410 369 375 409
245 1 414 371 373 413
246 1 414 373 371 413
247 1 410 375 369 409
248 1 48 378 8 47
249 1 332 380 294 403
250 1 43 386 40 404
251 1 1688 386 1351 1720
252 1 407 388 326 408
253 1 822 388 843 854
254 1 409 389 395 410
255 1 1251 389 1269 1283
256 1 385 391 401 417
257 1 413 391 393 414
258 1 399 393 401 431
259 1 413 393 391 414
260 1 409 395 389 410
261 1 1261 395 1269 1293
262 1 47 398 28 48
263 1 828 398 483 860
264 1 403 400 314 332
265 1 1690 400 1711 1722
266 1 314 403 1616 346
267 1 332 403 294 380
268 1 400 403 1690 432
269 1 43 404 386 40
270 1 326 407 756 358
271 1 388 407 822 420
272 1 408 407 368 306
273 1 407 408 388 326
274 1 389 409 1251 421
275 1 395 409 1261 427
276 1 410 409 369 375
277 1 409 410 389 395
278 1 391 413 385 423
279 1 393 413 399 425
280 1 414 413 371 373
281 1 413 414 391 393
282 1 386 418 1688 43
283 1 388 420 822 407
284 1 389 421 1251 409
285 1 391 423 385 413
286 1 393 425 399 413
287 1 395 427 1261 409
288 1 398 430 828 47
289 1 476 438 524 547
290 1 480 440 810 479
291 1 482 441 447 481
292 1 486 443 445 485
293 1 486 445 443 485
294 1 482 447 441 481
295 1 552 450 512 551
296 1 836 452 798 475
297 1 547 458 544 476
298 1 896 458 991 928
299 1 30 460 51 62
300 1 479 460 830 480
301 1 481 461 467 482
302 1 1323 461 1341 1355
303 1 457 463 473 489
304 1 485 463 465 486
305 1 471 465 473 503
306 1 485 465 463 486
307 1 481 467 461 482
308 1 1333 467 1341 1365
309 1 36 470 123 68
310 1 551 470 532 552
311 1 475 472 818 836
312 1 898 472 919 930
313 1 547 476 458 544
314 1 460 479 30 492
315 1 480 479 440 810
316 1 830 479 396 862
317 1 479 480 460 830
318 1 461 481 1323 493
319 1 467 481 1333 499
320 1 482 481 441 447
321 1 481 482 461 467
322 1 463 485 457 495
323 1 465 485 471 497
324 1 486 485 443 445
325 1 485 486 463 465
326 1 458 490 896 547
327 1 460 492 30 479
328 1 461 493 1323 481
329 1 463 495 457 485
330 1 465 497 471 485
331 1 467 499 1333 481
332 1 470 502 36 551
333 1 472 504 898 475
334 1 552 512 450 551
335 1 558 515 517 557
336 1 554 519 513 553
337 1 476 524 438 547
338 1 102 532 123 134
339 1 551 532 470 552
340 1 529 535 545 561
341 1 557 535 537 558
342 1 553 539 533 554
343 1 1405 539 1413 1437
344 1 547 544 458 476
345 1 970 544 991 1002
346 1 458 547 896 490
347 1 476 547 438 524
348 1 544 547 970 576
349 1 470 551 36 502
350 1 532 551 102 564
351 1 552 551 512 450
352 1 551 552 532 470
353 1 533 553 1395 565
354 1 539 553 1405 571
355 1 554 553 513 519
356 1 553 554 533 539
357 1 532 564 102 551
358 1 535 567 529 557
359 1 539 571 1405 553
360 1 544 576 970 547
361 1 548 510 596 619
362 1 554 513 519 553
363 1 558 517 515 557
364 1 624 522 584 623
365 1 602 691 1040 634
366 1 620 691 582 668
367 1 688 691 1114 720
368 1 619 530 616 548
369 1 968 530 1063 1000
370 1 553 533 539 554
371 1 1395 533 1413 1427
372 1 543 537 545 575
373 1 557 537 535 558
374 1 108 542 195 140
375 1 623 542 604 624
376 1 619 548 530 616
377 1 535 557 529 567
378 1 537 557 543 569
379 1 558 557 515 517
380 1 557 558 535 537
381 1 530 562 968 619
382 1 533 565 1395 553
383 1 537 569 543 557
384 1 542 574 108 623
385 1 620 582 668 691
386 1 624 584 522 623
387 1 626 585 591 625
388 1 630 587 589 629
389 1 630 589 587 629
390 1 626 591 585 625
391 1 696 594 656 695
392 1 548 596 510 619
393 1 691 602 688 620
394 1 1040 602 1135 1072
395 1 174 604 195 206
396 1 623 604 542 624
397 1 625 605 611 626
398 1 1467 605 1485 1499
399 1 601 607 617 633
400 1 629 607 609 630
401 1 615 609 617 647
402 1 629 609 607 630
403 1 625 611 605 626
404 1 1477 611 1485 1509
405 1 180 614 267 212
406 1 695 614 676 696
407 1 619 616 530 548
408 1 1042 616 1063 1074
409 1 530 619 968 562
410 1 548 619 510 596
411 1 616 619 1042 648
412 1 691 620 602 688
413 1 542 623 108 574
414 1 604 623 174 636
415 1 624 623 584 522
416 1 623 624 604 542
417 1 605 625 1467 637
418 1 611 625 1477 643
419 1 626 625 585 591
420 1 625 626 605 611
421 1 607 629 601 639
422 1 609 629 615 641
423 1 630 629 587 589
424 1 629 630 607 609
425 1 602 634 1040 691
426 1 604 636 174 623
427 1 605 637 1467 625
428 1 607 639 601 629
429 1 609 641 615 629
430 1 611 643 1477 625
431 1 614 646 180 695
432 1 616 648 1042 619
433 1 760 792 1186 763
434 1 692 654 740 763
435 1 696 656 594 695
436 1 698 657 663 697
437 1 702 659 661 701
438 1 702 661 659 701
439 1 698 663 657 697
440 1 768 666 728 767
441 1 620 668 582 691
442 1 763 674 760 692
443 1 1112 674 1207 1144
444 1 246 676 267 278
445 1 695 676 614 696
446 1 697 677 683 698
447 1 1539 677 1557 1571
448 1 673 679 689 705
449 1 701 679 681 702
450 1 687 681 689 719
451 1 701 681 679 702
452 1 697 683 677 698
453 1 1549 683 1557 1581
454 1 252 686 339 284
455 1 767 686 748 768
456 1 691 688 602 620
457 1 1114 688 1135 1146
458 1 763 692 674 760
459 1 614 695 180 646
460 1 676 695 246 708
461 1 696 695 656 594
462 1 695 696 676 614
463 1 677 697 1539 709
464 1 683 697 1549 715
465 1 698 697 657 663
466 1 697 698 677 683
467 1 679 701 673 711
468 1 681 701 687 713
469 1 702 701 659 661
470 1 701 702 679 681
471 1 674 706 1112 763
472 1 676 708 246 695
473 1 677 709 1539 697
474 1 679 711 673 701
475 1 681 713 687 701
476 1 683 715 1549 697
477 1 686 718 252 767
478 1 688 720 1114 691
479 1 768 728 666 767
480 1 774 731 733 773
481 1 770 735 729 769
482 1 692 740 654 763
483 1 318 748 339 350
484 1 767 748 686 768
485 1 745 751 761 777
486 1 773 751 753 774
487 1 769 755 749 770
488 1 1621 755 1629 1653
489 1 763 760 674 692
490 1 1186 760 1207 1218
491 1 674 763 1112 706
492 1 692 763 654 740
493 1 760 763 1186 792
494 1 686 767 252 718
495 1 748 767 318 780
496 1 768 767 728 666
497 1 767 768 748 686
498 1 749 769 1611 781
499 1 755 769 1621 787
500 1 770 769 729 735
501 1 769 770 749 755
502 1 748 780 318 767
503 1 751 783 745 773
504 1 755 787 1621 769
505 1 472 475 898 504
506 1 818 475 1256 850
507 1 836 475 798 452
508 1 764 726 812 835
509 1 770 729 735 769
510 1 774 733 731 773
511 1 840 738 800 839
512 1 832 864 1258 835
513 1 835 746 832 764
514 1 1184 746 1279 1216
515 1 769 749 755 770
516 1 1611 749 1629 1643
517 1 759 753 761 791
518 1 773 753 751 774
519 1 324 758 411 356
520 1 839 758 820 840
521 1 835 764 746 832
522 1 751 773 745 783
523 1 753 773 759 785
524 1 774 773 731 733
525 1 773 774 751 753
526 1 746 778 1184 835
527 1 749 781 1611 769
528 1 753 785 759 773
529 1 758 790 324 839
530 1 836 798 452 475
531 1 840 800 738 839
532 1 842 801 807 841
533 1 846 803 805 845
534 1 846 805 803 845
535 1 842 807 801 841
536 1 480 810 440 479
537 1 764 812 726 835
538 1 475 818 472 836
539 1 1256 818 919 1288
540 1 390 820 411 422
541 1 839 820 758 840
542 1 841 821 827 842
543 1 1683 821 1701 1715
544 1 817 823 833 849
545 1 845 823 825 846
546 1 831 825 833 863
547 1 845 825 823 846
548 1 841 827 821 842
549 1 1693 827 1701 1725
550 1 396 830 51 428
551 1 479 830 460 480
552 1 835 832 746 764
553 1 1258 832 1279 1290
554 1 746 835 1184 778
555 1 764 835 726 812
556 1 832 835 1258 864
557 1 475 836 818 472
558 1 758 839 324 790
559 1 820 839 390 852
560 1 840 839 800 738
561 1 839 840 820 758
562 1 821 841 1683 853
563 1 827 841 1693 859
564 1 842 841 801 807
565 1 841 842 821 827
566 1 823 845 817 855
567 1 825 845 831 857
568 1 846 845 803 805
569 1 845 846 823 825
570 1 818 850 1256 475
571 1 820 852 390 839
572 1 821 853 1683 841
573 1 823 855 817 845
574 1 825 857 831 845
575 1 827 859 1693 841
576 1 830 862 396 479
577 1 42 5 19 41
578 1 46 7 17 45
579 1 412 10 376 51
580 1 128 12 86 127
581 1 56 14 372 55
582 1 52 16 82 123
583 1 46 17 7 45
584 1 42 19 5 41
585 1 31 25 53 63
586 1 41 25 39 42
587 1 45 27 37 46
588 1 893 27 913 925
589 1 51 30 396 412
590 1 460 30 479 492
591 1 127 32 106 128
592 1 1322 32 1411 1354
593 1 55 34 392 56
594 1 1336 34 1339 1368
595 1 123 36 102 52
596 1 470 36 551 502
597 1 45 37 27 46
598 1 899 37 913 931
599 1 33 39 53 65
600 1 41 39 25 42
601 1 25 41 31 57
602 1 39 41 33 71
603 1 42 41 5 19
604 1 41 42 25 39
605 1 27 45 893 59
606 1 37 45 899 69
607 1 46 45 7 17
608 1 45 46 27 37
609 1 123 52 102 36
610 1 34 55 1336 66
611 1 56 55 372 14
612 1 392 55 1682 424
613 1 55 56 392 34
614 1 25 57 31 41
615 1 27 59 893 45
616 1 30 62 460 51
617 1 32 64 1322 127
618 1 34 66 1336 55
619 1 36 68 470 123
620 1 37 69 899 45
621 1 39 71 33 41
622 1 114 77 91 113
623 1 52 82 16 123
624 1 128 86 12 127
625 1 118 89 79 117
626 1 103 97 125 135
627 1 113 97 111 114
628 1 123 102 36 52
629 1 532 102 551 564
630 1 127 106 32 128
631 1 1408 106 1411 1440
632 1 117 109 99 118
633 1 971 109 985 1003
634 1 97 113 103 129
635 1 111 113 105 143
636 1 114 113 77 91
637 1 113 114 97 111
638 1 36 123 470 68
639 1 52 123 82 16
640 1 102 123 532 134
641 1 32 127 1322 64
642 1 106 127 1408 138
643 1 128 127 12 86
644 1 127 128 32 106
645 1 97 129 103 113
646 1 102 134 532 123
647 1 106 138 1408 127
648 1 109 141 971 117
649 1 118 79 89 117
650 1 200 84 158 199
651 1 124 88 154 195
652 1 114 91 77 113
653 1 180 267 614 212
654 1 196 267 226 160
655 1 246 267 676 278
656 1 117 99 109 118
657 1 965 99 985 997
658 1 199 104 178 200
659 1 1394 104 1483 1426
660 1 195 108 174 124
661 1 542 108 623 574
662 1 105 111 125 137
663 1 113 111 97 114
664 1 99 117 965 131
665 1 109 117 971 141
666 1 118 117 79 89
667 1 117 118 99 109
668 1 195 124 174 108
669 1 99 131 965 117
670 1 104 136 1394 199
671 1 108 140 542 195
672 1 111 143 105 113
673 1 186 149 163 185
674 1 190 151 161 189
675 1 124 154 88 195
676 1 272 156 230 271
677 1 200 158 84 199
678 1 196 160 226 267
679 1 190 161 151 189
680 1 186 163 149 185
681 1 175 169 197 207
682 1 185 169 183 186
683 1 189 171 181 190
684 1 1037 171 1057 1069
685 1 195 174 108 124
686 1 604 174 623 636
687 1 271 176 250 272
688 1 1466 176 1555 1498
689 1 199 178 104 200
690 1 1480 178 1483 1512
691 1 267 180 246 196
692 1 614 180 695 646
693 1 189 181 171 190
694 1 1043 181 1057 1075
695 1 177 183 197 209
696 1 185 183 169 186
697 1 169 185 175 201
698 1 183 185 177 215
699 1 186 185 149 163
700 1 185 186 169 183
701 1 171 189 1037 203
702 1 181 189 1043 213
703 1 190 189 151 161
704 1 189 190 171 181
705 1 108 195 542 140
706 1 124 195 154 88
707 1 174 195 604 206
708 1 267 196 246 180
709 1 104 199 1394 136
710 1 178 199 1480 210
711 1 200 199 84 158
712 1 199 200 104 178
713 1 169 201 175 185
714 1 171 203 1037 189
715 1 174 206 604 195
716 1 176 208 1466 271
717 1 178 210 1480 199
718 1 180 212 614 267
719 1 181 213 1043 189
720 1 183 215 177 185
721 1 325 357 1187 333
722 1 258 221 235 257
723 1 262 223 233 261
724 1 196 226 160 267
725 1 344 228 302 343
726 1 272 230 156 271
727 1 268 232 298 339
728 1 262 233 223 261
729 1 258 235 221 257
730 1 247 241 269 279
731 1 257 241 255 258
732 1 261 243 253 262
733 1 1109 243 1129 1141
734 1 267 246 180 196
735 1 676 246 695 708
736 1 343 248 322 344
737 1 1538 248 1627 1570
738 1 271 250 176 272
739 1 1552 250 1555 1584
740 1 339 252 318 268
741 1 686 252 767 718
742 1 261 253 243 262
743 1 1115 253 1129 1147
744 1 249 255 269 281
745 1 257 255 241 258
746 1 241 257 247 273
747 1 255 257 249 287
748 1 258 257 221 235
749 1 257 258 241 255
750 1 243 261 1109 275
751 1 253 261 1115 285
752 1 262 261 223 233
753 1 261 262 243 253
754 1 339 268 318 252
755 1 176 271 1466 208
756 1 250 271 1552 282
757 1 272 271 156 230
758 1 271 272 176 250
759 1 241 273 247 257
760 1 243 275 1109 261
761 1 246 278 676 267
762 1 248 280 1538 343
763 1 250 282 1552 271
764 1 252 284 686 339
765 1 253 285 1115 261
766 1 255 287 249 257
767 1 330 293 307 329
768 1 268 298 232 339
769 1 344 302 228 343
770 1 334 305 295 333
771 1 319 313 341 351
772 1 329 313 327 330
773 1 339 318 252 268
774 1 748 318 767 780
775 1 343 322 248 344
776 1 1624 322 1627 1656
777 1 333 325 315 334
778 1 1187 325 1201 1219
779 1 313 329 319 345
780 1 327 329 321 359
781 1 330 329 293 307
782 1 329 330 313 327
783 1 252 339 686 284
784 1 268 339 298 232
785 1 318 339 748 350
786 1 248 343 1538 280
787 1 322 343 1624 354
788 1 344 343 228 302
789 1 343 344 248 322
790 1 313 345 319 329
791 1 318 350 748 339
792 1 322 354 1624 343
793 1 30 51 460 62
794 1 396 51 830 428
795 1 412 51 10 376
796 1 334 295 305 333
797 1 416 300 374 415
798 1 340 304 370 411
799 1 330 307 293 329
800 1 399 431 393 401
801 1 333 315 325 334
802 1 1181 315 1201 1213
803 1 415 320 394 416
804 1 1610 320 1699 1642
805 1 411 324 390 340
806 1 758 324 839 790
807 1 321 327 341 353
808 1 329 327 313 330
809 1 315 333 1181 347
810 1 325 333 1187 357
811 1 334 333 295 305
812 1 333 334 315 325
813 1 411 340 390 324
814 1 315 347 1181 333
815 1 320 352 1610 415
816 1 324 356 758 411
817 1 327 359 321 329
818 1 402 365 379 401
819 1 406 367 377 405
820 1 340 370 304 411
821 1 56 372 14 55
822 1 416 374 300 415
823 1 412 376 10 51
824 1 406 377 367 405
825 1 402 379 365 401
826 1 391 385 413 423
827 1 401 385 399 402
828 1 405 387 397 406
829 1 1253 387 1273 1285
830 1 411 390 324 340
831 1 820 390 839 852
832 1 55 392 34 56
833 1 1682 392 1339 1714
834 1 415 394 320 416
835 1 1696 394 1699 1728
836 1 51 396 30 412
837 1 830 396 479 862
838 1 405 397 387 406
839 1 1259 397 1273 1291
840 1 393 399 413 425
841 1 401 399 385 402
842 1 385 401 391 417
843 1 399 401 393 431
844 1 402 401 365 379
845 1 401 402 385 399
846 1 387 405 1253 419
847 1 397 405 1259 429
848 1 406 405 367 377
849 1 405 406 387 397
850 1 324 411 758 356
851 1 340 411 370 304
852 1 390 411 820 422
853 1 51 412 30 396
854 1 320 415 1610 352
855 1 394 415 1696 426
856 1 416 415 300 374
857 1 415 416 320 394
858 1 385 417 391 401
859 1 387 419 1253 405
860 1 390 422 820 411
861 1 392 424 1682 55
862 1 394 426 1696 415
863 1 396 428 830 51
864 1 397 429 1259 405
865 1 474 437 451 473
866 1 478 439 449 477
867 1 844 442 808 483
868 1 560 444 518 559
869 1 488 446 804 487
870 1 484 448 514 555
871 1 478 449 439 477
872 1 474 451 437 473
873 1 463 457 485 495
874 1 473 457 471 474
875 1 477 459 469 478
876 1 1325 459 1345 1357
877 1 28 462 47 60
878 1 483 462 828 844
879 1 559 464 538 560
880 1 890 464 979 922
881 1 487 466 824 488
882 1 904 466 907 936
883 1 38 468 119 70
884 1 555 468 534 484
885 1 477 469 459 478
886 1 1331 469 1345 1363
887 1 465 471 485 497
888 1 473 471 457 474
889 1 457 473 463 489
890 1 471 473 465 503
891 1 474 473 437 451
892 1 473 474 457 471
893 1 459 477 1325 491
894 1 469 477 1331 501
895 1 478 477 439 449
896 1 477 478 459 469
897 1 555 484 534 468
898 1 466 487 904 498
899 1 488 487 804 446
900 1 824 487 1250 856
901 1 487 488 824 466
902 1 457 489 463 473
903 1 459 491 1325 477
904 1 462 494 28 483
905 1 464 496 890 559
906 1 466 498 904 487
907 1 468 500 38 555
908 1 469 501 1331 477
909 1 471 503 465 473
910 1 546 509 523 545
911 1 484 514 448 555
912 1 560 518 444 559
913 1 550 521 511 549
914 1 535 529 557 567
915 1 545 529 543 546
916 1 100 534 119 132
917 1 555 534 468 484
918 1 559 538 464 560
919 1 976 538 979 1008
920 1 549 541 531 550
921 1 1403 541 1417 1435
922 1 529 545 535 561
923 1 543 545 537 575
924 1 546 545 509 523
925 1 545 546 529 543
926 1 468 555 38 500
927 1 484 555 514 448
928 1 534 555 100 566
929 1 464 559 890 496
930 1 538 559 976 570
931 1 560 559 444 518
932 1 559 560 464 538
933 1 529 561 535 545
934 1 534 566 100 555
935 1 538 570 976 559
936 1 541 573 1403 549
937 1 550 511 521 549
938 1 632 516 590 631
939 1 556 520 586 627
940 1 546 523 509 545
941 1 612 699 182 644
942 1 628 699 658 592
943 1 678 699 244 710
944 1 549 531 541 550
945 1 1397 531 1417 1429
946 1 631 536 610 632
947 1 962 536 1051 994
948 1 110 540 191 142
949 1 627 540 606 556
950 1 537 543 557 569
951 1 545 543 529 546
952 1 531 549 1397 563
953 1 541 549 1403 573
954 1 550 549 511 521
955 1 549 550 531 541
956 1 627 556 606 540
957 1 531 563 1397 549
958 1 536 568 962 631
959 1 540 572 110 627
960 1 543 575 537 545
961 1 618 581 595 617
962 1 622 583 593 621
963 1 556 586 520 627
964 1 704 588 662 703
965 1 632 590 516 631
966 1 628 592 658 699
967 1 622 593 583 621
968 1 618 595 581 617
969 1 607 601 629 639
970 1 617 601 615 618
971 1 621 603 613 622
972 1 1469 603 1489 1501
973 1 172 606 191 204
974 1 627 606 540 556
975 1 703 608 682 704
976 1 1034 608 1123 1066
977 1 631 610 536 632
978 1 1048 610 1051 1080
979 1 182 612 263 214
980 1 699 612 678 628
981 1 621 613 603 622
982 1 1475 613 1489 1507
983 1 609 615 629 641
984 1 617 615 601 618
985 1 601 617 607 633
986 1 615 617 609 647
987 1 618 617 581 595
988 1 617 618 601 615
989 1 603 621 1469 635
990 1 613 621 1475 645
991 1 622 621 583 593
992 1 621 622 603 613
993 1 540 627 110 572
994 1 556 627 586 520
995 1 606 627 172 638
996 1 699 628 678 612
997 1 536 631 962 568
998 1 610 631 1048 642
999 1 632 631 516 590
1000 1 631 632 536 610
1001 1 601 633 607 617
1002 1 603 635 1469 621
1003 1 606 638 172 627
1004 1 608 640 1034 703
1005 1 610 642 1048 631
1006 1 612 644 182 699
1007 1 613 645 1475 621
1008 1 615 647 609 617
1009 1 757 789 1619 765
1010 1 690 653 667 689
1011 1 694 655 665 693
1012 1 628 658 592 699
1013 1 776 660 734 775
1014 1 704 662 588 703
1015 1 700 664 730 771
1016 1 694 665 655 693
1017 1 690 667 653 689
1018 1 679 673 701 711
1019 1 689 673 687 690
1020 1 693 675 685 694
1021 1 1541 675 1561 1573
1022 1 244 678 263 276
1023 1 699 678 612 628
1024 1 775 680 754 776
1025 1 1106 680 1195 1138
1026 1 703 682 608 704
1027 1 1120 682 1123 1152
1028 1 254 684 335 286
1029 1 771 684 750 700
1030 1 693 685 675 694
1031 1 1547 685 1561 1579
1032 1 681 687 701 713
1033 1 689 687 673 690
1034 1 673 689 679 705
1035 1 687 689 681 719
1036 1 690 689 653 667
1037 1 689 690 673 687
1038 1 675 693 1541 707
1039 1 685 693 1547 717
1040 1 694 693 655 665
1041 1 693 694 675 685
1042 1 771 700 750 684
1043 1 608 703 1034 640
1044 1 682 703 1120 714
1045 1 704 703 588 662
1046 1 703 704 608 682
1047 1 673 705 679 689
1048 1 675 707 1541 693
1049 1 678 710 244 699
1050 1 680 712 1106 775
1051 1 682 714 1120 703
1052 1 684 716 254 771
1053 1 685 717 1547 693
1054 1 687 719 681 689
1055 1 762 725 739 761
1056 1 700 730 664 771
1057 1 776 734 660 775
1058 1 766 737 727 765
1059 1 751 745 773 783
1060 1 761 745 759 762
1061 1 316 750 335 348
1062 1 771 750 684 700
1063 1 775 754 680 776
1064 1 1192 754 1195 1224
1065 1 765 757 747 766
1066 1 1619 757 1633 1651
1067 1 745 761 751 777
1068 1 759 761 753 791
1069 1 762 761 725 739
1070 1 761 762 745 759
1071 1 684 771 254 716
1072 1 700 771 730 664
1073 1 750 771 316 782
1074 1 680 775 1106 712
1075 1 754 775 1192 786
1076 1 776 775 660 734
1077 1 775 776 680 754
1078 1 745 777 751 761
1079 1 750 782 316 771
1080 1 754 786 1192 775
1081 1 462 483 28 494
1082 1 828 483 398 860
1083 1 844 483 442 808
1084 1 766 727 737 765
1085 1 848 732 806 847
1086 1 772 736 802 843
1087 1 762 739 725 761
1088 1 831 863 825 833
1089 1 765 747 757 766
1090 1 1613 747 1633 1645
1091 1 847 752 826 848
1092 1 1178 752 1267 1210
1093 1 326 756 407 358
1094 1 843 756 822 772
1095 1 753 759 773 785
1096 1 761 759 745 762
1097 1 747 765 1613 779
1098 1 757 765 1619 789
1099 1 766 765 727 737
1100 1 765 766 747 757
1101 1 843 772 822 756
1102 1 747 779 1613 765
1103 1 752 784 1178 847
1104 1 756 788 326 843
1105 1 759 791 753 761
1106 1 834 797 811 833
1107 1 838 799 809 837
1108 1 772 802 736 843
1109 1 488 804 446 487
1110 1 848 806 732 847
1111 1 844 808 442 483
1112 1 838 809 799 837
1113 1 834 811 797 833
1114 1 823 817 845 855
1115 1 833 817 831 834
1116 1 837 819 829 838
1117 1 1685 819 1705 1717
1118 1 388 822 407 420
1119 1 843 822 756 772
1120 1 487 824 466 488
1121 1 1250 824 907 1282
1122 1 847 826 752 848
1123 1 1264 826 1267 1296
1124 1 398 828 47 430
1125 1 483 828 462 844
1126 1 837 829 819 838
1127 1 1691 829 1705 1723
1128 1 825 831 845 857
1129 1 833 831 817 834
1130 1 817 833 823 849
1131 1 831 833 825 863
1132 1 834 833 797 811
1133 1 833 834 817 831
1134 1 819 837 1685 851
1135 1 829 837 1691 861
1136 1 838 837 799 809
1137 1 837 838 819 829
1138 1 756 843 326 788
1139 1 772 843 802 736
1140 1 822 843 388 854
1141 1 483 844 462 828
1142 1 752 847 1178 784
1143 1 826 847 1264 858
1144 1 848 847 732 806
1145 1 847 848 752 826
1146 1 817 849 823 833
1147 1 819 851 1685 837
1148 1 822 854 388 843
1149 1 824 856 1250 487
1150 1 826 858 1264 847
1151 1 828 860 398 483
1152 1 829 861 1691 837
1153 1 908 870 956 979
1154 1 912 872 1242 911
1155 1 914 873 879 913
1156 1 918 875 877 917
1157 1 918 877 875 917
1158 1 914 879 873 913
1159 1 984 882 944 983
1160 1 1268 884 1230 907
1161 1 464 890 559 496
1162 1 979 890 976 908
1163 1 911 892 1262 912
1164 1 1326 892 1347 1358
1165 1 27 893 45 59
1166 1 913 893 899 914
1167 1 889 895 905 921
1168 1 917 895 897 918
1169 1 903 897 905 935
1170 1 917 897 895 918
1171 1 37 899 45 69
1172 1 913 899 893 914
1173 1 983 902 964 984
1174 1 1332 902 1419 1364
1175 1 466 904 487 498
1176 1 907 904 1250 1268
1177 1 979 908 890 976
1178 1 892 911 1326 924
1179 1 912 911 872 1242
1180 1 1262 911 1692 1294
1181 1 911 912 892 1262
1182 1 893 913 27 925
1183 1 899 913 37 931
1184 1 914 913 873 879
1185 1 913 914 893 899
1186 1 895 917 889 927
1187 1 897 917 903 929
1188 1 918 917 875 877
1189 1 917 918 895 897
1190 1 890 922 464 979
1191 1 892 924 1326 911
1192 1 893 925 27 913
1193 1 895 927 889 917
1194 1 897 929 903 917
1195 1 899 931 37 913
1196 1 902 934 1332 983
1197 1 904 936 466 907
1198 1 984 944 882 983
1199 1 990 947 949 989
1200 1 986 951 945 985
1201 1 908 956 870 979
1202 1 983 964 902 984
1203 1 1398 964 1419 1430
1204 1 961 967 977 993
1205 1 989 967 969 990
1206 1 109 971 117 141
1207 1 985 971 965 986
1208 1 538 976 559 570
1209 1 979 976 890 908
1210 1 890 979 464 922
1211 1 908 979 870 956
1212 1 976 979 538 1008
1213 1 902 983 1332 934
1214 1 964 983 1398 996
1215 1 984 983 944 882
1216 1 983 984 964 902
1217 1 965 985 99 997
1218 1 971 985 109 1003
1219 1 986 985 945 951
1220 1 985 986 965 971
1221 1 964 996 1398 983
1222 1 967 999 961 989
1223 1 971 1003 109 985
1224 1 976 1008 538 979
1225 1 980 942 1028 1051
1226 1 986 945 951 985
1227 1 990 949 947 989
1228 1 1056 954 1016 1055
1229 1 1034 1123 608 1066
1230 1 1052 1123 1014 1100
1231 1 1120 1123 682 1152
1232 1 536 962 631 568
1233 1 1051 962 1048 980
1234 1 99 965 117 131
1235 1 985 965 971 986
1236 1 975 969 977 1007
1237 1 989 969 967 990
1238 1 1055 974 1036 1056
1239 1 1404 974 1491 1436
1240 1 1051 980 962 1048
1241 1 967 989 961 999
1242 1 969 989 975 1001
1243 1 990 989 947 949
1244 1 989 990 967 969
1245 1 962 994 536 1051
1246 1 965 997 99 985
1247 1 969 1001 975 989
1248 1 974 1006 1404 1055
1249 1 1052 1014 1100 1123
1250 1 1056 1016 954 1055
1251 1 1058 1017 1023 1057
1252 1 1062 1019 1021 1061
1253 1 1062 1021 1019 1061
1254 1 1058 1023 1017 1057
1255 1 1128 1026 1088 1127
1256 1 980 1028 942 1051
1257 1 608 1034 703 640
1258 1 1123 1034 1120 1052
1259 1 1055 1036 974 1056
1260 1 1470 1036 1491 1502
1261 1 171 1037 189 203
1262 1 1057 1037 1043 1058
1263 1 1033 1039 1049 1065
1264 1 1061 1039 1041 1062
1265 1 1047 1041 1049 1079
1266 1 1061 1041 1039 1062
1267 1 181 1043 189 213
1268 1 1057 1043 1037 1058
1269 1 1127 1046 1108 1128
1270 1 1476 1046 1563 1508
1271 1 610 1048 631 642
1272 1 1051 1048 962 980
1273 1 962 1051 536 994
1274 1 980 1051 942 1028
1275 1 1048 1051 610 1080
1276 1 1123 1052 1034 1120
1277 1 974 1055 1404 1006
1278 1 1036 1055 1470 1068
1279 1 1056 1055 1016 954
1280 1 1055 1056 1036 974
1281 1 1037 1057 171 1069
1282 1 1043 1057 181 1075
1283 1 1058 1057 1017 1023
1284 1 1057 1058 1037 1043
1285 1 1039 1061 1033 1071
1286 1 1041 1061 1047 1073
1287 1 1062 1061 1019 1021
1288 1 1061 1062 1039 1041
1289 1 1034 1066 608 1123
1290 1 1036 1068 1470 1055
1291 1 1037 1069 171 1057
1292 1 1039 1071 1033 1061
1293 1 1041 1073 1047 1061
1294 1 1043 1075 181 1057
1295 1 1046 1078 1476 1127
1296 1 1048 1080 610 1051
1297 1 1192 1224 754 1195
1298 1 1124 1086 1172 1195
1299 1 1128 1088 1026 1127
1300 1 1130 1089 1095 1129
1301 1 1134 1091 1093 1133
1302 1 1134 1093 1091 1133
1303 1 1130 1095 1089 1129
1304 1 1200 1098 1160 1199
1305 1 1052 1100 1014 1123
1306 1 680 1106 775 712
1307 1 1195 1106 1192 1124
1308 1 1127 1108 1046 1128
1309 1 1542 1108 1563 1574
1310 1 243 1109 261 275
1311 1 1129 1109 1115 1130
1312 1 1105 1111 1121 1137
1313 1 1133 1111 1113 1134
1314 1 1119 1113 1121 1151
1315 1 1133 1113 1111 1134
1316 1 253 1115 261 285
1317 1 1129 1115 1109 1130
1318 1 1199 1118 1180 1200
1319 1 1548 1118 1635 1580
1320 1 682 1120 703 714
1321 1 1123 1120 1034 1052
1322 1 1195 1124 1106 1192
1323 1 1046 1127 1476 1078
1324 1 1108 1127 1542 1140
1325 1 1128 1127 1088 1026
1326 1 1127 1128 1108 1046
1327 1 1109 1129 243 1141
1328 1 1115 1129 253 1147
1329 1 1130 1129 1089 1095
1330 1 1129 1130 1109 1115
1331 1 1111 1133 1105 1143
1332 1 1113 1133 1119 1145
1333 1 1134 1133 1091 1093
1334 1 1133 1134 1111 1113
1335 1 1106 1138 680 1195
1336 1 1108 1140 1542 1127
1337 1 1109 1141 243 1129
1338 1 1111 1143 1105 1133
1339 1 1113 1145 1119 1133
1340 1 1115 1147 253 1129
1341 1 1118 1150 1548 1199
1342 1 1120 1152 682 1123
1343 1 1200 1160 1098 1199
1344 1 1206 1163 1165 1205
1345 1 1202 1167 1161 1201
1346 1 1124 1172 1086 1195
1347 1 1199 1180 1118 1200
1348 1 1614 1180 1635 1646
1349 1 1177 1183 1193 1209
1350 1 1205 1183 1185 1206
1351 1 325 1187 333 357
1352 1 1201 1187 1181 1202
1353 1 754 1192 775 786
1354 1 1195 1192 1106 1124
1355 1 1106 1195 680 1138
1356 1 1124 1195 1086 1172
1357 1 1192 1195 754 1224
1358 1 1118 1199 1548 1150
1359 1 1180 1199 1614 1212
1360 1 1200 1199 1160 1098
1361 1 1199 1200 1180 1118
1362 1 1181 1201 315 1213
1363 1 1187 1201 325 1219
1364 1 1202 1201 1161 1167
1365 1 1201 1202 1181 1187
1366 1 1180 1212 1614 1199
1367 1 1183 1215 1177 1205
1368 1 1187 1219 325 1201
1369 1 904 907 466 936
1370 1 1250 907 824 1282
1371 1 1268 907 1230 884
1372 1 1196 1158 1244 1267
1373 1 1202 1161 1167 1201
1374 1 1206 1165 1163 1205
1375 1 1272 1170 1232 1271
1376 1 1264 1296 826 1267
1377 1 752 1178 847 784
1378 1 1267 1178 1264 1196
1379 1 315 1181 333 347
1380 1 1201 1181 1187 1202
1381 1 1191 1185 1193 1223
1382 1 1205 1185 1183 1206
1383 1 1271 1190 1252 1272
1384 1 1620 1190 1707 1652
1385 1 1267 1196 1178 1264
1386 1 1183 1205 1177 1215
1387 1 1185 1205 1191 1217
1388 1 1206 1205 1163 1165
1389 1 1205 1206 1183 1185
1390 1 1178 1210 752 1267
1391 1 1181 1213 315 1201
1392 1 1185 1217 1191 1205
1393 1 1190 1222 1620 1271
1394 1 1268 1230 884 907
1395 1 1272 1232 1170 1271
1396 1 1274 1233 1239 1273
1397 1 1278 1235 1237 1277
1398 1 1278 1237 1235 1277
1399 1 1274 1239 1233 1273
1400 1 912 1242 872 911
1401 1 1196 1244 1158 1267
1402 1 824 1250 487 856
1403 1 907 1250 904 1268
1404 1 1271 1252 1190 1272
1405 1 1686 1252 1707 1718
1406 1 387 1253 405 419
1407 1 1273 1253 1259 1274
1408 1 1249 1255 1265 1281
1409 1 1277 1255 1257 1278
1410 1 1263 1257 1265 1295
1411 1 1277 1257 1255 1278
1412 1 397 1259 405 429
1413 1 1273 1259 1253 1274
1414 1 911 1262 892 912
1415 1 1692 1262 1347 1724
1416 1 826 1264 847 858
1417 1 1267 1264 1178 1196
1418 1 1178 1267 752 1210
1419 1 1196 1267 1158 1244
1420 1 1264 1267 826 1296
1421 1 907 1268 1250 904
1422 1 1190 1271 1620 1222
1423 1 1252 1271 1686 1284
1424 1 1272 1271 1232 1170
1425 1 1271 1272 1252 1190
1426 1 1253 1273 387 1285
1427 1 1259 1273 397 1291
1428 1 1274 1273 1233 1239
1429 1 1273 1274 1253 1259
1430 1 1255 1277 1249 1287
1431 1 1257 1277 1263 1289
1432 1 1278 1277 1235 1237
1433 1 1277 1278 1255 1257
1434 1 1250 1282 824 907
1435 1 1252 1284 1686 1271
1436 1 1253 1285 387 1273
1437 1 1255 1287 1249 1277
1438 1 1257 1289 1263 1277
1439 1 1259 1291 397 1273
1440 1 1262 1294 1692 911
1441 1 1340 1302 1388 1411
1442 1 1344 1304 1674 1343
1443 1 1346 1305 1311 1345
1444 1 1350 1307 1309 1349
1445 1 1350 1309 1307 1349
1446 1 1346 1311 1305 1345
1447 1 1416 1314 1376 1415
1448 1 1700 1316 1662 1339
1449 1 32 1322 127 64
1450 1 1411 1322 1408 1340
1451 1 894 1324 915 926
1452 1 1343 1324 1694 1344
1453 1 459 1325 477 491
1454 1 1345 1325 1331 1346
1455 1 1321 1327 1337 1353
1456 1 1349 1327 1329 1350
1457 1 1335 1329 1337 1367
1458 1 1349 1329 1327 1350
1459 1 469 1331 477 501
1460 1 1345 1331 1325 1346
1461 1 900 1334 987 932
1462 1 1415 1334 1396 1416
1463 1 34 1336 55 66
1464 1 1339 1336 1682 1700
1465 1 1411 1340 1322 1408
1466 1 1324 1343 894 1356
1467 1 1344 1343 1304 1674
1468 1 1694 1343 1260 1726
1469 1 1343 1344 1324 1694
1470 1 1325 1345 459 1357
1471 1 1331 1345 469 1363
1472 1 1346 1345 1305 1311
1473 1 1345 1346 1325 1331
1474 1 1327 1349 1321 1359
1475 1 1329 1349 1335 1361
1476 1 1350 1349 1307 1309
1477 1 1349 1350 1327 1329
1478 1 1322 1354 32 1411
1479 1 1324 1356 894 1343
1480 1 1325 1357 459 1345
1481 1 1327 1359 1321 1349
1482 1 1329 1361 1335 1349
1483 1 1331 1363 469 1345
1484 1 1334 1366 900 1415
1485 1 1336 1368 34 1339
1486 1 1416 1376 1314 1415
1487 1 1422 1379 1381 1421
1488 1 1418 1383 1377 1417
1489 1 1340 1388 1302 1411
1490 1 966 1396 987 998
1491 1 1415 1396 1334 1416
1492 1 1393 1399 1409 1425
1493 1 1421 1399 1401 1422
1494 1 541 1403 549 573
1495 1 1417 1403 1397 1418
1496 1 106 1408 127 138
1497 1 1411 1408 1322 1340
1498 1 1322 1411 32 1354
1499 1 1340 1411 1302 1388
1500 1 1408 1411 106 1440
1501 1 1334 1415 900 1366
1502 1 1396 1415 966 1428
1503 1 1416 1415 1376 1314
1504 1 1415 1416 1396 1334
1505 1 1397 1417 531 1429
1506 1 1403 1417 541 1435
1507 1 1418 1417 1377 1383
1508 1 1417 1418 1397 1403
1509 1 1396 1428 966 1415
1510 1 1399 1431 1393 1421
1511 1 1403 1435 541 1417
1512 1 1408 1440 106 1411
1513 1 1412 1374 1460 1483
1514 1 1418 1377 1383 1417
1515 1 1422 1381 1379 1421
1516 1 1488 1386 1448 1487
1517 1 1466 1555 176 1498
1518 1 1484 1555 1446 1532
1519 1 1552 1555 250 1584
1520 1 104 1394 199 136
1521 1 1483 1394 1480 1412
1522 1 531 1397 549 563
1523 1 1417 1397 1403 1418
1524 1 1407 1401 1409 1439
1525 1 1421 1401 1399 1422
1526 1 972 1406 1059 1004
1527 1 1487 1406 1468 1488
1528 1 1483 1412 1394 1480
1529 1 1399 1421 1393 1431
1530 1 1401 1421 1407 1433
1531 1 1422 1421 1379 1381
1532 1 1421 1422 1399 1401
1533 1 1394 1426 104 1483
1534 1 1397 1429 531 1417
1535 1 1401 1433 1407 1421
1536 1 1406 1438 972 1487
1537 1 1484 1446 1532 1555
1538 1 1488 1448 1386 1487
1539 1 1490 1449 1455 1489
1540 1 1494 1451 1453 1493
1541 1 1494 1453 1451 1493
1542 1 1490 1455 1449 1489
1543 1 1560 1458 1520 1559
1544 1 1412 1460 1374 1483
1545 1 176 1466 271 208
1546 1 1555 1466 1552 1484
1547 1 1038 1468 1059 1070
1548 1 1487 1468 1406 1488
1549 1 603 1469 621 635
1550 1 1489 1469 1475 1490
1551 1 1465 1471 1481 1497
1552 1 1493 1471 1473 1494
1553 1 1479 1473 1481 1511
1554 1 1493 1473 1471 1494
1555 1 613 1475 621 645
1556 1 1489 1475 1469 1490
1557 1 1044 1478 1131 1076
1558 1 1559 1478 1540 1560
1559 1 178 1480 199 210
1560 1 1483 1480 1394 1412
1561 1 1394 1483 104 1426
1562 1 1412 1483 1374 1460
1563 1 1480 1483 178 1512
1564 1 1555 1484 1466 1552
1565 1 1406 1487 972 1438
1566 1 1468 1487 1038 1500
1567 1 1488 1487 1448 1386
1568 1 1487 1488 1468 1406
1569 1 1469 1489 603 1501
1570 1 1475 1489 613 1507
1571 1 1490 1489 1449 1455
1572 1 1489 1490 1469 1475
1573 1 1471 1493 1465 1503
1574 1 1473 1493 1479 1505
1575 1 1494 1493 1451 1453
1576 1 1493 1494 1471 1473
1577 1 1466 1498 176 1555
1578 1 1468 1500 1038 1487
1579 1 1469 1501 603 1489
1580 1 1471 1503 1465 1493
1581 1 1473 1505 1479 1493
1582 1 1475 1507 613 1489
1583 1 1478 1510 1044 1559
1584 1 1480 1512 178 1483
1585 1 1624 1656 322 1627
1586 1 1556 1518 1604 1627
1587 1 1560 1520 1458 1559
1588 1 1562 1521 1527 1561
1589 1 1566 1523 1525 1565
1590 1 1566 1525 1523 1565
1591 1 1562 1527 1521 1561
1592 1 1632 1530 1592 1631
1593 1 1484 1532 1446 1555
1594 1 248 1538 343 280
1595 1 1627 1538 1624 1556
1596 1 1110 1540 1131 1142
1597 1 1559 1540 1478 1560
1598 1 675 1541 693 707
1599 1 1561 1541 1547 1562
1600 1 1537 1543 1553 1569
1601 1 1565 1543 1545 1566
1602 1 1551 1545 1553 1583
1603 1 1565 1545 1543 1566
1604 1 685 1547 693 717
1605 1 1561 1547 1541 1562
1606 1 1116 1550 1203 1148
1607 1 1631 1550 1612 1632
1608 1 250 1552 271 282
1609 1 1555 1552 1466 1484
1610 1 1627 1556 1538 1624
1611 1 1478 1559 1044 1510
1612 1 1540 1559 1110 1572
1613 1 1560 1559 1520 1458
1614 1 1559 1560 1540 1478
1615 1 1541 1561 675 1573
1616 1 1547 1561 685 1579
1617 1 1562 1561 1521 1527
1618 1 1561 1562 1541 1547
1619 1 1543 1565 1537 1575
1620 1 1545 1565 1551 1577
1621 1 1566 1565 1523 1525
1622 1 1565 1566 1543 1545
1623 1 1538 1570 248 1627
1624 1 1540 1572 1110 1559
1625 1 1541 1573 675 1561
1626 1 1543 1575 1537 1565
1627 1 1545 1577 1551 1565
1628 1 1547 1579 685 1561
1629 1 1550 1582 1116 1631
1630 1 1552 1584 250 1555
1631 1 1632 1592 1530 1631
1632 1 1638 1595 1597 1637
1633 1 1634 1599 1593 1633
1634 1 1556 1604 1518 1627
1635 1 1182 1612 1203 1214
1636 1 1631 1612 1550 1632
1637 1 1609 1615 1625 1641
1638 1 1637 1615 1617 1638
1639 1 757 1619 765 789
1640 1 1633 1619 1613 1634
1641 1 322 1624 343 354
1642 1 1627 1624 1538 1556
1643 1 1538 1627 248 1570
1644 1 1556 1627 1518 1604
1645 1 1624 1627 322 1656
1646 1 1550 1631 1116 1582
1647 1 1612 1631 1182 1644
1648 1 1632 1631 1592 1530
1649 1 1631 1632 1612 1550
1650 1 1613 1633 747 1645
1651 1 1619 1633 757 1651
1652 1 1634 1633 1593 1599
1653 1 1633 1634 1613 1619
1654 1 1612 1644 1182 1631
1655 1 1615 1647 1609 1637
1656 1 1619 1651 757 1633
1657 1 1336 1339 34 1368
1658 1 1682 1339 392 1714
1659 1 1700 1339 1662 1316
1660 1 1628 1590 1676 1699
1661 1 1634 1593 1599 1633
1662 1 1638 1597 1595 1637
1663 1 1704 1602 1664 1703
1664 1 1696 1728 394 1699
1665 1 320 1610 415 352
1666 1 1699 1610 1696 1628
1667 1 747 1613 765 779
1668 1 1633 1613 1619 1634
1669 1 1623 1617 1625 1655
1670 1 1637 1617 1615 1638
1671 1 1188 1622 1275 1220
1672 1 1703 1622 1684 1704
1673 1 1699 1628 1610 1696
1674 1 1615 1637 1609 1647
1675 1 1617 1637 1623 1649
1676 1 1638 1637 1595 1597
1677 1 1637 1638 1615 1617
1678 1 1610 1642 320 1699
1679 1 1613 1645 747 1633
1680 1 1617 1649 1623 1637
1681 1 1622 1654 1188 1703
1682 1 1700 1662 1316 1339
1683 1 1704 1664 1602 1703
1684 1 1706 1665 1671 1705
1685 1 1710 1667 1669 1709
1686 1 1710 1669 1667 1709
1687 1 1706 1671 1665 1705
1688 1 1344 1674 1304 1343
1689 1 1628 1676 1590 1699
1690 1 392 1682 55 424
1691 1 1339 1682 1336 1700
1692 1 1254 1684 1275 1286
1693 1 1703 1684 1622 1704
1694 1 819 1685 837 851
1695 1 1705 1685 1691 1706
1696 1 1681 1687 1697 1713
1697 1 1709 1687 1689 1710
1698 1 1695 1689 1697 1727
1699 1 1709 1689 1687 1710
1700 1 829 1691 837 861
1701 1 1705 1691 1685 1706
1702 1 1260 1694 915 1292
1703 1 1343 1694 1324 1344
1704 1 394 1696 415 426
1705 1 1699 1696 1610 1628
1706 1 1610 1699 320 1642
1707 1 1628 1699 1590 1676
1708 1 1696 1699 394 1728
1709 1 1339 1700 1682 1336
1710 1 1622 1703 1188 1654
1711 1 1684 1703 1254 1716
1712 1 1704 1703 1664 1602
1713 1 1703 1704 1684 1622
1714 1 1685 1705 819 1717
1715 1 1691 1705 829 1723
1716 1 1706 1705 1665 1671
1717 1 1705 1706 1685 1691
1718 1 1687 1709 1681 1719
1719 1 1689 1709 1695 1721
1720 1 1710 1709 1667 1669
1721 1 1709 1710 1687 1689
1722 1 1682 1714 392 1339
1723 1 1684 1716 1254 1703
1724 1 1685 1717 819 1705
1725 1 1687 1719 1681 1709
1726 1 1689 1721 1695 1709
1727 1 1691 1723 829 1705
1728 1 1694 1726 1260 1343
1729 1 906 869 883 905
1730 1 910 871 881 909
1731 1 1276 874 1240 915
1732 1 992 876 950 991
1733 1 920 878 1236 919
1734 1 916 880 946 987
1735 1 910 881 871 909
1736 1 906 883 869 905
1737 1 895 889 917 927
1738 1 905 889 903 906
1739 1 29 891 49 61
1740 1 909 891 901 910
1741 1 915 894 1260 1276
1742 1 1324 894 1343 1356
1743 1 458 896 547 490
1744 1 991 896 970 992
1745 1 472 898 475 504
1746 1 919 898 1256 920
1747 1 987 900 966 916
1748 1 1334 900 1415 1366
1749 1 35 901 49 67
1750 1 909 901 891 910
1751 1 897 903 917 929
1752 1 905 903 889 906
1753 1 889 905 895 921
1754 1 903 905 897 935
1755 1 906 905 869 883
1756 1 905 906 889 903
1757 1 891 909 29 923
1758 1 901 909 35 933
1759 1 910 909 871 881
1760 1 909 910 891 901
1761 1 987 916 966 900
1762 1 898 919 472 930
1763 1 920 919 1236 878
1764 1 1256 919 818 1288
1765 1 919 920 1256 898
1766 1 889 921 895 905
1767 1 891 923 29 909
1768 1 894 926 1324 915
1769 1 896 928 458 991
1770 1 898 930 472 919
1771 1 900 932 1334 987
1772 1 901 933 35 909
1773 1 903 935 897 905
1774 1 978 941 955 977
1775 1 916 946 880 987
1776 1 992 950 876 991
1777 1 982 953 943 981
1778 1 967 961 989 999
1779 1 977 961 975 978
1780 1 987 966 900 916
1781 1 1396 966 1415 1428
1782 1 544 970 547 576
1783 1 991 970 896 992
1784 1 107 973 121 139
1785 1 981 973 963 982
1786 1 961 977 967 993
1787 1 975 977 969 1007
1788 1 978 977 941 955
1789 1 977 978 961 975
1790 1 900 987 1334 932
1791 1 916 987 946 880
1792 1 966 987 1396 998
1793 1 896 991 458 928
1794 1 970 991 544 1002
1795 1 992 991 876 950
1796 1 991 992 896 970
1797 1 961 993 967 977
1798 1 966 998 1396 987
1799 1 970 1002 544 991
1800 1 973 1005 107 981
1801 1 982 943 953 981
1802 1 1064 948 1022 1063
1803 1 988 952 1018 1059
1804 1 978 955 941 977
1805 1 1044 1131 1478 1076
1806 1 1060 1131 1090 1024
1807 1 1110 1131 1540 1142
1808 1 101 963 121 133
1809 1 981 963 973 982
1810 1 530 968 619 562
1811 1 1063 968 1042 1064
1812 1 1059 972 1038 988
1813 1 1406 972 1487 1438
1814 1 969 975 989 1001
1815 1 977 975 961 978
1816 1 963 981 101 995
1817 1 973 981 107 1005
1818 1 982 981 943 953
1819 1 981 982 963 973
1820 1 1059 988 1038 972
1821 1 963 995 101 981
1822 1 968 1000 530 1063
1823 1 972 1004 1406 1059
1824 1 975 1007 969 977
1825 1 1050 1013 1027 1049
1826 1 1054 1015 1025 1053
1827 1 988 1018 952 1059
1828 1 1136 1020 1094 1135
1829 1 1064 1022 948 1063
1830 1 1060 1024 1090 1131
1831 1 1054 1025 1015 1053
1832 1 1050 1027 1013 1049
1833 1 1039 1033 1061 1071
1834 1 1049 1033 1047 1050
1835 1 173 1035 193 205
1836 1 1053 1035 1045 1054
1837 1 1059 1038 972 988
1838 1 1468 1038 1487 1500
1839 1 602 1040 691 634
1840 1 1135 1040 1114 1136
1841 1 616 1042 619 648
1842 1 1063 1042 968 1064
1843 1 1131 1044 1110 1060
1844 1 1478 1044 1559 1510
1845 1 179 1045 193 211
1846 1 1053 1045 1035 1054
1847 1 1041 1047 1061 1073
1848 1 1049 1047 1033 1050
1849 1 1033 1049 1039 1065
1850 1 1047 1049 1041 1079
1851 1 1050 1049 1013 1027
1852 1 1049 1050 1033 1047
1853 1 1035 1053 173 1067
1854 1 1045 1053 179 1077
1855 1 1054 1053 1015 1025
1856 1 1053 1054 1035 1045
1857 1 972 1059 1406 1004
1858 1 988 1059 1018 952
1859 1 1038 1059 1468 1070
1860 1 1131 1060 1110 1044
1861 1 968 1063 530 1000
1862 1 1042 1063 616 1074
1863 1 1064 1063 948 1022
1864 1 1063 1064 968 1042
1865 1 1033 1065 1039 1049
1866 1 1035 1067 173 1053
1867 1 1038 1070 1468 1059
1868 1 1040 1072 602 1135
1869 1 1042 1074 616 1063
1870 1 1044 1076 1478 1131
1871 1 1045 1077 179 1053
1872 1 1047 1079 1041 1049
1873 1 1189 1221 323 1197
1874 1 1122 1085 1099 1121
1875 1 1126 1087 1097 1125
1876 1 1060 1090 1024 1131
1877 1 1208 1092 1166 1207
1878 1 1136 1094 1020 1135
1879 1 1132 1096 1162 1203
1880 1 1126 1097 1087 1125
1881 1 1122 1099 1085 1121
1882 1 1111 1105 1133 1143
1883 1 1121 1105 1119 1122
1884 1 245 1107 265 277
1885 1 1125 1107 1117 1126
1886 1 1131 1110 1044 1060
1887 1 1540 1110 1559 1572
1888 1 674 1112 763 706
1889 1 1207 1112 1186 1208
1890 1 688 1114 691 720
1891 1 1135 1114 1040 1136
1892 1 1203 1116 1182 1132
1893 1 1550 1116 1631 1582
1894 1 251 1117 265 283
1895 1 1125 1117 1107 1126
1896 1 1113 1119 1133 1145
1897 1 1121 1119 1105 1122
1898 1 1105 1121 1111 1137
1899 1 1119 1121 1113 1151
1900 1 1122 1121 1085 1099
1901 1 1121 1122 1105 1119
1902 1 1107 1125 245 1139
1903 1 1117 1125 251 1149
1904 1 1126 1125 1087 1097
1905 1 1125 1126 1107 1117
1906 1 1203 1132 1182 1116
1907 1 1040 1135 602 1072
1908 1 1114 1135 688 1146
1909 1 1136 1135 1020 1094
1910 1 1135 1136 1040 1114
1911 1 1105 1137 1111 1121
1912 1 1107 1139 245 1125
1913 1 1110 1142 1540 1131
1914 1 1112 1144 674 1207
1915 1 1114 1146 688 1135
1916 1 1116 1148 1550 1203
1917 1 1117 1149 251 1125
1918 1 1119 1151 1113 1121
1919 1 1194 1157 1171 1193
1920 1 1132 1162 1096 1203
1921 1 1208 1166 1092 1207
1922 1 1198 1169 1159 1197
1923 1 1183 1177 1205 1215
1924 1 1193 1177 1191 1194
1925 1 1203 1182 1116 1132
1926 1 1612 1182 1631 1644
1927 1 760 1186 763 792
1928 1 1207 1186 1112 1208
1929 1 323 1189 337 355
1930 1 1197 1189 1179 1198
1931 1 1177 1193 1183 1209
1932 1 1191 1193 1185 1223
1933 1 1194 1193 1157 1171
1934 1 1193 1194 1177 1191
1935 1 1116 1203 1550 1148
1936 1 1132 1203 1162 1096
1937 1 1182 1203 1612 1214
1938 1 1112 1207 674 1144
1939 1 1186 1207 760 1218
1940 1 1208 1207 1092 1166
1941 1 1207 1208 1112 1186
1942 1 1177 1209 1183 1193
1943 1 1182 1214 1612 1203
1944 1 1186 1218 760 1207
1945 1 894 915 1324 926
1946 1 1260 915 1694 1292
1947 1 1276 915 874 1240
1948 1 1198 1159 1169 1197
1949 1 1280 1164 1238 1279
1950 1 1204 1168 1234 1275
1951 1 1194 1171 1157 1193
1952 1 1263 1295 1257 1265
1953 1 317 1179 337 349
1954 1 1197 1179 1189 1198
1955 1 746 1184 835 778
1956 1 1279 1184 1258 1280
1957 1 1275 1188 1254 1204
1958 1 1622 1188 1703 1654
1959 1 1185 1191 1205 1217
1960 1 1193 1191 1177 1194
1961 1 1179 1197 317 1211
1962 1 1189 1197 323 1221
1963 1 1198 1197 1159 1169
1964 1 1197 1198 1179 1189
1965 1 1275 1204 1254 1188
1966 1 1179 1211 317 1197
1967 1 1184 1216 746 1279
1968 1 1188 1220 1622 1275
1969 1 1191 1223 1185 1193
1970 1 1266 1229 1243 1265
1971 1 1270 1231 1241 1269
1972 1 1204 1234 1168 1275
1973 1 920 1236 878 919
1974 1 1280 1238 1164 1279
1975 1 1276 1240 874 915
1976 1 1270 1241 1231 1269
1977 1 1266 1243 1229 1265
1978 1 1255 1249 1277 1287
1979 1 1265 1249 1263 1266
1980 1 389 1251 409 421
1981 1 1269 1251 1261 1270
1982 1 1275 1254 1188 1204
1983 1 1684 1254 1703 1716
1984 1 818 1256 475 850
1985 1 919 1256 898 920
1986 1 832 1258 835 864
1987 1 1279 1258 1184 1280
1988 1 915 1260 894 1276
1989 1 1694 1260 1343 1726
1990 1 395 1261 409 427
1991 1 1269 1261 1251 1270
1992 1 1257 1263 1277 1289
1993 1 1265 1263 1249 1266
1994 1 1249 1265 1255 1281
1995 1 1263 1265 1257 1295
1996 1 1266 1265 1229 1243
1997 1 1265 1266 1249 1263
1998 1 1251 1269 389 1283
1999 1 1261 1269 395 1293
2000 1 1270 1269 1231 1241
2001 1 1269 1270 1251 1261
2002 1 1188 1275 1622 1220
2003 1 1204 1275 1234 1168
2004 1 1254 1275 1684 1286
2005 1 915 1276 894 1260
2006 1 1184 1279 746 1216
2007 1 1258 1279 832 1290
2008 1 1280 1279 1164 1238
2009 1 1279 1280 1184 1258
2010 1 1249 1281 1255 1265
2011 1 1251 1283 389 1269
2012 1 1254 1286 1684 1275
2013 1 1256 1288 818 919
2014 1 1258 1290 832 1279
2015 1 1260 1292 1694 915
2016 1 1261 1293 395 1269
2017 1 1338 1301 1315 1337
2018 1 1342 1303 1313 1341
2019 1 1708 1306 1672 1347
2020 1 1424 1308 1382 1423
2021 1 1352 1310 1668 1351
2022 1 1348 1312 1378 1419
2023 1 1342 1313 1303 1341
2024 1 1338 1315 1301 1337
2025 1 1327 1321 1349 1359
2026 1 1337 1321 1335 1338
2027 1 461 1323 481 493
2028 1 1341 1323 1333 1342
2029 1 892 1326 911 924
2030 1 1347 1326 1692 1708
2031 1 26 1328 115 58
2032 1 1423 1328 1402 1424
2033 1 40 1330 43 72
2034 1 1351 1330 1688 1352
2035 1 902 1332 983 934
2036 1 1419 1332 1398 1348
2037 1 467 1333 481 499
2038 1 1341 1333 1323 1342
2039 1 1329 1335 1349 1361
2040 1 1337 1335 1321 1338
2041 1 1321 1337 1327 1353
2042 1 1335 1337 1329 1367
2043 1 1338 1337 1301 1315
2044 1 1337 1338 1321 1335
2045 1 1323 1341 461 1355
2046 1 1333 1341 467 1365
2047 1 1342 1341 1303 1313
2048 1 1341 1342 1323 1333
2049 1 1419 1348 1398 1332
2050 1 1330 1351 40 1362
2051 1 1352 1351 1668 1310
2052 1 1688 1351 386 1720
2053 1 1351 1352 1688 1330
2054 1 1321 1353 1327 1337
2055 1 1323 1355 461 1341
2056 1 1326 1358 892 1347
2057 1 1328 1360 26 1423
2058 1 1330 1362 40 1351
2059 1 1332 1364 902 1419
2060 1 1333 1365 467 1341
2061 1 1335 1367 1329 1337
2062 1 1410 1373 1387 1409
2063 1 1348 1378 1312 1419
2064 1 1424 1382 1308 1423
2065 1 1414 1385 1375 1413
2066 1 1399 1393 1421 1431
2067 1 1409 1393 1407 1410
2068 1 964 1398 983 996
2069 1 1419 1398 1332 1348
2070 1 112 1402 115 144
2071 1 1423 1402 1328 1424
2072 1 539 1405 553 571
2073 1 1413 1405 1395 1414
2074 1 1393 1409 1399 1425
2075 1 1407 1409 1401 1439
2076 1 1410 1409 1373 1387
2077 1 1409 1410 1393 1407
2078 1 1332 1419 902 1364
2079 1 1348 1419 1378 1312
2080 1 1398 1419 964 1430
2081 1 1328 1423 26 1360
2082 1 1402 1423 112 1434
2083 1 1424 1423 1308 1382
2084 1 1423 1424 1328 1402
2085 1 1393 1425 1399 1409
2086 1 1398 1430 964 1419
2087 1 1402 1434 112 1423
2088 1 1405 1437 539 1413
2089 1 1414 1375 1385 1413
2090 1 1496 1380 1454 1495
2091 1 1420 1384 1450 1491
2092 1 1410 1387 1373 1409
2093 1 1476 1563 1046 1508
2094 1 1492 1563 1522 1456
2095 1 1542 1563 1108 1574
2096 1 533 1395 553 565
2097 1 1413 1395 1405 1414
2098 1 98 1400 187 130
2099 1 1495 1400 1474 1496
2100 1 974 1404 1055 1006
2101 1 1491 1404 1470 1420
2102 1 1401 1407 1421 1433
2103 1 1409 1407 1393 1410
2104 1 1395 1413 533 1427
2105 1 1405 1413 539 1437
2106 1 1414 1413 1375 1385
2107 1 1413 1414 1395 1405
2108 1 1491 1420 1470 1404
2109 1 1395 1427 533 1413
2110 1 1400 1432 98 1495
2111 1 1404 1436 974 1491
2112 1 1407 1439 1401 1409
2113 1 1482 1445 1459 1481
2114 1 1486 1447 1457 1485
2115 1 1420 1450 1384 1491
2116 1 1568 1452 1526 1567
2117 1 1496 1454 1380 1495
2118 1 1492 1456 1522 1563
2119 1 1486 1457 1447 1485
2120 1 1482 1459 1445 1481
2121 1 1471 1465 1493 1503
2122 1 1481 1465 1479 1482
2123 1 605 1467 625 637
2124 1 1485 1467 1477 1486
2125 1 1036 1470 1055 1068
2126 1 1491 1470 1404 1420
2127 1 170 1472 259 202
2128 1 1567 1472 1546 1568
2129 1 184 1474 187 216
2130 1 1495 1474 1400 1496
2131 1 1046 1476 1127 1078
2132 1 1563 1476 1542 1492
2133 1 611 1477 625 643
2134 1 1485 1477 1467 1486
2135 1 1473 1479 1493 1505
2136 1 1481 1479 1465 1482
2137 1 1465 1481 1471 1497
2138 1 1479 1481 1473 1511
2139 1 1482 1481 1445 1459
2140 1 1481 1482 1465 1479
2141 1 1467 1485 605 1499
2142 1 1477 1485 611 1509
2143 1 1486 1485 1447 1457
2144 1 1485 1486 1467 1477
2145 1 1404 1491 974 1436
2146 1 1420 1491 1450 1384
2147 1 1470 1491 1036 1502
2148 1 1563 1492 1542 1476
2149 1 1400 1495 98 1432
2150 1 1474 1495 184 1506
2151 1 1496 1495 1380 1454
2152 1 1495 1496 1400 1474
2153 1 1465 1497 1471 1481
2154 1 1467 1499 605 1485
2155 1 1470 1502 1036 1491
2156 1 1472 1504 170 1567
2157 1 1474 1506 184 1495
2158 1 1476 1508 1046 1563
2159 1 1477 1509 611 1485
2160 1 1479 1511 1473 1481
2161 1 1621 1653 755 1629
2162 1 1554 1517 1531 1553
2163 1 1558 1519 1529 1557
2164 1 1492 1522 1456 1563
2165 1 1640 1524 1598 1639
2166 1 1568 1526 1452 1567
2167 1 1564 1528 1594 1635
2168 1 1558 1529 1519 1557
2169 1 1554 1531 1517 1553
2170 1 1543 1537 1565 1575
2171 1 1553 1537 1551 1554
2172 1 677 1539 697 709
2173 1 1557 1539 1549 1558
2174 1 1108 1542 1127 1140
2175 1 1563 1542 1476 1492
2176 1 242 1544 331 274
2177 1 1639 1544 1618 1640
2178 1 256 1546 259 288
2179 1 1567 1546 1472 1568
2180 1 1118 1548 1199 1150
2181 1 1635 1548 1614 1564
2182 1 683 1549 697 715
2183 1 1557 1549 1539 1558
2184 1 1545 1551 1565 1577
2185 1 1553 1551 1537 1554
2186 1 1537 1553 1543 1569
2187 1 1551 1553 1545 1583
2188 1 1554 1553 1517 1531
2189 1 1553 1554 1537 1551
2190 1 1539 1557 677 1571
2191 1 1549 1557 683 1581
2192 1 1558 1557 1519 1529
2193 1 1557 1558 1539 1549
2194 1 1635 1564 1614 1548
2195 1 1472 1567 170 1504
2196 1 1546 1567 256 1578
2197 1 1568 1567 1452 1526
2198 1 1567 1568 1472 1546
2199 1 1537 1569 1543 1553
2200 1 1539 1571 677 1557
2201 1 1542 1574 1108 1563
2202 1 1544 1576 242 1639
2203 1 1546 1578 256 1567
2204 1 1548 1580 1118 1635
2205 1 1549 1581 683 1557
2206 1 1551 1583 1545 1553
2207 1 1626 1589 1603 1625
2208 1 1564 1594 1528 1635
2209 1 1640 1598 1524 1639
2210 1 1630 1601 1591 1629
2211 1 1615 1609 1637 1647
2212 1 1625 1609 1623 1626
2213 1 1180 1614 1199 1212
2214 1 1635 1614 1548 1564
2215 1 328 1618 331 360
2216 1 1639 1618 1544 1640
2217 1 755 1621 769 787
2218 1 1629 1621 1611 1630
2219 1 1609 1625 1615 1641
2220 1 1623 1625 1617 1655
2221 1 1626 1625 1589 1603
2222 1 1625 1626 1609 1623
2223 1 1548 1635 1118 1580
2224 1 1564 1635 1594 1528
2225 1 1614 1635 1180 1646
2226 1 1544 1639 242 1576
2227 1 1618 1639 328 1650
2228 1 1640 1639 1524 1598
2229 1 1639 1640 1544 1618
2230 1 1609 1641 1615 1625
2231 1 1614 1646 1180 1635
2232 1 1618 1650 328 1639
2233 1 1326 1347 892 1358
2234 1 1692 1347 1262 1724
2235 1 1708 1347 1306 1672
2236 1 1630 1591 1601 1629
2237 1 1712 1596 1670 1711
2238 1 1636 1600 1666 1707
2239 1 1626 1603 1589 1625
2240 1 1695 1727 1689 1697
2241 1 749 1611 769 781
2242 1 1629 1611 1621 1630
2243 1 314 1616 403 346
2244 1 1711 1616 1690 1712
2245 1 1190 1620 1271 1222
2246 1 1707 1620 1686 1636
2247 1 1617 1623 1637 1649
2248 1 1625 1623 1609 1626
2249 1 1611 1629 749 1643
2250 1 1621 1629 755 1653
2251 1 1630 1629 1591 1601
2252 1 1629 1630 1611 1621
2253 1 1707 1636 1686 1620
2254 1 1611 1643 749 1629
2255 1 1616 1648 314 1711
2256 1 1620 1652 1190 1707
2257 1 1623 1655 1617 1625
2258 1 1698 1661 1675 1697
2259 1 1702 1663 1673 1701
2260 1 1636 1666 1600 1707
2261 1 1352 1668 1310 1351
2262 1 1712 1670 1596 1711
2263 1 1708 1672 1306 1347
2264 1 1702 1673 1663 1701
2265 1 1698 1675 1661 1697
2266 1 1687 1681 1709 1719
2267 1 1697 1681 1695 1698
2268 1 821 1683 841 853
2269 1 1701 1683 1693 1702
2270 1 1252 1686 1271 1284
2271 1 1707 1686 1620 1636
2272 1 386 1688 43 418
2273 1 1351 1688 1330 1352
2274 1 400 1690 403 432
2275 1 1711 1690 1616 1712
2276 1 1262 1692 911 1294
2277 1 1347 1692 1326 1708
2278 1 827 1693 841 859
2279 1 1701 1693 1683 1702
2280 1 1689 1695 1709 1721
2281 1 1697 1695 1681 1698
2282 1 1681 1697 1687 1713
2283 1 1695 1697 1689 1727
2284 1 1698 1697 1661 1675
2285 1 1697 1698 1681 1695
2286 1 1683 1701 821 1715
2287 1 1693 1701 827 1725
2288 1 1702 1701 1663 1673
2289 1 1701 1702 1683 1693
2290 1 1620 1707 1190 1652
2291 1 1636 1707 1666 1600
2292 1 1686 1707 1252 1718
2293 1 1347 1708 1326 1692
2294 1 1616 1711 314 1648
2295 1 1690 1711 400 1722
2296 1 1712 1711 1596 1670
2297 1 1711 1712 1616 1690
2298 1 1681 1713 1687 1697
2299 1 1683 1715 821 1701
2300 1 1686 1718 1252 1707
2301 1 1688 1720 386 1351
2302 1 1690 1722 400 1711
2303 1 1692 1724 1262 1347
2304 1 1693 1725 827 1701
