###
variable	dt		equal	1.0
variable	T		equal	300
###

units 		real
dimension 	3
boundary 	p p p 
atom_style 	full

pair_style      lj/cut 12.500
bond_style      harmonic
angle_style     hybrid cosine/squared cosine/periodic
dihedral_style  charmm
improper_style  umbrella

pair_modify     tail yes mix arithmetic
special_bonds   dreiding
dielectric      1.0
box tilt        large
read_data       data.Fe-bdp-expand_mol-id_update

timestep        ${dt} 

###
group		node	type	1 2
group		linker	type	3 4
velocity    all create ${T} 123456 mom yes rot yes dist gaussian
###

# NVT ensemble
dump		1 all custom 10000 dump.nvt.lammpstrj id mol type x y z 
fix 		nvt all nvt temp $T $T $(100.0*dt)
fix			drift all momentum 1 linear 1 1 1 rescale
thermo	        1000
thermo_style    custom step temp lx ly lz press vol pxx pyy pzz pe ke etotal
run           	500000

compute			link	linker	chunk/atom	molecule
compute			omega	linker	omega/chunk	link
fix			    dos		linker	ave/time	1	1	1	c_omega[*]	file	omega.out	mode	vector
run				10000
unfix           nvt
unfix			drift
undump			1