LAMMPS data file for ZIF8_H

      1632 atoms
      1920 bonds
      3456 angles
      6144 dihedrals
       960 impropers
         6 atom types
         6 bond types
         9 angle types
        13 dihedral types
         3 improper types

    0.000000    33.942036  xlo xhi
    0.000000    33.942036  ylo yhi
    0.000000    33.942036  zlo zhi
    0.000000     0.000000     0.000000  xy xz yz

Masses

    1    65.3800 # buck6d->(zn4_n4@zn4tet)|ZIF8_H/gaussian->(zn4_n4@zn4tet)|ZIF8_H
    2     1.0079 # buck6d->(h1_c1@imid)|ZIF8_H/gaussian->(h1_c1@imid)|ZIF8_H
    3     1.0079 # buck6d->(h1_c1S@imid)|ZIF8_H/gaussian->(h1_c1S@imid)|ZIF8_H
    4    12.0107 # buck6d->(c3_c1h1n1@imid)|ZIF8_H/gaussian->(c3_c1h1n1@imid)|ZIF8_H
    5    12.0107 # buck6d->(c3_h1n2@imid)|ZIF8_H/gaussian->(c3_h1n2@imid)|ZIF8_H
    6    14.0067 # buck6d->(n3_c2zn1@imid)|ZIF8_H/gaussian->(n3_c2zn1@imid)|ZIF8_H

Atoms # full

1 1 1 0.5212 12.728262 0 8.485509 0 0 0
2 1 1 0.5212 12.728262 8.48551 33.942035000000004 0 0 -1
3 1 1 0.5212 8.485509 12.728262999999995 0 0 0 0
4 1 1 0.5212 0 8.485509 12.728262 0 0 0
5 1 1 0.5212 0 12.728262999999995 8.485509 0 0 0
6 1 1 0.5212 8.485509 1e-06 12.728262999999995 0 0 0
7 1 1 0.5212 4.242755 8.485509 0 0 0 0
8 1 1 0.5212 4.242754 0 8.48551 0 0 0
9 1 1 0.5212 33.942035000000004 4.242754 8.485508 -1 0 0
10 1 1 0.5212 8.485508 1e-06 4.242755 0 0 0
11 1 1 0.5212 8.485509 4.242756 0 0 0 0
12 1 1 0.5212 33.942035000000004 8.485508 4.242756 -1 0 0
13 2 2 0.142 12.54715 2.506833 10.552687 0 0 0
14 3 2 0.142 12.909391 5.978664 2.067163 0 0 0
15 4 2 0.142 12.547145 14.464182999999995 6.418335 0 0 0
16 5 2 0.142 12.909388 10.992349 14.903849999999997 0 0 0
17 6 2 0.142 10.552685 12.547149 2.506834 0 0 0
18 7 2 0.142 2.506834 10.552685 12.547148 0 0 0
19 8 2 0.142 14.903847999999995 12.909383999999998 10.992344 0 0 0
20 9 2 0.142 5.978665 2.067165 12.90939 0 0 0
21 10 2 0.142 2.067164 12.909391 5.978664 0 0 0
22 11 2 0.142 14.464189999999999 6.418328 12.547153 0 0 0
23 12 2 0.142 6.418329 12.547152 14.464188999999998 0 0 0
24 13 2 0.142 10.992344 14.903845999999994 12.909381999999997 0 0 0
25 7 2 0.142 2.506835 12.547147 10.552683 0 0 0
26 14 2 0.142 5.978665 12.90939 2.067165 0 0 0
27 15 2 0.142 14.464191 12.547154 6.418327 0 0 0
28 13 2 0.142 10.992344 12.909382999999998 14.903846999999995 0 0 0
29 6 2 0.142 12.547148 10.552686 2.506834 0 0 0
30 2 2 0.142 10.552687 2.506833 12.54715 0 0 0
31 8 2 0.142 12.909382999999998 14.903845999999994 10.992344 0 0 0
32 16 2 0.142 12.909388 2.067166 5.978667 0 0 0
33 17 2 0.142 2.067165 5.978665 12.909391 0 0 0
34 18 2 0.142 6.418335 14.464182999999995 12.547147 0 0 0
35 19 2 0.142 12.547155999999994 6.418325 14.464191999999999 0 0 0
36 5 2 0.142 14.903848999999996 10.992347 12.909384999999999 0 0 0
37 20 3 0.1145 10.083286 10.083287 16.05325 0 0 0
38 8 3 0.1145 15.37324 15.373242 7.567738 0 0 0
39 10 3 0.1145 1.597786 15.37323 9.403285999999994 0 0 0
40 16 3 0.1145 15.373233 1.5977829999999993 9.403283999999994 0 0 0
41 21 3 0.1145 16.053251 10.083285 10.083284 0 0 0
42 22 3 0.1145 10.083282 16.053253 10.083282 0 0 0
43 14 3 0.1145 9.403283999999994 15.373232 1.5977829999999993 0 0 0
44 5 3 0.1145 15.373235 7.567734 15.373234 0 0 0
45 13 3 0.1145 7.567739 15.373242 15.373241 0 0 0
46 23 3 0.1145 6.887733 0.917769 10.083286 0 0 0
47 9 3 0.1145 9.403287999999995 1.597789 15.373229 0 0 0
48 24 3 0.1145 10.083282 0.917767 6.887736 0 0 0
49 25 2 0.142 4.061625 10.992352999999994 2.067163 0 0 0
50 18 2 0.142 4.423869 14.464184999999997 10.552686 0 0 0
51 17 2 0.142 4.061629 5.978667 14.903853999999999 0 0 0
52 26 2 0.142 4.423873 2.5068389999999985 6.418338 0 0 0
53 27 2 0.142 2.067171 4.061636 10.992344 0 0 0
54 28 2 0.142 10.992352 2.067164 4.061627 0 0 0
55 29 2 0.142 6.418335 4.423871 2.506835 0 0 0
56 15 2 0.142 14.464196 10.552694999999995 4.423859 0 0 0
57 19 2 0.142 10.552694999999995 4.423859 14.464195 0 0 0
58 14 2 0.142 5.978671 14.903848999999996 4.061634 0 0 0
59 16 2 0.142 14.903849999999997 4.061631 5.978669 0 0 0
60 30 2 0.142 2.5068399999999986 6.41834 4.423875999999997 0 0 0
61 28 2 0.142 10.992354999999995 4.061625 2.067161 0 0 0
62 11 2 0.142 14.464188999999998 4.423865 10.552688 0 0 0
63 9 2 0.142 5.978667 4.061629 14.903851999999997 0 0 0
64 30 2 0.142 2.506842 4.423876999999997 6.418341 0 0 0
65 27 2 0.142 4.061635 2.067172 10.992345 0 0 0
66 25 2 0.142 2.067163 10.992352 4.061628 0 0 0
67 29 2 0.142 4.42387 6.418334 2.506835 0 0 0
68 12 2 0.142 4.423862 10.552691999999995 14.464193 0 0 0
69 4 2 0.142 10.552687 14.464188999999998 4.423866 0 0 0
70 3 2 0.142 14.903850999999996 5.978669 4.06163 0 0 0
71 10 2 0.142 4.061632 14.903849999999997 5.978669 0 0 0
72 26 2 0.142 6.418334 2.506837 4.423872 0 0 0
73 27 3 0.1145 1.5977749999999993 1.5977759999999996 7.567739 0 0 0
74 31 3 0.1145 6.887732 6.887733 16.05325 0 0 0
75 32 3 0.1145 10.083268 6.887749999999997 0.917755 0 0 0
76 33 3 0.1145 6.887745 10.083273 0.91776 0 0 0
77 28 3 0.1145 7.567727 1.597791 1.59779 0 0 0
78 25 3 0.1145 1.597786 7.567731 1.597787 0 0 0
79 34 3 0.1145 0.917761 6.887743 10.083274 0 0 0
80 35 3 0.1145 6.887727 16.053247 6.887728 0 0 0
81 36 3 0.1145 16.053242 6.887721999999999 6.887722999999999 0 0 0
82 3 3 0.1145 15.373228 9.403288999999996 1.597788 0 0 0
83 37 3 0.1145 0.917754 10.083265999999998 6.887753999999998 0 0 0
84 17 3 0.1145 1.597788 9.403287999999995 15.373228 0 0 0
85 2 4 -0.1504 11.744955 1.7882899999999993 10.759811 0 0 0
86 3 4 -0.1504 13.71158 6.697212 2.274294 0 0 0
87 4 4 -0.1504 11.744950999999999 15.182728 6.211209 0 0 0
88 5 4 -0.1504 13.711579 10.273803 14.696722 0 0 0
89 6 4 -0.1504 10.75981 11.744954 1.7882909999999999 0 0 0
90 7 4 -0.1504 1.7882909999999999 10.75981 11.744953 0 0 0
91 8 4 -0.1504 14.696721 13.711578 10.2738 0 0 0
92 9 4 -0.1504 6.697213 2.274295 13.71158 0 0 0
93 10 4 -0.1504 2.274294 13.71158 6.697212 0 0 0
94 11 4 -0.1504 15.182731 6.211205 11.744955 0 0 0
95 12 4 -0.1504 6.211206 11.744955 15.18273 0 0 0
96 13 4 -0.1504 10.2738 14.69672 13.711576 0 0 0
97 7 4 -0.1504 1.7882909999999999 11.744953 10.759809 0 0 0
98 14 4 -0.1504 6.697213 13.71158 2.274295 0 0 0
99 15 4 -0.1504 15.182731 11.744955 6.211206 0 0 0
100 13 4 -0.1504 10.273801 13.711577 14.69672 0 0 0
101 6 4 -0.1504 11.744954 10.759811 1.7882909999999999 0 0 0
102 2 4 -0.1504 10.759812 1.7882899999999993 11.744954 0 0 0
103 8 4 -0.1504 13.711577 14.69672 10.2738 0 0 0
104 16 4 -0.1504 13.711579 2.274295 6.697214 0 0 0
105 17 4 -0.1504 2.274295 6.697213 13.71158 0 0 0
106 18 4 -0.1504 6.211209 15.182727 11.744953 0 0 0
107 19 4 -0.1504 11.744957 6.211204 15.182732 0 0 0
108 5 4 -0.1504 14.696721 10.273802 13.711577 0 0 0
109 2 5 -0.0519 10.494988 0.013240999999999994 10.494988 0 0 0
110 18 5 -0.0519 6.476028 16.95778 10.49499 0 0 0
111 4 5 -0.0519 10.494987 16.957779 6.476029999999997 0 0 0
112 5 5 -0.0519 14.961534 8.498744999999994 14.961533 0 0 0
113 6 5 -0.0519 10.494991 10.494991 0.013239 0 0 0
114 7 5 -0.0519 0.01324 10.494989 10.494989 0 0 0
115 8 5 -0.0519 14.961538 14.961538 8.498745999999995 0 0 0
116 9 5 -0.0519 8.472275 2.009487 14.961531 0 0 0
117 10 5 -0.0519 2.009485 14.961531 8.472274 0 0 0
118 14 5 -0.0519 8.472273 14.961533 2.009484 0 0 0
119 16 5 -0.0519 14.961534 2.009483 8.472273 0 0 0
120 13 5 -0.0519 8.498746999999995 14.961539 14.961538 0 0 0
121 25 4 -0.1504 3.2594349999999985 10.273806 2.274293 0 0 0
122 18 4 -0.1504 5.226065 15.182728 10.75981 0 0 0
123 17 4 -0.1504 3.2594379999999994 6.697213 14.696724 0 0 0
124 26 4 -0.1504 5.226065999999998 1.788293 6.211211 0 0 0
125 27 4 -0.1504 2.274296999999999 3.259441 10.273801 0 0 0
126 28 4 -0.1504 10.273805 2.274295 3.2594369999999993 0 0 0
127 29 4 -0.1504 6.211209 5.226065999999998 1.788292 0 0 0
128 15 4 -0.1504 15.182733 10.759814 5.226061 0 0 0
129 19 4 -0.1504 10.759814 5.226061 15.182733 0 0 0
130 14 4 -0.1504 6.697215 14.696722 3.25944 0 0 0
131 16 4 -0.1504 14.696722 3.259439 6.697215 0 0 0
132 30 4 -0.1504 1.788294 6.211211 5.226067999999997 0 0 0
133 28 4 -0.1504 10.273806 3.2594369999999993 2.274292 0 0 0
134 11 4 -0.1504 15.18273 5.226063 10.759811 0 0 0
135 9 4 -0.1504 6.697213 3.259439 14.696723 0 0 0
136 30 4 -0.1504 1.788296 5.226067999999997 6.211212 0 0 0
137 27 4 -0.1504 3.25944 2.274297999999999 10.273801 0 0 0
138 25 4 -0.1504 2.274293 10.273806 3.2594369999999993 0 0 0
139 29 4 -0.1504 5.226065 6.211209 1.788292 0 0 0
140 12 4 -0.1504 5.226061 10.759813 15.182732 0 0 0
141 4 4 -0.1504 10.75981 15.18273 5.226064 0 0 0
142 3 4 -0.1504 14.696722 6.697215 3.2594379999999994 0 0 0
143 10 4 -0.1504 3.259439 14.696721 6.697214 0 0 0
144 26 4 -0.1504 6.211208 1.788293 5.226065999999998 0 0 0
145 25 5 -0.0519 2.009484 8.498743999999995 2.009485 0 0 0
146 3 5 -0.0519 14.96153 8.472276 2.009486 0 0 0
147 17 5 -0.0519 2.009486 8.472275 14.961531 0 0 0
148 26 5 -0.0519 6.476025 0.013237999999999996 6.476026 0 0 0
149 27 5 -0.0519 2.009479 2.009479 8.498746999999995 0 0 0
150 28 5 -0.0519 8.498742 2.009488 2.009487 0 0 0
151 29 5 -0.0519 6.476028 6.476029 0.013239 0 0 0
152 15 5 -0.0519 16.957772 10.494977999999996 6.4760409999999995 0 0 0
153 19 5 -0.0519 10.494979999999998 6.476037999999998 16.957773 0 0 0
154 11 5 -0.0519 16.957775 6.476033999999998 10.494983 0 0 0
155 12 5 -0.0519 6.476035999999997 10.494983 16.957775 0 0 0
156 30 5 -0.0519 0.013235999999999994 6.476022 6.476023 0 0 0
157 2 6 -0.1532 11.568374 0.658335 9.971303 0 0 0
158 3 6 -0.1532 13.888150999999999 7.827175 1.4857949999999993 0 0 0
159 4 6 -0.1532 11.568371 16.312683 6.999717 0 0 0
160 5 6 -0.1532 13.888151999999998 9.143843 15.485222999999996 0 0 0
161 6 6 -0.1532 9.971305 11.568376 0.658334 0 0 0
162 7 6 -0.1532 0.658334 9.971304 11.568375 0 0 0
163 8 6 -0.1532 15.485224999999996 13.888154 9.143842 0 0 0
164 9 6 -0.1532 7.827176 1.4857969999999996 13.888150999999999 0 0 0
165 10 6 -0.1532 1.485794 13.888151999999998 7.827174 0 0 0
166 11 6 -0.1532 16.312683 6.999716 11.568371 0 0 0
167 12 6 -0.1532 6.999718999999997 11.56837 16.312681 0 0 0
168 13 6 -0.1532 9.143842 15.485224999999996 13.888152999999999 0 0 0
169 7 6 -0.1532 0.658335 11.568374 9.971303 0 0 0
170 14 6 -0.1532 7.827173 13.888152999999999 1.485794 0 0 0
171 15 6 -0.1532 16.312679 11.568367 6.999721999999998 0 0 0
172 13 6 -0.1532 9.143843 13.888154 15.485224999999996 0 0 0
173 6 6 -0.1532 11.568376 9.971306 0.658334 0 0 0
174 2 6 -0.1532 9.971304 0.658335 11.568374 0 0 0
175 8 6 -0.1532 13.888152999999999 15.485223999999995 9.143842 0 0 0
176 16 6 -0.1532 13.888151999999998 1.485794 7.827175 0 0 0
177 17 6 -0.1532 1.4857959999999992 7.827176 13.888149999999998 0 0 0
178 18 6 -0.1532 6.999715 16.312684 11.568375 0 0 0
179 19 6 -0.1532 11.568369 6.999718999999997 16.312681 0 0 0
180 5 6 -0.1532 15.485221999999995 9.143841 13.888149999999998 0 0 0
181 25 6 -0.1532 3.082864 9.143843 1.4857949999999993 0 0 0
182 18 6 -0.1532 5.402642999999998 16.312685 9.971305 0 0 0
183 17 6 -0.1532 3.082868 7.827177 15.485220999999994 0 0 0
184 26 6 -0.1532 5.4026419999999975 0.658335 6.999714 0 0 0
185 27 6 -0.1532 1.485793 3.082864 9.143843 0 0 0
186 28 6 -0.1532 9.14384 1.485798 3.082868 0 0 0
187 29 6 -0.1532 6.999714 5.402643999999997 0.658334 0 0 0
188 15 6 -0.1532 16.312683 9.971299 5.402647999999999 0 0 0
189 19 6 -0.1532 9.9713 5.402646999999998 16.312682 0 0 0
190 14 6 -0.1532 7.827178 15.485220999999994 3.082868 0 0 0
191 16 6 -0.1532 15.485221999999995 3.082866 7.827176 0 0 0
192 30 6 -0.1532 0.658333 6.999711 5.402640999999997 0 0 0
193 28 6 -0.1532 9.143842 3.082867 1.4857949999999993 0 0 0
194 11 6 -0.1532 16.312683 5.402645999999998 9.9713 0 0 0
195 9 6 -0.1532 7.827177 3.082868 15.485220999999994 0 0 0
196 30 6 -0.1532 0.658334 5.402640999999997 6.999712 0 0 0
197 27 6 -0.1532 3.0828629999999997 1.485793 9.143843 0 0 0
198 25 6 -0.1532 1.485794 9.143842 3.082866 0 0 0
199 29 6 -0.1532 5.402642999999998 6.999714 0.658335 0 0 0
200 12 6 -0.1532 5.402644999999998 9.971302 16.312684 0 0 0
201 4 6 -0.1532 9.971304 16.312686 5.402642999999998 0 0 0
202 3 6 -0.1532 15.485218999999995 7.827179 3.082869 0 0 0
203 10 6 -0.1532 3.082868 15.485219999999995 7.827178 0 0 0
204 26 6 -0.1532 6.999711 0.658333 5.402640999999997 0 0 0
205 1 1 0.5212 29.699279999999995 0 8.485509 0 0 0
206 1 1 0.5212 29.699279999999995 8.48551 33.942035000000004 0 0 -1
207 1 1 0.5212 25.456527 12.728262999999995 0 0 0 0
208 1 1 0.5212 16.971018 8.485509 12.728262 0 0 0
209 1 1 0.5212 16.971018 12.728262999999995 8.485509 0 0 0
210 1 1 0.5212 25.456527 1e-06 12.728262999999995 0 0 0
211 1 1 0.5212 21.213773 8.485509 0 0 0 0
212 1 1 0.5212 21.213772 0 8.48551 0 0 0
213 1 1 0.5212 16.971017 4.242754 8.485508 0 0 0
214 1 1 0.5212 25.45652599999999 1e-06 4.242755 0 0 0
215 1 1 0.5212 25.456527 4.242756 0 0 0 0
216 1 1 0.5212 16.971017 8.485508 4.242756 0 0 0
217 38 2 0.142 29.518168 2.506833 10.552687 0 0 0
218 39 2 0.142 29.880409 5.978664 2.067163 0 0 0
219 40 2 0.142 29.51816299999999 14.464182999999995 6.418335 0 0 0
220 41 2 0.142 29.880406 10.992349 14.903849999999997 0 0 0
221 42 2 0.142 27.523702999999994 12.547149 2.506834 0 0 0
222 21 2 0.142 19.477852 10.552685 12.547148 0 0 0
223 43 2 0.142 31.874866 12.909383999999998 10.992344 0 0 0
224 44 2 0.142 22.949683 2.067165 12.90939 0 0 0
225 45 2 0.142 19.038181999999992 12.909391 5.978664 0 0 0
226 34 2 0.142 31.435208 6.418328 12.547153 0 0 0
227 46 2 0.142 23.389347 12.547152 14.464188999999998 0 0 0
228 47 2 0.142 27.96336199999999 14.903845999999994 12.909381999999997 0 0 0
229 21 2 0.142 19.477852999999996 12.547147 10.552683 0 0 0
230 48 2 0.142 22.949683 12.90939 2.067165 0 0 0
231 37 2 0.142 31.435209 12.547154 6.418327 0 0 0
232 47 2 0.142 27.96336199999999 12.909382999999998 14.903846999999995 0 0 0
233 42 2 0.142 29.518166 10.552686 2.506834 0 0 0
234 38 2 0.142 27.523704999999996 2.506833 12.54715 0 0 0
235 43 2 0.142 29.880401 14.903845999999994 10.992344 0 0 0
236 49 2 0.142 29.880406 2.067166 5.978667 0 0 0
237 50 2 0.142 19.038183 5.978665 12.909391 0 0 0
238 51 2 0.142 23.389353 14.464182999999995 12.547147 0 0 0
239 52 2 0.142 29.518174 6.418325 14.464191999999999 0 0 0
240 41 2 0.142 31.874867 10.992347 12.909384999999999 0 0 0
241 53 3 0.1145 27.054304 10.083287 16.05325 0 0 0
242 43 3 0.1145 32.344258 15.373242 7.567738 0 0 0
243 45 3 0.1145 18.56880399999999 15.37323 9.403285999999994 0 0 0
244 49 3 0.1145 32.344251 1.5977829999999993 9.403283999999994 0 0 0
245 7 3 0.1145 33.024269 10.083285 10.083284 0 0 0
246 54 3 0.1145 27.0543 16.053253 10.083282 0 0 0
247 48 3 0.1145 26.374302 15.373232 1.5977829999999993 0 0 0
248 41 3 0.1145 32.344253 7.567734 15.373234 0 0 0
249 47 3 0.1145 24.538757 15.373242 15.373241 0 0 0
250 55 3 0.1145 23.85875099999999 0.917769 10.083286 0 0 0
251 44 3 0.1145 26.374306 1.597789 15.373229 0 0 0
252 56 3 0.1145 27.0543 0.917767 6.887736 0 0 0
253 57 2 0.142 21.032643 10.992352999999994 2.067163 0 0 0
254 51 2 0.142 21.394887 14.464184999999997 10.552686 0 0 0
255 50 2 0.142 21.032647 5.978667 14.903853999999999 0 0 0
256 58 2 0.142 21.394891 2.5068389999999985 6.418338 0 0 0
257 59 2 0.142 19.038189 4.061636 10.992344 0 0 0
258 60 2 0.142 27.963369999999994 2.067164 4.061627 0 0 0
259 61 2 0.142 23.389353 4.423871 2.506835 0 0 0
260 37 2 0.142 31.435214 10.552694999999995 4.423859 0 0 0
261 52 2 0.142 27.523712999999997 4.423859 14.464195 0 0 0
262 48 2 0.142 22.949689 14.903848999999996 4.061634 0 0 0
263 49 2 0.142 31.874868 4.061631 5.978669 0 0 0
264 36 2 0.142 19.477858 6.41834 4.423875999999997 0 0 0
265 60 2 0.142 27.963373 4.061625 2.067161 0 0 0
266 34 2 0.142 31.435207 4.423865 10.552688 0 0 0
267 44 2 0.142 22.949685 4.061629 14.903851999999997 0 0 0
268 36 2 0.142 19.47786 4.423876999999997 6.418341 0 0 0
269 59 2 0.142 21.032653 2.067172 10.992345 0 0 0
270 57 2 0.142 19.038181 10.992352 4.061628 0 0 0
271 61 2 0.142 21.394888 6.418334 2.506835 0 0 0
272 46 2 0.142 21.39488 10.552691999999995 14.464193 0 0 0
273 40 2 0.142 27.523704999999996 14.464188999999998 4.423866 0 0 0
274 39 2 0.142 31.874869 5.978669 4.06163 0 0 0
275 45 2 0.142 21.032649999999993 14.903849999999997 5.978669 0 0 0
276 58 2 0.142 23.389352 2.506837 4.423872 0 0 0
277 59 3 0.1145 18.568793 1.5977759999999996 7.567739 0 0 0
278 62 3 0.1145 23.85875 6.887733 16.05325 0 0 0
279 63 3 0.1145 27.054286 6.887749999999997 0.917755 0 0 0
280 64 3 0.1145 23.85876299999999 10.083273 0.91776 0 0 0
281 60 3 0.1145 24.538745 1.597791 1.59779 0 0 0
282 57 3 0.1145 18.56880399999999 7.567731 1.597787 0 0 0
283 11 3 0.1145 17.888779 6.887743 10.083274 0 0 0
284 65 3 0.1145 23.85874499999999 16.053247 6.887728 0 0 0
285 30 3 0.1145 33.02426 6.887721999999999 6.887722999999999 0 0 0
286 39 3 0.1145 32.344246 9.403288999999996 1.597788 0 0 0
287 15 3 0.1145 17.888771999999992 10.083265999999998 6.887753999999998 0 0 0
288 50 3 0.1145 18.56880599999999 9.403287999999995 15.373228 0 0 0
289 38 4 -0.1504 28.715973 1.7882899999999993 10.759811 0 0 0
290 39 4 -0.1504 30.682598 6.697212 2.274294 0 0 0
291 40 4 -0.1504 28.715969 15.182728 6.211209 0 0 0
292 41 4 -0.1504 30.68259699999999 10.273803 14.696722 0 0 0
293 42 4 -0.1504 27.730828 11.744954 1.7882909999999999 0 0 0
294 21 4 -0.1504 18.759308999999988 10.75981 11.744953 0 0 0
295 43 4 -0.1504 31.667739 13.711578 10.2738 0 0 0
296 44 4 -0.1504 23.668231 2.274295 13.71158 0 0 0
297 45 4 -0.1504 19.245312 13.71158 6.697212 0 0 0
298 34 4 -0.1504 32.153749 6.211205 11.744955 0 0 0
299 46 4 -0.1504 23.182224 11.744955 15.18273 0 0 0
300 47 4 -0.1504 27.244817999999988 14.69672 13.711576 0 0 0
301 21 4 -0.1504 18.759308999999988 11.744953 10.759809 0 0 0
302 48 4 -0.1504 23.668231 13.71158 2.274295 0 0 0
303 37 4 -0.1504 32.153749 11.744955 6.211206 0 0 0
304 47 4 -0.1504 27.244819 13.711577 14.69672 0 0 0
305 42 4 -0.1504 28.715972 10.759811 1.7882909999999999 0 0 0
306 38 4 -0.1504 27.73083 1.7882899999999993 11.744954 0 0 0
307 43 4 -0.1504 30.68259499999999 14.69672 10.2738 0 0 0
308 49 4 -0.1504 30.68259699999999 2.274295 6.697214 0 0 0
309 50 4 -0.1504 19.245313 6.697213 13.71158 0 0 0
310 51 4 -0.1504 23.18222699999999 15.182727 11.744953 0 0 0
311 52 4 -0.1504 28.715975 6.211204 15.182732 0 0 0
312 41 4 -0.1504 31.667739 10.273802 13.711577 0 0 0
313 38 5 -0.0519 27.466006 0.013240999999999994 10.494988 0 0 0
314 51 5 -0.0519 23.44704599999999 16.95778 10.49499 0 0 0
315 40 5 -0.0519 27.466005 16.957779 6.476029999999997 0 0 0
316 41 5 -0.0519 31.932552 8.498744999999994 14.961533 0 0 0
317 42 5 -0.0519 27.466009 10.494991 0.013239 0 0 0
318 21 5 -0.0519 16.984258 10.494989 10.494989 0 0 0
319 43 5 -0.0519 31.932556 14.961538 8.498745999999995 0 0 0
320 44 5 -0.0519 25.443293 2.009487 14.961531 0 0 0
321 45 5 -0.0519 18.980503 14.961531 8.472274 0 0 0
322 48 5 -0.0519 25.443291 14.961533 2.009484 0 0 0
323 49 5 -0.0519 31.932552 2.009483 8.472273 0 0 0
324 47 5 -0.0519 25.469765 14.961539 14.961538 0 0 0
325 57 4 -0.1504 20.230453 10.273806 2.274293 0 0 0
326 51 4 -0.1504 22.197083 15.182728 10.75981 0 0 0
327 50 4 -0.1504 20.230456 6.697213 14.696724 0 0 0
328 58 4 -0.1504 22.197083999999993 1.788293 6.211211 0 0 0
329 59 4 -0.1504 19.245315 3.259441 10.273801 0 0 0
330 60 4 -0.1504 27.244823 2.274295 3.2594369999999993 0 0 0
331 61 4 -0.1504 23.18222699999999 5.226065999999998 1.788292 0 0 0
332 37 4 -0.1504 32.153751 10.759814 5.226061 0 0 0
333 52 4 -0.1504 27.730832 5.226061 15.182733 0 0 0
334 48 4 -0.1504 23.668233 14.696722 3.25944 0 0 0
335 49 4 -0.1504 31.667739999999988 3.259439 6.697215 0 0 0
336 36 4 -0.1504 18.759312 6.211211 5.226067999999997 0 0 0
337 60 4 -0.1504 27.24482399999999 3.2594369999999993 2.274292 0 0 0
338 34 4 -0.1504 32.153748 5.226063 10.759811 0 0 0
339 44 4 -0.1504 23.668231 3.259439 14.696723 0 0 0
340 36 4 -0.1504 18.759314 5.226067999999997 6.211212 0 0 0
341 59 4 -0.1504 20.230458 2.274297999999999 10.273801 0 0 0
342 57 4 -0.1504 19.245311 10.273806 3.2594369999999993 0 0 0
343 61 4 -0.1504 22.197083 6.211209 1.788292 0 0 0
344 46 4 -0.1504 22.197079 10.759813 15.182732 0 0 0
345 40 4 -0.1504 27.730828 15.18273 5.226064 0 0 0
346 39 4 -0.1504 31.667739999999988 6.697215 3.2594379999999994 0 0 0
347 45 4 -0.1504 20.230457 14.696721 6.697214 0 0 0
348 58 4 -0.1504 23.182226 1.788293 5.226065999999998 0 0 0
349 57 5 -0.0519 18.980502 8.498743999999995 2.009485 0 0 0
350 39 5 -0.0519 31.932548 8.472276 2.009486 0 0 0
351 50 5 -0.0519 18.980504 8.472275 14.961531 0 0 0
352 58 5 -0.0519 23.447043 0.013237999999999996 6.476026 0 0 0
353 59 5 -0.0519 18.980497 2.009479 8.498746999999995 0 0 0
354 60 5 -0.0519 25.469759999999997 2.009488 2.009487 0 0 0
355 61 5 -0.0519 23.44704599999999 6.476029 0.013239 0 0 0
356 37 5 -0.0519 33.92879 10.494977999999996 6.4760409999999995 0 0 0
357 52 5 -0.0519 27.465998 6.476037999999998 16.957773 0 0 0
358 34 5 -0.0519 33.928793 6.476033999999998 10.494983 0 0 0
359 46 5 -0.0519 23.447053999999994 10.494983 16.957775 0 0 0
360 36 5 -0.0519 16.984254 6.476022 6.476023 0 0 0
361 38 6 -0.1532 28.539392 0.658335 9.971303 0 0 0
362 39 6 -0.1532 30.859169 7.827175 1.4857949999999993 0 0 0
363 40 6 -0.1532 28.53938899999999 16.312683 6.999717 0 0 0
364 41 6 -0.1532 30.85917 9.143843 15.485222999999996 0 0 0
365 42 6 -0.1532 26.942323 11.568376 0.658334 0 0 0
366 21 6 -0.1532 17.629352 9.971304 11.568375 0 0 0
367 43 6 -0.1532 32.456243 13.888154 9.143842 0 0 0
368 44 6 -0.1532 24.798194 1.4857969999999996 13.888150999999999 0 0 0
369 45 6 -0.1532 18.456812 13.888151999999998 7.827174 0 0 0
370 34 6 -0.1532 33.283701 6.999716 11.568371 0 0 0
371 46 6 -0.1532 23.970737 11.56837 16.312681 0 0 0
372 47 6 -0.1532 26.11486 15.485224999999996 13.888152999999999 0 0 0
373 21 6 -0.1532 17.629353 11.568374 9.971303 0 0 0
374 48 6 -0.1532 24.79819099999999 13.888152999999999 1.485794 0 0 0
375 37 6 -0.1532 33.283697 11.568367 6.999721999999998 0 0 0
376 47 6 -0.1532 26.114861 13.888154 15.485224999999996 0 0 0
377 42 6 -0.1532 28.539394 9.971306 0.658334 0 0 0
378 38 6 -0.1532 26.94232199999999 0.658335 11.568374 0 0 0
379 43 6 -0.1532 30.859171 15.485223999999995 9.143842 0 0 0
380 49 6 -0.1532 30.85917 1.485794 7.827175 0 0 0
381 50 6 -0.1532 18.456814 7.827176 13.888149999999998 0 0 0
382 51 6 -0.1532 23.970733 16.312684 11.568375 0 0 0
383 52 6 -0.1532 28.53938699999999 6.999718999999997 16.312681 0 0 0
384 41 6 -0.1532 32.45624 9.143841 13.888149999999998 0 0 0
385 57 6 -0.1532 20.05388199999999 9.143843 1.4857949999999993 0 0 0
386 51 6 -0.1532 22.373661 16.312685 9.971305 0 0 0
387 50 6 -0.1532 20.053885999999995 7.827177 15.485220999999994 0 0 0
388 58 6 -0.1532 22.37366 0.658335 6.999714 0 0 0
389 59 6 -0.1532 18.456810999999995 3.082864 9.143843 0 0 0
390 60 6 -0.1532 26.114858 1.485798 3.082868 0 0 0
391 61 6 -0.1532 23.970732 5.402643999999997 0.658334 0 0 0
392 37 6 -0.1532 33.283701 9.971299 5.402647999999999 0 0 0
393 52 6 -0.1532 26.94231799999999 5.402646999999998 16.312682 0 0 0
394 48 6 -0.1532 24.798196 15.485220999999994 3.082868 0 0 0
395 49 6 -0.1532 32.45624 3.082866 7.827176 0 0 0
396 36 6 -0.1532 17.629351 6.999711 5.402640999999997 0 0 0
397 60 6 -0.1532 26.11486 3.082867 1.4857949999999993 0 0 0
398 34 6 -0.1532 33.283701 5.402645999999998 9.9713 0 0 0
399 44 6 -0.1532 24.79819499999999 3.082868 15.485220999999994 0 0 0
400 36 6 -0.1532 17.629352 5.402640999999997 6.999712 0 0 0
401 59 6 -0.1532 20.053881 1.485793 9.143843 0 0 0
402 57 6 -0.1532 18.456812 9.143842 3.082866 0 0 0
403 61 6 -0.1532 22.373661 6.999714 0.658335 0 0 0
404 46 6 -0.1532 22.373663 9.971302 16.312684 0 0 0
405 40 6 -0.1532 26.94232199999999 16.312686 5.402642999999998 0 0 0
406 39 6 -0.1532 32.456237 7.827179 3.082869 0 0 0
407 45 6 -0.1532 20.053885999999995 15.485219999999995 7.827178 0 0 0
408 58 6 -0.1532 23.970729 0.658333 5.402640999999997 0 0 0
409 1 1 0.5212 12.728262 16.971018 8.485509 0 0 0
410 1 1 0.5212 12.728262 25.456527999999988 33.942035000000004 0 0 -1
411 1 1 0.5212 8.485509 29.699281 0 0 0 0
412 1 1 0.5212 0 25.456527 12.728262 0 0 0
413 1 1 0.5212 0 29.699281 8.485509 0 0 0
414 1 1 0.5212 8.485509 16.971018999999988 12.728262999999995 0 0 0
415 1 1 0.5212 4.242755 25.456527 0 0 0 0
416 1 1 0.5212 4.242754 16.971018 8.48551 0 0 0
417 1 1 0.5212 33.942035000000004 21.213772 8.485508 -1 0 0
418 1 1 0.5212 8.485508 16.971018999999988 4.242755 0 0 0
419 1 1 0.5212 8.485509 21.213774 0 0 0 0
420 1 1 0.5212 33.942035000000004 25.45652599999999 4.242756 -1 0 0
421 22 2 0.142 12.54715 19.477850999999994 10.552687 0 0 0
422 66 2 0.142 12.909391 22.949682 2.067163 0 0 0
423 24 2 0.142 12.547145 31.435201 6.418335 0 0 0
424 67 2 0.142 12.909388 27.963367 14.903849999999997 0 0 0
425 68 2 0.142 10.552685 29.51816699999999 2.506834 0 0 0
426 69 2 0.142 2.506834 27.523702999999994 12.547148 0 0 0
427 70 2 0.142 14.903847999999995 29.880402 10.992344 0 0 0
428 71 2 0.142 5.978665 19.038183 12.90939 0 0 0
429 72 2 0.142 2.067164 29.880409 5.978664 0 0 0
430 73 2 0.142 14.464189999999999 23.389346 12.547153 0 0 0
431 74 2 0.142 6.418329 29.51817 14.464188999999998 0 0 0
432 75 2 0.142 10.992344 31.874864 12.909381999999997 0 0 0
433 69 2 0.142 2.506835 29.51816499999999 10.552683 0 0 0
434 76 2 0.142 5.978665 29.880408 2.067165 0 0 0
435 77 2 0.142 14.464191 29.518172 6.418327 0 0 0
436 75 2 0.142 10.992344 29.880401 14.903846999999995 0 0 0
437 68 2 0.142 12.547148 27.523704 2.506834 0 0 0
438 22 2 0.142 10.552687 19.477850999999994 12.54715 0 0 0
439 70 2 0.142 12.909382999999998 31.874864 10.992344 0 0 0
440 78 2 0.142 12.909388 19.038183999999994 5.978667 0 0 0
441 79 2 0.142 2.067165 22.949683 12.909391 0 0 0
442 23 2 0.142 6.418335 31.435201 12.547147 0 0 0
443 80 2 0.142 12.547155999999994 23.389343 14.464191999999999 0 0 0
444 67 2 0.142 14.903848999999996 27.963365 12.909384999999999 0 0 0
445 81 3 0.1145 10.083286 27.05430499999999 16.05325 0 0 0
446 70 3 0.1145 15.37324 32.34426 7.567738 0 0 0
447 72 3 0.1145 1.597786 32.344248 9.403285999999994 0 0 0
448 78 3 0.1145 15.373233 18.568801 9.403283999999994 0 0 0
449 82 3 0.1145 16.053251 27.05430299999999 10.083284 0 0 0
450 2 3 0.1145 10.083282 33.024271 10.083282 0 0 0
451 76 3 0.1145 9.403283999999994 32.34425 1.5977829999999993 0 0 0
452 67 3 0.1145 15.373235 24.538752 15.373234 0 0 0
453 75 3 0.1145 7.567739 32.34426 15.373241 0 0 0
454 18 3 0.1145 6.887733 17.888787 10.083286 0 0 0
455 71 3 0.1145 9.403287999999995 18.568807 15.373229 0 0 0
456 4 3 0.1145 10.083282 17.888785 6.887736 0 0 0
457 83 2 0.142 4.061625 27.963371 2.067163 0 0 0
458 23 2 0.142 4.423869 31.435203 10.552686 0 0 0
459 79 2 0.142 4.061629 22.949685 14.903853999999999 0 0 0
460 35 2 0.142 4.423873 19.477856999999997 6.418338 0 0 0
461 84 2 0.142 2.067171 21.032653999999994 10.992344 0 0 0
462 85 2 0.142 10.992352 19.038181999999992 4.061627 0 0 0
463 86 2 0.142 6.418335 21.394889 2.506835 0 0 0
464 77 2 0.142 14.464196 27.523712999999997 4.423859 0 0 0
465 80 2 0.142 10.552694999999995 21.394877 14.464195 0 0 0
466 76 2 0.142 5.978671 31.874867 4.061634 0 0 0
467 78 2 0.142 14.903849999999997 21.032649 5.978669 0 0 0
468 87 2 0.142 2.5068399999999986 23.389358 4.423875999999997 0 0 0
469 85 2 0.142 10.992354999999995 21.032643 2.067161 0 0 0
470 73 2 0.142 14.464188999999998 21.394883 10.552688 0 0 0
471 71 2 0.142 5.978667 21.032647 14.903851999999997 0 0 0
472 87 2 0.142 2.506842 21.394895 6.418341 0 0 0
473 84 2 0.142 4.061635 19.038189999999997 10.992345 0 0 0
474 83 2 0.142 2.067163 27.963369999999994 4.061628 0 0 0
475 86 2 0.142 4.42387 23.389352 2.506835 0 0 0
476 74 2 0.142 4.423862 27.52371 14.464193 0 0 0
477 24 2 0.142 10.552687 31.435207 4.423866 0 0 0
478 66 2 0.142 14.903850999999996 22.949687 4.06163 0 0 0
479 72 2 0.142 4.061632 31.874868 5.978669 0 0 0
480 35 2 0.142 6.418334 19.477854999999998 4.423872 0 0 0
481 84 3 0.1145 1.5977749999999993 18.56879399999999 7.567739 0 0 0
482 88 3 0.1145 6.887732 23.85875099999999 16.05325 0 0 0
483 89 3 0.1145 10.083268 23.858768 0.917755 0 0 0
484 90 3 0.1145 6.887745 27.054291 0.91776 0 0 0
485 85 3 0.1145 7.567727 18.568809 1.59779 0 0 0
486 83 3 0.1145 1.597786 24.538749 1.597787 0 0 0
487 91 3 0.1145 0.917761 23.85876099999999 10.083274 0 0 0
488 26 3 0.1145 6.887727 33.024265 6.887728 0 0 0
489 92 3 0.1145 16.053242 23.85874 6.887722999999999 0 0 0
490 66 3 0.1145 15.373228 26.374306999999998 1.597788 0 0 0
491 93 3 0.1145 0.917754 27.054284 6.887753999999998 0 0 0
492 79 3 0.1145 1.597788 26.374306 15.373228 0 0 0
493 22 4 -0.1504 11.744955 18.759308 10.759811 0 0 0
494 66 4 -0.1504 13.71158 23.66823 2.274294 0 0 0
495 24 4 -0.1504 11.744950999999999 32.153746 6.211209 0 0 0
496 67 4 -0.1504 13.711579 27.244821 14.696722 0 0 0
497 68 4 -0.1504 10.75981 28.715972 1.7882909999999999 0 0 0
498 69 4 -0.1504 1.7882909999999999 27.730828 11.744953 0 0 0
499 70 4 -0.1504 14.696721 30.682596 10.2738 0 0 0
500 71 4 -0.1504 6.697213 19.245313 13.71158 0 0 0
501 72 4 -0.1504 2.274294 30.682598 6.697212 0 0 0
502 73 4 -0.1504 15.182731 23.18222299999999 11.744955 0 0 0
503 74 4 -0.1504 6.211206 28.715973 15.18273 0 0 0
504 75 4 -0.1504 10.2738 31.66773799999999 13.711576 0 0 0
505 69 4 -0.1504 1.7882909999999999 28.715971 10.759809 0 0 0
506 76 4 -0.1504 6.697213 30.682598 2.274295 0 0 0
507 77 4 -0.1504 15.182731 28.715973 6.211206 0 0 0
508 75 4 -0.1504 10.273801 30.68259499999999 14.69672 0 0 0
509 68 4 -0.1504 11.744954 27.73082899999999 1.7882909999999999 0 0 0
510 22 4 -0.1504 10.759812 18.759308 11.744954 0 0 0
511 70 4 -0.1504 13.711577 31.66773799999999 10.2738 0 0 0
512 78 4 -0.1504 13.711579 19.245313 6.697214 0 0 0
513 79 4 -0.1504 2.274295 23.668231 13.71158 0 0 0
514 23 4 -0.1504 6.211209 32.153745 11.744953 0 0 0
515 80 4 -0.1504 11.744957 23.182222 15.182732 0 0 0
516 67 4 -0.1504 14.696721 27.24481999999999 13.711577 0 0 0
517 22 5 -0.0519 10.494988 16.984259 10.494988 0 0 0
518 23 5 -0.0519 6.476028 33.928798 10.49499 0 0 0
519 24 5 -0.0519 10.494987 33.928797 6.476029999999997 0 0 0
520 67 5 -0.0519 14.961534 25.469763 14.961533 0 0 0
521 68 5 -0.0519 10.494991 27.466009 0.013239 0 0 0
522 69 5 -0.0519 0.01324 27.466007 10.494989 0 0 0
523 70 5 -0.0519 14.961538 31.932556 8.498745999999995 0 0 0
524 71 5 -0.0519 8.472275 18.980505 14.961531 0 0 0
525 72 5 -0.0519 2.009485 31.93254899999999 8.472274 0 0 0
526 76 5 -0.0519 8.472273 31.93255099999999 2.009484 0 0 0
527 78 5 -0.0519 14.961534 18.980501 8.472273 0 0 0
528 75 5 -0.0519 8.498746999999995 31.93255699999999 14.961538 0 0 0
529 83 4 -0.1504 3.2594349999999985 27.24482399999999 2.274293 0 0 0
530 23 4 -0.1504 5.226065 32.153746 10.75981 0 0 0
531 79 4 -0.1504 3.2594379999999994 23.668231 14.696724 0 0 0
532 35 4 -0.1504 5.226065999999998 18.75931099999999 6.211211 0 0 0
533 84 4 -0.1504 2.274296999999999 20.230459 10.273801 0 0 0
534 85 4 -0.1504 10.273805 19.245313 3.2594369999999993 0 0 0
535 86 4 -0.1504 6.211209 22.197083999999993 1.788292 0 0 0
536 77 4 -0.1504 15.182733 27.730832 5.226061 0 0 0
537 80 4 -0.1504 10.759814 22.197079 15.182733 0 0 0
538 76 4 -0.1504 6.697215 31.667739999999988 3.25944 0 0 0
539 78 4 -0.1504 14.696722 20.230457 6.697215 0 0 0
540 87 4 -0.1504 1.788294 23.18222899999999 5.226067999999997 0 0 0
541 85 4 -0.1504 10.273806 20.230455 2.274292 0 0 0
542 73 4 -0.1504 15.18273 22.197081 10.759811 0 0 0
543 71 4 -0.1504 6.697213 20.230457 14.696723 0 0 0
544 87 4 -0.1504 1.788296 22.19708599999999 6.211212 0 0 0
545 84 4 -0.1504 3.25944 19.24531599999999 10.273801 0 0 0
546 83 4 -0.1504 2.274293 27.24482399999999 3.2594369999999993 0 0 0
547 86 4 -0.1504 5.226065 23.18222699999999 1.788292 0 0 0
548 74 4 -0.1504 5.226061 27.730830999999988 15.182732 0 0 0
549 24 4 -0.1504 10.75981 32.153748 5.226064 0 0 0
550 66 4 -0.1504 14.696722 23.668233 3.2594379999999994 0 0 0
551 72 4 -0.1504 3.259439 31.667739 6.697214 0 0 0
552 35 4 -0.1504 6.211208 18.75931099999999 5.226065999999998 0 0 0
553 83 5 -0.0519 2.009484 25.469761999999996 2.009485 0 0 0
554 66 5 -0.0519 14.96153 25.443294 2.009486 0 0 0
555 79 5 -0.0519 2.009486 25.443293 14.961531 0 0 0
556 35 5 -0.0519 6.476025 16.984256 6.476026 0 0 0
557 84 5 -0.0519 2.009479 18.980497 8.498746999999995 0 0 0
558 85 5 -0.0519 8.498742 18.980506 2.009487 0 0 0
559 86 5 -0.0519 6.476028 23.447047 0.013239 0 0 0
560 77 5 -0.0519 16.957772 27.465996 6.4760409999999995 0 0 0
561 80 5 -0.0519 10.494979999999998 23.447055999999993 16.957773 0 0 0
562 73 5 -0.0519 16.957775 23.447051999999992 10.494983 0 0 0
563 74 5 -0.0519 6.476035999999997 27.466001 16.957775 0 0 0
564 87 5 -0.0519 0.013235999999999994 23.44703999999999 6.476023 0 0 0
565 22 6 -0.1532 11.568374 17.629353 9.971303 0 0 0
566 66 6 -0.1532 13.888150999999999 24.79819299999999 1.4857949999999993 0 0 0
567 24 6 -0.1532 11.568371 33.283701 6.999717 0 0 0
568 67 6 -0.1532 13.888151999999998 26.114861 15.485222999999996 0 0 0
569 68 6 -0.1532 9.971305 28.539394 0.658334 0 0 0
570 69 6 -0.1532 0.658334 26.94232199999999 11.568375 0 0 0
571 70 6 -0.1532 15.485224999999996 30.859172 9.143842 0 0 0
572 71 6 -0.1532 7.827176 18.456815 13.888150999999999 0 0 0
573 72 6 -0.1532 1.485794 30.85917 7.827174 0 0 0
574 73 6 -0.1532 16.312683 23.970734 11.568371 0 0 0
575 74 6 -0.1532 6.999718999999997 28.539388 16.312681 0 0 0
576 75 6 -0.1532 9.143842 32.456243 13.888152999999999 0 0 0
577 69 6 -0.1532 0.658335 28.539392 9.971303 0 0 0
578 76 6 -0.1532 7.827173 30.859171 1.485794 0 0 0
579 77 6 -0.1532 16.312679 28.53938499999999 6.999721999999998 0 0 0
580 75 6 -0.1532 9.143843 30.859172 15.485224999999996 0 0 0
581 68 6 -0.1532 11.568376 26.942323999999992 0.658334 0 0 0
582 22 6 -0.1532 9.971304 17.629353 11.568374 0 0 0
583 70 6 -0.1532 13.888152999999999 32.456242 9.143842 0 0 0
584 78 6 -0.1532 13.888151999999998 18.456812 7.827175 0 0 0
585 79 6 -0.1532 1.4857959999999992 24.798194 13.888149999999998 0 0 0
586 23 6 -0.1532 6.999715 33.283702 11.568375 0 0 0
587 80 6 -0.1532 11.568369 23.970737 16.312681 0 0 0
588 67 6 -0.1532 15.485221999999995 26.11485899999999 13.888149999999998 0 0 0
589 83 6 -0.1532 3.082864 26.114861 1.4857949999999993 0 0 0
590 23 6 -0.1532 5.402642999999998 33.283703 9.971305 0 0 0
591 79 6 -0.1532 3.082868 24.79819499999999 15.485220999999994 0 0 0
592 35 6 -0.1532 5.4026419999999975 17.629353 6.999714 0 0 0
593 84 6 -0.1532 1.485793 20.05388199999999 9.143843 0 0 0
594 85 6 -0.1532 9.14384 18.456816 3.082868 0 0 0
595 86 6 -0.1532 6.999714 22.373662 0.658334 0 0 0
596 77 6 -0.1532 16.312683 26.942317 5.402647999999999 0 0 0
597 80 6 -0.1532 9.9713 22.373665 16.312682 0 0 0
598 76 6 -0.1532 7.827178 32.456239 3.082868 0 0 0
599 78 6 -0.1532 15.485221999999995 20.053883999999993 7.827176 0 0 0
600 87 6 -0.1532 0.658333 23.970729 5.402640999999997 0 0 0
601 85 6 -0.1532 9.143842 20.053885 1.4857949999999993 0 0 0
602 73 6 -0.1532 16.312683 22.373664 9.9713 0 0 0
603 71 6 -0.1532 7.827177 20.053885999999995 15.485220999999994 0 0 0
604 87 6 -0.1532 0.658334 22.373659 6.999712 0 0 0
605 84 6 -0.1532 3.0828629999999997 18.456810999999995 9.143843 0 0 0
606 83 6 -0.1532 1.485794 26.11486 3.082866 0 0 0
607 86 6 -0.1532 5.402642999999998 23.970732 0.658335 0 0 0
608 74 6 -0.1532 5.402644999999998 26.94231999999999 16.312684 0 0 0
609 24 6 -0.1532 9.971304 33.283704 5.402642999999998 0 0 0
610 66 6 -0.1532 15.485218999999995 24.798196999999988 3.082869 0 0 0
611 72 6 -0.1532 3.082868 32.456238 7.827178 0 0 0
612 35 6 -0.1532 6.999711 17.629351 5.402640999999997 0 0 0
613 1 1 0.5212 29.699279999999995 16.971018 8.485509 0 0 0
614 1 1 0.5212 29.699279999999995 25.456527999999988 33.942035000000004 0 0 -1
615 1 1 0.5212 25.456527 29.699281 0 0 0 0
616 1 1 0.5212 16.971018 25.456527 12.728262 0 0 0
617 1 1 0.5212 16.971018 29.699281 8.485509 0 0 0
618 1 1 0.5212 25.456527 16.971018999999988 12.728262999999995 0 0 0
619 1 1 0.5212 21.213773 25.456527 0 0 0 0
620 1 1 0.5212 21.213772 16.971018 8.48551 0 0 0
621 1 1 0.5212 16.971017 21.213772 8.485508 0 0 0
622 1 1 0.5212 25.45652599999999 16.971018999999988 4.242755 0 0 0
623 1 1 0.5212 25.456527 21.213774 0 0 0 0
624 1 1 0.5212 16.971017 25.45652599999999 4.242756 0 0 0
625 54 2 0.142 29.518168 19.477850999999994 10.552687 0 0 0
626 94 2 0.142 29.880409 22.949682 2.067163 0 0 0
627 56 2 0.142 29.51816299999999 31.435201 6.418335 0 0 0
628 95 2 0.142 29.880406 27.963367 14.903849999999997 0 0 0
629 96 2 0.142 27.523702999999994 29.51816699999999 2.506834 0 0 0
630 82 2 0.142 19.477852 27.523702999999994 12.547148 0 0 0
631 97 2 0.142 31.874866 29.880402 10.992344 0 0 0
632 98 2 0.142 22.949683 19.038183 12.90939 0 0 0
633 99 2 0.142 19.038181999999992 29.880409 5.978664 0 0 0
634 91 2 0.142 31.435208 23.389346 12.547153 0 0 0
635 100 2 0.142 23.389347 29.51817 14.464188999999998 0 0 0
636 101 2 0.142 27.96336199999999 31.874864 12.909381999999997 0 0 0
637 82 2 0.142 19.477852999999996 29.51816499999999 10.552683 0 0 0
638 102 2 0.142 22.949683 29.880408 2.067165 0 0 0
639 93 2 0.142 31.435209 29.518172 6.418327 0 0 0
640 101 2 0.142 27.96336199999999 29.880401 14.903846999999995 0 0 0
641 96 2 0.142 29.518166 27.523704 2.506834 0 0 0
642 54 2 0.142 27.523704999999996 19.477850999999994 12.54715 0 0 0
643 97 2 0.142 29.880401 31.874864 10.992344 0 0 0
644 103 2 0.142 29.880406 19.038183999999994 5.978667 0 0 0
645 104 2 0.142 19.038183 22.949683 12.909391 0 0 0
646 55 2 0.142 23.389353 31.435201 12.547147 0 0 0
647 105 2 0.142 29.518174 23.389343 14.464191999999999 0 0 0
648 95 2 0.142 31.874867 27.963365 12.909384999999999 0 0 0
649 106 3 0.1145 27.054304 27.05430499999999 16.05325 0 0 0
650 97 3 0.1145 32.344258 32.34426 7.567738 0 0 0
651 99 3 0.1145 18.56880399999999 32.344248 9.403285999999994 0 0 0
652 103 3 0.1145 32.344251 18.568801 9.403283999999994 0 0 0
653 69 3 0.1145 33.024269 27.05430299999999 10.083284 0 0 0
654 38 3 0.1145 27.0543 33.024271 10.083282 0 0 0
655 102 3 0.1145 26.374302 32.34425 1.5977829999999993 0 0 0
656 95 3 0.1145 32.344253 24.538752 15.373234 0 0 0
657 101 3 0.1145 24.538757 32.34426 15.373241 0 0 0
658 51 3 0.1145 23.85875099999999 17.888787 10.083286 0 0 0
659 98 3 0.1145 26.374306 18.568807 15.373229 0 0 0
660 40 3 0.1145 27.0543 17.888785 6.887736 0 0 0
661 107 2 0.142 21.032643 27.963371 2.067163 0 0 0
662 55 2 0.142 21.394887 31.435203 10.552686 0 0 0
663 104 2 0.142 21.032647 22.949685 14.903853999999999 0 0 0
664 65 2 0.142 21.394891 19.477856999999997 6.418338 0 0 0
665 108 2 0.142 19.038189 21.032653999999994 10.992344 0 0 0
666 109 2 0.142 27.963369999999994 19.038181999999992 4.061627 0 0 0
667 110 2 0.142 23.389353 21.394889 2.506835 0 0 0
668 93 2 0.142 31.435214 27.523712999999997 4.423859 0 0 0
669 105 2 0.142 27.523712999999997 21.394877 14.464195 0 0 0
670 102 2 0.142 22.949689 31.874867 4.061634 0 0 0
671 103 2 0.142 31.874868 21.032649 5.978669 0 0 0
672 92 2 0.142 19.477858 23.389358 4.423875999999997 0 0 0
673 109 2 0.142 27.963373 21.032643 2.067161 0 0 0
674 91 2 0.142 31.435207 21.394883 10.552688 0 0 0
675 98 2 0.142 22.949685 21.032647 14.903851999999997 0 0 0
676 92 2 0.142 19.47786 21.394895 6.418341 0 0 0
677 108 2 0.142 21.032653 19.038189999999997 10.992345 0 0 0
678 107 2 0.142 19.038181 27.963369999999994 4.061628 0 0 0
679 110 2 0.142 21.394888 23.389352 2.506835 0 0 0
680 100 2 0.142 21.39488 27.52371 14.464193 0 0 0
681 56 2 0.142 27.523704999999996 31.435207 4.423866 0 0 0
682 94 2 0.142 31.874869 22.949687 4.06163 0 0 0
683 99 2 0.142 21.032649999999993 31.874868 5.978669 0 0 0
684 65 2 0.142 23.389352 19.477854999999998 4.423872 0 0 0
685 108 3 0.1145 18.568793 18.56879399999999 7.567739 0 0 0
686 111 3 0.1145 23.85875 23.85875099999999 16.05325 0 0 0
687 112 3 0.1145 27.054286 23.858768 0.917755 0 0 0
688 113 3 0.1145 23.85876299999999 27.054291 0.91776 0 0 0
689 109 3 0.1145 24.538745 18.568809 1.59779 0 0 0
690 107 3 0.1145 18.56880399999999 24.538749 1.597787 0 0 0
691 73 3 0.1145 17.888779 23.85876099999999 10.083274 0 0 0
692 58 3 0.1145 23.85874499999999 33.024265 6.887728 0 0 0
693 87 3 0.1145 33.02426 23.85874 6.887722999999999 0 0 0
694 94 3 0.1145 32.344246 26.374306999999998 1.597788 0 0 0
695 77 3 0.1145 17.888771999999992 27.054284 6.887753999999998 0 0 0
696 104 3 0.1145 18.56880599999999 26.374306 15.373228 0 0 0
697 54 4 -0.1504 28.715973 18.759308 10.759811 0 0 0
698 94 4 -0.1504 30.682598 23.66823 2.274294 0 0 0
699 56 4 -0.1504 28.715969 32.153746 6.211209 0 0 0
700 95 4 -0.1504 30.68259699999999 27.244821 14.696722 0 0 0
701 96 4 -0.1504 27.730828 28.715972 1.7882909999999999 0 0 0
702 82 4 -0.1504 18.759308999999988 27.730828 11.744953 0 0 0
703 97 4 -0.1504 31.667739 30.682596 10.2738 0 0 0
704 98 4 -0.1504 23.668231 19.245313 13.71158 0 0 0
705 99 4 -0.1504 19.245312 30.682598 6.697212 0 0 0
706 91 4 -0.1504 32.153749 23.18222299999999 11.744955 0 0 0
707 100 4 -0.1504 23.182224 28.715973 15.18273 0 0 0
708 101 4 -0.1504 27.244817999999988 31.66773799999999 13.711576 0 0 0
709 82 4 -0.1504 18.759308999999988 28.715971 10.759809 0 0 0
710 102 4 -0.1504 23.668231 30.682598 2.274295 0 0 0
711 93 4 -0.1504 32.153749 28.715973 6.211206 0 0 0
712 101 4 -0.1504 27.244819 30.68259499999999 14.69672 0 0 0
713 96 4 -0.1504 28.715972 27.73082899999999 1.7882909999999999 0 0 0
714 54 4 -0.1504 27.73083 18.759308 11.744954 0 0 0
715 97 4 -0.1504 30.68259499999999 31.66773799999999 10.2738 0 0 0
716 103 4 -0.1504 30.68259699999999 19.245313 6.697214 0 0 0
717 104 4 -0.1504 19.245313 23.668231 13.71158 0 0 0
718 55 4 -0.1504 23.18222699999999 32.153745 11.744953 0 0 0
719 105 4 -0.1504 28.715975 23.182222 15.182732 0 0 0
720 95 4 -0.1504 31.667739 27.24481999999999 13.711577 0 0 0
721 54 5 -0.0519 27.466006 16.984259 10.494988 0 0 0
722 55 5 -0.0519 23.44704599999999 33.928798 10.49499 0 0 0
723 56 5 -0.0519 27.466005 33.928797 6.476029999999997 0 0 0
724 95 5 -0.0519 31.932552 25.469763 14.961533 0 0 0
725 96 5 -0.0519 27.466009 27.466009 0.013239 0 0 0
726 82 5 -0.0519 16.984258 27.466007 10.494989 0 0 0
727 97 5 -0.0519 31.932556 31.932556 8.498745999999995 0 0 0
728 98 5 -0.0519 25.443293 18.980505 14.961531 0 0 0
729 99 5 -0.0519 18.980503 31.93254899999999 8.472274 0 0 0
730 102 5 -0.0519 25.443291 31.93255099999999 2.009484 0 0 0
731 103 5 -0.0519 31.932552 18.980501 8.472273 0 0 0
732 101 5 -0.0519 25.469765 31.93255699999999 14.961538 0 0 0
733 107 4 -0.1504 20.230453 27.24482399999999 2.274293 0 0 0
734 55 4 -0.1504 22.197083 32.153746 10.75981 0 0 0
735 104 4 -0.1504 20.230456 23.668231 14.696724 0 0 0
736 65 4 -0.1504 22.197083999999993 18.75931099999999 6.211211 0 0 0
737 108 4 -0.1504 19.245315 20.230459 10.273801 0 0 0
738 109 4 -0.1504 27.244823 19.245313 3.2594369999999993 0 0 0
739 110 4 -0.1504 23.18222699999999 22.197083999999993 1.788292 0 0 0
740 93 4 -0.1504 32.153751 27.730832 5.226061 0 0 0
741 105 4 -0.1504 27.730832 22.197079 15.182733 0 0 0
742 102 4 -0.1504 23.668233 31.667739999999988 3.25944 0 0 0
743 103 4 -0.1504 31.667739999999988 20.230457 6.697215 0 0 0
744 92 4 -0.1504 18.759312 23.18222899999999 5.226067999999997 0 0 0
745 109 4 -0.1504 27.24482399999999 20.230455 2.274292 0 0 0
746 91 4 -0.1504 32.153748 22.197081 10.759811 0 0 0
747 98 4 -0.1504 23.668231 20.230457 14.696723 0 0 0
748 92 4 -0.1504 18.759314 22.19708599999999 6.211212 0 0 0
749 108 4 -0.1504 20.230458 19.24531599999999 10.273801 0 0 0
750 107 4 -0.1504 19.245311 27.24482399999999 3.2594369999999993 0 0 0
751 110 4 -0.1504 22.197083 23.18222699999999 1.788292 0 0 0
752 100 4 -0.1504 22.197079 27.730830999999988 15.182732 0 0 0
753 56 4 -0.1504 27.730828 32.153748 5.226064 0 0 0
754 94 4 -0.1504 31.667739999999988 23.668233 3.2594379999999994 0 0 0
755 99 4 -0.1504 20.230457 31.667739 6.697214 0 0 0
756 65 4 -0.1504 23.182226 18.75931099999999 5.226065999999998 0 0 0
757 107 5 -0.0519 18.980502 25.469761999999996 2.009485 0 0 0
758 94 5 -0.0519 31.932548 25.443294 2.009486 0 0 0
759 104 5 -0.0519 18.980504 25.443293 14.961531 0 0 0
760 65 5 -0.0519 23.447043 16.984256 6.476026 0 0 0
761 108 5 -0.0519 18.980497 18.980497 8.498746999999995 0 0 0
762 109 5 -0.0519 25.469759999999997 18.980506 2.009487 0 0 0
763 110 5 -0.0519 23.44704599999999 23.447047 0.013239 0 0 0
764 93 5 -0.0519 33.92879 27.465996 6.4760409999999995 0 0 0
765 105 5 -0.0519 27.465998 23.447055999999993 16.957773 0 0 0
766 91 5 -0.0519 33.928793 23.447051999999992 10.494983 0 0 0
767 100 5 -0.0519 23.447053999999994 27.466001 16.957775 0 0 0
768 92 5 -0.0519 16.984254 23.44703999999999 6.476023 0 0 0
769 54 6 -0.1532 28.539392 17.629353 9.971303 0 0 0
770 94 6 -0.1532 30.859169 24.79819299999999 1.4857949999999993 0 0 0
771 56 6 -0.1532 28.53938899999999 33.283701 6.999717 0 0 0
772 95 6 -0.1532 30.85917 26.114861 15.485222999999996 0 0 0
773 96 6 -0.1532 26.942323 28.539394 0.658334 0 0 0
774 82 6 -0.1532 17.629352 26.94232199999999 11.568375 0 0 0
775 97 6 -0.1532 32.456243 30.859172 9.143842 0 0 0
776 98 6 -0.1532 24.798194 18.456815 13.888150999999999 0 0 0
777 99 6 -0.1532 18.456812 30.85917 7.827174 0 0 0
778 91 6 -0.1532 33.283701 23.970734 11.568371 0 0 0
779 100 6 -0.1532 23.970737 28.539388 16.312681 0 0 0
780 101 6 -0.1532 26.11486 32.456243 13.888152999999999 0 0 0
781 82 6 -0.1532 17.629353 28.539392 9.971303 0 0 0
782 102 6 -0.1532 24.79819099999999 30.859171 1.485794 0 0 0
783 93 6 -0.1532 33.283697 28.53938499999999 6.999721999999998 0 0 0
784 101 6 -0.1532 26.114861 30.859172 15.485224999999996 0 0 0
785 96 6 -0.1532 28.539394 26.942323999999992 0.658334 0 0 0
786 54 6 -0.1532 26.94232199999999 17.629353 11.568374 0 0 0
787 97 6 -0.1532 30.859171 32.456242 9.143842 0 0 0
788 103 6 -0.1532 30.85917 18.456812 7.827175 0 0 0
789 104 6 -0.1532 18.456814 24.798194 13.888149999999998 0 0 0
790 55 6 -0.1532 23.970733 33.283702 11.568375 0 0 0
791 105 6 -0.1532 28.53938699999999 23.970737 16.312681 0 0 0
792 95 6 -0.1532 32.45624 26.11485899999999 13.888149999999998 0 0 0
793 107 6 -0.1532 20.05388199999999 26.114861 1.4857949999999993 0 0 0
794 55 6 -0.1532 22.373661 33.283703 9.971305 0 0 0
795 104 6 -0.1532 20.053885999999995 24.79819499999999 15.485220999999994 0 0 0
796 65 6 -0.1532 22.37366 17.629353 6.999714 0 0 0
797 108 6 -0.1532 18.456810999999995 20.05388199999999 9.143843 0 0 0
798 109 6 -0.1532 26.114858 18.456816 3.082868 0 0 0
799 110 6 -0.1532 23.970732 22.373662 0.658334 0 0 0
800 93 6 -0.1532 33.283701 26.942317 5.402647999999999 0 0 0
801 105 6 -0.1532 26.94231799999999 22.373665 16.312682 0 0 0
802 102 6 -0.1532 24.798196 32.456239 3.082868 0 0 0
803 103 6 -0.1532 32.45624 20.053883999999993 7.827176 0 0 0
804 92 6 -0.1532 17.629351 23.970729 5.402640999999997 0 0 0
805 109 6 -0.1532 26.11486 20.053885 1.4857949999999993 0 0 0
806 91 6 -0.1532 33.283701 22.373664 9.9713 0 0 0
807 98 6 -0.1532 24.79819499999999 20.053885999999995 15.485220999999994 0 0 0
808 92 6 -0.1532 17.629352 22.373659 6.999712 0 0 0
809 108 6 -0.1532 20.053881 18.456810999999995 9.143843 0 0 0
810 107 6 -0.1532 18.456812 26.11486 3.082866 0 0 0
811 110 6 -0.1532 22.373661 23.970732 0.658335 0 0 0
812 100 6 -0.1532 22.373663 26.94231999999999 16.312684 0 0 0
813 56 6 -0.1532 26.94232199999999 33.283704 5.402642999999998 0 0 0
814 94 6 -0.1532 32.456237 24.798196999999988 3.082869 0 0 0
815 99 6 -0.1532 20.053885999999995 32.456238 7.827178 0 0 0
816 65 6 -0.1532 23.970729 17.629351 5.402640999999997 0 0 0
817 1 1 0.5212 12.728262 0 25.456527 0 0 0
818 1 1 0.5212 12.728262 8.48551 16.971017 0 0 0
819 1 1 0.5212 8.485509 12.728262999999995 16.971018 0 0 0
820 1 1 0.5212 0 8.485509 29.699279999999995 0 0 0
821 1 1 0.5212 0 12.728262999999995 25.456527 0 0 0
822 1 1 0.5212 8.485509 1e-06 29.699281 0 0 0
823 1 1 0.5212 4.242755 8.485509 16.971018 0 0 0
824 1 1 0.5212 4.242754 0 25.456527999999988 0 0 0
825 1 1 0.5212 33.942035000000004 4.242754 25.45652599999999 -1 0 0
826 1 1 0.5212 8.485508 1e-06 21.213773 0 0 0
827 1 1 0.5212 8.485509 4.242756 16.971018 0 0 0
828 1 1 0.5212 33.942035000000004 8.485508 21.213774 -1 0 0
829 114 2 0.142 12.54715 2.506833 27.523704999999996 0 0 0
830 115 2 0.142 12.909391 5.978664 19.038181 0 0 0
831 116 2 0.142 12.547145 14.464182999999995 23.389353 0 0 0
832 117 2 0.142 12.909388 10.992349 31.874868 0 0 0
833 20 2 0.142 10.552685 12.547149 19.477852 0 0 0
834 118 2 0.142 2.506834 10.552685 29.518166 0 0 0
835 119 2 0.142 14.903847999999995 12.909383999999998 27.96336199999999 0 0 0
836 120 2 0.142 5.978665 2.067165 29.880408 0 0 0
837 121 2 0.142 2.067164 12.909391 22.949682 0 0 0
838 122 2 0.142 14.464189999999999 6.418328 29.51817099999999 0 0 0
839 33 2 0.142 6.418329 12.547152 31.435207 0 0 0
840 123 2 0.142 10.992344 14.903845999999994 29.8804 0 0 0
841 118 2 0.142 2.506835 12.547147 27.523700999999992 0 0 0
842 124 2 0.142 5.978665 12.90939 19.038183 0 0 0
843 125 2 0.142 14.464191 12.547154 23.389345 0 0 0
844 123 2 0.142 10.992344 12.909382999999998 31.874865 0 0 0
845 20 2 0.142 12.547148 10.552686 19.477852 0 0 0
846 114 2 0.142 10.552687 2.506833 29.518168 0 0 0
847 119 2 0.142 12.909382999999998 14.903845999999994 27.96336199999999 0 0 0
848 126 2 0.142 12.909388 2.067166 22.949685 0 0 0
849 127 2 0.142 2.067165 5.978665 29.880409 0 0 0
850 128 2 0.142 6.418335 14.464182999999995 29.51816499999999 0 0 0
851 32 2 0.142 12.547155999999994 6.418325 31.43521 0 0 0
852 117 2 0.142 14.903848999999996 10.992347 29.880403 0 0 0
853 6 3 0.1145 10.083286 10.083287 33.024268 0 0 0
854 119 3 0.1145 15.37324 15.373242 24.538756 0 0 0
855 121 3 0.1145 1.597786 15.37323 26.374304 0 0 0
856 126 3 0.1145 15.373233 1.5977829999999993 26.374302 0 0 0
857 129 3 0.1145 16.053251 10.083285 27.054302 0 0 0
858 130 3 0.1145 10.083282 16.053253 27.0543 0 0 0
859 124 3 0.1145 9.403283999999994 15.373232 18.568801 0 0 0
860 117 3 0.1145 15.373235 7.567734 32.344252 0 0 0
861 123 3 0.1145 7.567739 15.373242 32.344259 0 0 0
862 131 3 0.1145 6.887733 0.917769 27.054304 0 0 0
863 120 3 0.1145 9.403287999999995 1.597789 32.344247 0 0 0
864 132 3 0.1145 10.083282 0.917767 23.858754 0 0 0
865 133 2 0.142 4.061625 10.992352999999994 19.038181 0 0 0
866 128 2 0.142 4.423869 14.464184999999997 27.523704 0 0 0
867 127 2 0.142 4.061629 5.978667 31.874872 0 0 0
868 134 2 0.142 4.423873 2.5068389999999985 23.389356 0 0 0
869 135 2 0.142 2.067171 4.061636 27.96336199999999 0 0 0
870 136 2 0.142 10.992352 2.067164 21.032645 0 0 0
871 31 2 0.142 6.418335 4.423871 19.477852999999996 0 0 0
872 125 2 0.142 14.464196 10.552694999999995 21.394877 0 0 0
873 32 2 0.142 10.552694999999995 4.423859 31.435213 0 0 0
874 124 2 0.142 5.978671 14.903848999999996 21.032651999999995 0 0 0
875 126 2 0.142 14.903849999999997 4.061631 22.949687 0 0 0
876 137 2 0.142 2.5068399999999986 6.41834 21.394894 0 0 0
877 136 2 0.142 10.992354999999995 4.061625 19.038179 0 0 0
878 122 2 0.142 14.464188999999998 4.423865 27.523706 0 0 0
879 120 2 0.142 5.978667 4.061629 31.87487 0 0 0
880 137 2 0.142 2.506842 4.423876999999997 23.389359 0 0 0
881 135 2 0.142 4.061635 2.067172 27.963363 0 0 0
882 133 2 0.142 2.067163 10.992352 21.032645999999993 0 0 0
883 31 2 0.142 4.42387 6.418334 19.477852999999996 0 0 0
884 33 2 0.142 4.423862 10.552691999999995 31.435211 0 0 0
885 116 2 0.142 10.552687 14.464188999999998 21.394884 0 0 0
886 115 2 0.142 14.903850999999996 5.978669 21.03264799999999 0 0 0
887 121 2 0.142 4.061632 14.903849999999997 22.949687 0 0 0
888 134 2 0.142 6.418334 2.506837 21.39489 0 0 0
889 135 3 0.1145 1.5977749999999993 1.5977759999999996 24.538757 0 0 0
890 29 3 0.1145 6.887732 6.887733 33.024268 0 0 0
891 19 3 0.1145 10.083268 6.887749999999997 17.888773 0 0 0
892 12 3 0.1145 6.887745 10.083273 17.888777999999995 0 0 0
893 136 3 0.1145 7.567727 1.597791 18.56880799999999 0 0 0
894 133 3 0.1145 1.597786 7.567731 18.568805 0 0 0
895 138 3 0.1145 0.917761 6.887743 27.054292 0 0 0
896 139 3 0.1145 6.887727 16.053247 23.858746 0 0 0
897 140 3 0.1145 16.053242 6.887721999999999 23.858740999999988 0 0 0
898 115 3 0.1145 15.373228 9.403288999999996 18.56880599999999 0 0 0
899 141 3 0.1145 0.917754 10.083265999999998 23.858772 0 0 0
900 127 3 0.1145 1.597788 9.403287999999995 32.344246 0 0 0
901 114 4 -0.1504 11.744955 1.7882899999999993 27.73082899999999 0 0 0
902 115 4 -0.1504 13.71158 6.697212 19.245312 0 0 0
903 116 4 -0.1504 11.744950999999999 15.182728 23.18222699999999 0 0 0
904 117 4 -0.1504 13.711579 10.273803 31.667739999999988 0 0 0
905 20 4 -0.1504 10.75981 11.744954 18.759308999999988 0 0 0
906 118 4 -0.1504 1.7882909999999999 10.75981 28.715971 0 0 0
907 119 4 -0.1504 14.696721 13.711578 27.244817999999988 0 0 0
908 120 4 -0.1504 6.697213 2.274295 30.682598 0 0 0
909 121 4 -0.1504 2.274294 13.71158 23.66823 0 0 0
910 122 4 -0.1504 15.182731 6.211205 28.715973 0 0 0
911 33 4 -0.1504 6.211206 11.744955 32.153748 0 0 0
912 123 4 -0.1504 10.2738 14.69672 30.682594 0 0 0
913 118 4 -0.1504 1.7882909999999999 11.744953 27.730827 0 0 0
914 124 4 -0.1504 6.697213 13.71158 19.245313 0 0 0
915 125 4 -0.1504 15.182731 11.744955 23.182224 0 0 0
916 123 4 -0.1504 10.273801 13.711577 31.66773799999999 0 0 0
917 20 4 -0.1504 11.744954 10.759811 18.759308999999988 0 0 0
918 114 4 -0.1504 10.759812 1.7882899999999993 28.715972 0 0 0
919 119 4 -0.1504 13.711577 14.69672 27.244817999999988 0 0 0
920 126 4 -0.1504 13.711579 2.274295 23.66823199999999 0 0 0
921 127 4 -0.1504 2.274295 6.697213 30.682598 0 0 0
922 128 4 -0.1504 6.211209 15.182727 28.715971 0 0 0
923 32 4 -0.1504 11.744957 6.211204 32.15375 0 0 0
924 117 4 -0.1504 14.696721 10.273802 30.68259499999999 0 0 0
925 114 5 -0.0519 10.494988 0.013240999999999994 27.466006 0 0 0
926 128 5 -0.0519 6.476028 16.95778 27.466008 0 0 0
927 116 5 -0.0519 10.494987 16.957779 23.44704799999999 0 0 0
928 117 5 -0.0519 14.961534 8.498744999999994 31.93255099999999 0 0 0
929 20 5 -0.0519 10.494991 10.494991 16.984257 0 0 0
930 118 5 -0.0519 0.01324 10.494989 27.466007 0 0 0
931 119 5 -0.0519 14.961538 14.961538 25.469763999999998 0 0 0
932 120 5 -0.0519 8.472275 2.009487 31.93254899999999 0 0 0
933 121 5 -0.0519 2.009485 14.961531 25.443292 0 0 0
934 124 5 -0.0519 8.472273 14.961533 18.980502 0 0 0
935 126 5 -0.0519 14.961534 2.009483 25.443291 0 0 0
936 123 5 -0.0519 8.498746999999995 14.961539 31.932556 0 0 0
937 133 4 -0.1504 3.2594349999999985 10.273806 19.245311 0 0 0
938 128 4 -0.1504 5.226065 15.182728 27.730828 0 0 0
939 127 4 -0.1504 3.2594379999999994 6.697213 31.66774199999999 0 0 0
940 134 4 -0.1504 5.226065999999998 1.788293 23.18222899999999 0 0 0
941 135 4 -0.1504 2.274296999999999 3.259441 27.244819 0 0 0
942 136 4 -0.1504 10.273805 2.274295 20.230455 0 0 0
943 31 4 -0.1504 6.211209 5.226065999999998 18.75931 0 0 0
944 125 4 -0.1504 15.182733 10.759814 22.197079 0 0 0
945 32 4 -0.1504 10.759814 5.226061 32.153751 0 0 0
946 124 4 -0.1504 6.697215 14.696722 20.230458 0 0 0
947 126 4 -0.1504 14.696722 3.259439 23.668233 0 0 0
948 137 4 -0.1504 1.788294 6.211211 22.19708599999999 0 0 0
949 136 4 -0.1504 10.273806 3.2594369999999993 19.24531 0 0 0
950 122 4 -0.1504 15.18273 5.226063 27.73082899999999 0 0 0
951 120 4 -0.1504 6.697213 3.259439 31.667741 0 0 0
952 137 4 -0.1504 1.788296 5.226067999999997 23.18223 0 0 0
953 135 4 -0.1504 3.25944 2.274297999999999 27.244819 0 0 0
954 133 4 -0.1504 2.274293 10.273806 20.230455 0 0 0
955 31 4 -0.1504 5.226065 6.211209 18.75931 0 0 0
956 33 4 -0.1504 5.226061 10.759813 32.15375 0 0 0
957 116 4 -0.1504 10.75981 15.18273 22.19708199999999 0 0 0
958 115 4 -0.1504 14.696722 6.697215 20.230456 0 0 0
959 121 4 -0.1504 3.259439 14.696721 23.66823199999999 0 0 0
960 134 4 -0.1504 6.211208 1.788293 22.197083999999993 0 0 0
961 133 5 -0.0519 2.009484 8.498743999999995 18.980503 0 0 0
962 115 5 -0.0519 14.96153 8.472276 18.980504 0 0 0
963 127 5 -0.0519 2.009486 8.472275 31.93254899999999 0 0 0
964 134 5 -0.0519 6.476025 0.013237999999999996 23.44704399999999 0 0 0
965 135 5 -0.0519 2.009479 2.009479 25.469765 0 0 0
966 136 5 -0.0519 8.498742 2.009488 18.980505 0 0 0
967 31 5 -0.0519 6.476028 6.476029 16.984257 0 0 0
968 125 5 -0.0519 16.957772 10.494977999999996 23.447059 0 0 0
969 32 5 -0.0519 10.494979999999998 6.476037999999998 33.928791 0 0 0
970 122 5 -0.0519 16.957775 6.476033999999998 27.466001 0 0 0
971 33 5 -0.0519 6.476035999999997 10.494983 33.928793 0 0 0
972 137 5 -0.0519 0.013235999999999994 6.476022 23.447041 0 0 0
973 114 6 -0.1532 11.568374 0.658335 26.942321 0 0 0
974 115 6 -0.1532 13.888150999999999 7.827175 18.456812999999997 0 0 0
975 116 6 -0.1532 11.568371 16.312683 23.970735 0 0 0
976 117 6 -0.1532 13.888151999999998 9.143843 32.456241 0 0 0
977 20 6 -0.1532 9.971305 11.568376 17.629352 0 0 0
978 118 6 -0.1532 0.658334 9.971304 28.53939299999999 0 0 0
979 119 6 -0.1532 15.485224999999996 13.888154 26.11486 0 0 0
980 120 6 -0.1532 7.827176 1.4857969999999996 30.859169 0 0 0
981 121 6 -0.1532 1.485794 13.888151999999998 24.798192 0 0 0
982 122 6 -0.1532 16.312683 6.999716 28.53938899999999 0 0 0
983 33 6 -0.1532 6.999718999999997 11.56837 33.283699 0 0 0
984 123 6 -0.1532 9.143842 15.485224999999996 30.859171 0 0 0
985 118 6 -0.1532 0.658335 11.568374 26.942321 0 0 0
986 124 6 -0.1532 7.827173 13.888152999999999 18.456812 0 0 0
987 125 6 -0.1532 16.312679 11.568367 23.97074 0 0 0
988 123 6 -0.1532 9.143843 13.888154 32.456243 0 0 0
989 20 6 -0.1532 11.568376 9.971306 17.629352 0 0 0
990 114 6 -0.1532 9.971304 0.658335 28.539392 0 0 0
991 119 6 -0.1532 13.888152999999999 15.485223999999995 26.11486 0 0 0
992 126 6 -0.1532 13.888151999999998 1.485794 24.79819299999999 0 0 0
993 127 6 -0.1532 1.4857959999999992 7.827176 30.859168 0 0 0
994 128 6 -0.1532 6.999715 16.312684 28.53939299999999 0 0 0
995 32 6 -0.1532 11.568369 6.999718999999997 33.283699 0 0 0
996 117 6 -0.1532 15.485221999999995 9.143841 30.859168 0 0 0
997 133 6 -0.1532 3.082864 9.143843 18.456812999999997 0 0 0
998 128 6 -0.1532 5.402642999999998 16.312685 26.942323 0 0 0
999 127 6 -0.1532 3.082868 7.827177 32.456239 0 0 0
1000 134 6 -0.1532 5.4026419999999975 0.658335 23.970732 0 0 0
1001 135 6 -0.1532 1.485793 3.082864 26.114861 0 0 0
1002 136 6 -0.1532 9.14384 1.485798 20.053885999999995 0 0 0
1003 31 6 -0.1532 6.999714 5.402643999999997 17.629352 0 0 0
1004 125 6 -0.1532 16.312683 9.971299 22.373666 0 0 0
1005 32 6 -0.1532 9.9713 5.402646999999998 33.2837 0 0 0
1006 124 6 -0.1532 7.827178 15.485220999999994 20.053885999999995 0 0 0
1007 126 6 -0.1532 15.485221999999995 3.082866 24.798194 0 0 0
1008 137 6 -0.1532 0.658333 6.999711 22.373659 0 0 0
1009 136 6 -0.1532 9.143842 3.082867 18.456812999999997 0 0 0
1010 122 6 -0.1532 16.312683 5.402645999999998 26.94231799999999 0 0 0
1011 120 6 -0.1532 7.827177 3.082868 32.456239 0 0 0
1012 137 6 -0.1532 0.658334 5.402640999999997 23.97073 0 0 0
1013 135 6 -0.1532 3.0828629999999997 1.485793 26.114861 0 0 0
1014 133 6 -0.1532 1.485794 9.143842 20.053883999999993 0 0 0
1015 31 6 -0.1532 5.402642999999998 6.999714 17.629353 0 0 0
1016 33 6 -0.1532 5.402644999999998 9.971302 33.283702 0 0 0
1017 116 6 -0.1532 9.971304 16.312686 22.373661 0 0 0
1018 115 6 -0.1532 15.485218999999995 7.827179 20.053887 0 0 0
1019 121 6 -0.1532 3.082868 15.485219999999995 24.798196 0 0 0
1020 134 6 -0.1532 6.999711 0.658333 22.373659 0 0 0
1021 1 1 0.5212 29.699279999999995 0 25.456527 0 0 0
1022 1 1 0.5212 29.699279999999995 8.48551 16.971017 0 0 0
1023 1 1 0.5212 25.456527 12.728262999999995 16.971018 0 0 0
1024 1 1 0.5212 16.971018 8.485509 29.699279999999995 0 0 0
1025 1 1 0.5212 16.971018 12.728262999999995 25.456527 0 0 0
1026 1 1 0.5212 25.456527 1e-06 29.699281 0 0 0
1027 1 1 0.5212 21.213773 8.485509 16.971018 0 0 0
1028 1 1 0.5212 21.213772 0 25.456527999999988 0 0 0
1029 1 1 0.5212 16.971017 4.242754 25.45652599999999 0 0 0
1030 1 1 0.5212 25.45652599999999 1e-06 21.213773 0 0 0
1031 1 1 0.5212 25.456527 4.242756 16.971018 0 0 0
1032 1 1 0.5212 16.971017 8.485508 21.213774 0 0 0
1033 142 2 0.142 29.518168 2.506833 27.523704999999996 0 0 0
1034 143 2 0.142 29.880409 5.978664 19.038181 0 0 0
1035 144 2 0.142 29.51816299999999 14.464182999999995 23.389353 0 0 0
1036 145 2 0.142 29.880406 10.992349 31.874868 0 0 0
1037 53 2 0.142 27.523702999999994 12.547149 19.477852 0 0 0
1038 129 2 0.142 19.477852 10.552685 29.518166 0 0 0
1039 146 2 0.142 31.874866 12.909383999999998 27.96336199999999 0 0 0
1040 147 2 0.142 22.949683 2.067165 29.880408 0 0 0
1041 148 2 0.142 19.038181999999992 12.909391 22.949682 0 0 0
1042 138 2 0.142 31.435208 6.418328 29.51817099999999 0 0 0
1043 64 2 0.142 23.389347 12.547152 31.435207 0 0 0
1044 149 2 0.142 27.96336199999999 14.903845999999994 29.8804 0 0 0
1045 129 2 0.142 19.477852999999996 12.547147 27.523700999999992 0 0 0
1046 150 2 0.142 22.949683 12.90939 19.038183 0 0 0
1047 141 2 0.142 31.435209 12.547154 23.389345 0 0 0
1048 149 2 0.142 27.96336199999999 12.909382999999998 31.874865 0 0 0
1049 53 2 0.142 29.518166 10.552686 19.477852 0 0 0
1050 142 2 0.142 27.523704999999996 2.506833 29.518168 0 0 0
1051 146 2 0.142 29.880401 14.903845999999994 27.96336199999999 0 0 0
1052 151 2 0.142 29.880406 2.067166 22.949685 0 0 0
1053 152 2 0.142 19.038183 5.978665 29.880409 0 0 0
1054 153 2 0.142 23.389353 14.464182999999995 29.51816499999999 0 0 0
1055 63 2 0.142 29.518174 6.418325 31.43521 0 0 0
1056 145 2 0.142 31.874867 10.992347 29.880403 0 0 0
1057 42 3 0.1145 27.054304 10.083287 33.024268 0 0 0
1058 146 3 0.1145 32.344258 15.373242 24.538756 0 0 0
1059 148 3 0.1145 18.56880399999999 15.37323 26.374304 0 0 0
1060 151 3 0.1145 32.344251 1.5977829999999993 26.374302 0 0 0
1061 118 3 0.1145 33.024269 10.083285 27.054302 0 0 0
1062 154 3 0.1145 27.0543 16.053253 27.0543 0 0 0
1063 150 3 0.1145 26.374302 15.373232 18.568801 0 0 0
1064 145 3 0.1145 32.344253 7.567734 32.344252 0 0 0
1065 149 3 0.1145 24.538757 15.373242 32.344259 0 0 0
1066 155 3 0.1145 23.85875099999999 0.917769 27.054304 0 0 0
1067 147 3 0.1145 26.374306 1.597789 32.344247 0 0 0
1068 156 3 0.1145 27.0543 0.917767 23.858754 0 0 0
1069 157 2 0.142 21.032643 10.992352999999994 19.038181 0 0 0
1070 153 2 0.142 21.394887 14.464184999999997 27.523704 0 0 0
1071 152 2 0.142 21.032647 5.978667 31.874872 0 0 0
1072 158 2 0.142 21.394891 2.5068389999999985 23.389356 0 0 0
1073 159 2 0.142 19.038189 4.061636 27.96336199999999 0 0 0
1074 160 2 0.142 27.963369999999994 2.067164 21.032645 0 0 0
1075 62 2 0.142 23.389353 4.423871 19.477852999999996 0 0 0
1076 141 2 0.142 31.435214 10.552694999999995 21.394877 0 0 0
1077 63 2 0.142 27.523712999999997 4.423859 31.435213 0 0 0
1078 150 2 0.142 22.949689 14.903848999999996 21.032651999999995 0 0 0
1079 151 2 0.142 31.874868 4.061631 22.949687 0 0 0
1080 140 2 0.142 19.477858 6.41834 21.394894 0 0 0
1081 160 2 0.142 27.963373 4.061625 19.038179 0 0 0
1082 138 2 0.142 31.435207 4.423865 27.523706 0 0 0
1083 147 2 0.142 22.949685 4.061629 31.87487 0 0 0
1084 140 2 0.142 19.47786 4.423876999999997 23.389359 0 0 0
1085 159 2 0.142 21.032653 2.067172 27.963363 0 0 0
1086 157 2 0.142 19.038181 10.992352 21.032645999999993 0 0 0
1087 62 2 0.142 21.394888 6.418334 19.477852999999996 0 0 0
1088 64 2 0.142 21.39488 10.552691999999995 31.435211 0 0 0
1089 144 2 0.142 27.523704999999996 14.464188999999998 21.394884 0 0 0
1090 143 2 0.142 31.874869 5.978669 21.03264799999999 0 0 0
1091 148 2 0.142 21.032649999999993 14.903849999999997 22.949687 0 0 0
1092 158 2 0.142 23.389352 2.506837 21.39489 0 0 0
1093 159 3 0.1145 18.568793 1.5977759999999996 24.538757 0 0 0
1094 61 3 0.1145 23.85875 6.887733 33.024268 0 0 0
1095 52 3 0.1145 27.054286 6.887749999999997 17.888773 0 0 0
1096 46 3 0.1145 23.85876299999999 10.083273 17.888777999999995 0 0 0
1097 160 3 0.1145 24.538745 1.597791 18.56880799999999 0 0 0
1098 157 3 0.1145 18.56880399999999 7.567731 18.568805 0 0 0
1099 122 3 0.1145 17.888779 6.887743 27.054292 0 0 0
1100 161 3 0.1145 23.85874499999999 16.053247 23.858746 0 0 0
1101 137 3 0.1145 33.02426 6.887721999999999 23.858740999999988 0 0 0
1102 143 3 0.1145 32.344246 9.403288999999996 18.56880599999999 0 0 0
1103 125 3 0.1145 17.888771999999992 10.083265999999998 23.858772 0 0 0
1104 152 3 0.1145 18.56880599999999 9.403287999999995 32.344246 0 0 0
1105 142 4 -0.1504 28.715973 1.7882899999999993 27.73082899999999 0 0 0
1106 143 4 -0.1504 30.682598 6.697212 19.245312 0 0 0
1107 144 4 -0.1504 28.715969 15.182728 23.18222699999999 0 0 0
1108 145 4 -0.1504 30.68259699999999 10.273803 31.667739999999988 0 0 0
1109 53 4 -0.1504 27.730828 11.744954 18.759308999999988 0 0 0
1110 129 4 -0.1504 18.759308999999988 10.75981 28.715971 0 0 0
1111 146 4 -0.1504 31.667739 13.711578 27.244817999999988 0 0 0
1112 147 4 -0.1504 23.668231 2.274295 30.682598 0 0 0
1113 148 4 -0.1504 19.245312 13.71158 23.66823 0 0 0
1114 138 4 -0.1504 32.153749 6.211205 28.715973 0 0 0
1115 64 4 -0.1504 23.182224 11.744955 32.153748 0 0 0
1116 149 4 -0.1504 27.244817999999988 14.69672 30.682594 0 0 0
1117 129 4 -0.1504 18.759308999999988 11.744953 27.730827 0 0 0
1118 150 4 -0.1504 23.668231 13.71158 19.245313 0 0 0
1119 141 4 -0.1504 32.153749 11.744955 23.182224 0 0 0
1120 149 4 -0.1504 27.244819 13.711577 31.66773799999999 0 0 0
1121 53 4 -0.1504 28.715972 10.759811 18.759308999999988 0 0 0
1122 142 4 -0.1504 27.73083 1.7882899999999993 28.715972 0 0 0
1123 146 4 -0.1504 30.68259499999999 14.69672 27.244817999999988 0 0 0
1124 151 4 -0.1504 30.68259699999999 2.274295 23.66823199999999 0 0 0
1125 152 4 -0.1504 19.245313 6.697213 30.682598 0 0 0
1126 153 4 -0.1504 23.18222699999999 15.182727 28.715971 0 0 0
1127 63 4 -0.1504 28.715975 6.211204 32.15375 0 0 0
1128 145 4 -0.1504 31.667739 10.273802 30.68259499999999 0 0 0
1129 142 5 -0.0519 27.466006 0.013240999999999994 27.466006 0 0 0
1130 153 5 -0.0519 23.44704599999999 16.95778 27.466008 0 0 0
1131 144 5 -0.0519 27.466005 16.957779 23.44704799999999 0 0 0
1132 145 5 -0.0519 31.932552 8.498744999999994 31.93255099999999 0 0 0
1133 53 5 -0.0519 27.466009 10.494991 16.984257 0 0 0
1134 129 5 -0.0519 16.984258 10.494989 27.466007 0 0 0
1135 146 5 -0.0519 31.932556 14.961538 25.469763999999998 0 0 0
1136 147 5 -0.0519 25.443293 2.009487 31.93254899999999 0 0 0
1137 148 5 -0.0519 18.980503 14.961531 25.443292 0 0 0
1138 150 5 -0.0519 25.443291 14.961533 18.980502 0 0 0
1139 151 5 -0.0519 31.932552 2.009483 25.443291 0 0 0
1140 149 5 -0.0519 25.469765 14.961539 31.932556 0 0 0
1141 157 4 -0.1504 20.230453 10.273806 19.245311 0 0 0
1142 153 4 -0.1504 22.197083 15.182728 27.730828 0 0 0
1143 152 4 -0.1504 20.230456 6.697213 31.66774199999999 0 0 0
1144 158 4 -0.1504 22.197083999999993 1.788293 23.18222899999999 0 0 0
1145 159 4 -0.1504 19.245315 3.259441 27.244819 0 0 0
1146 160 4 -0.1504 27.244823 2.274295 20.230455 0 0 0
1147 62 4 -0.1504 23.18222699999999 5.226065999999998 18.75931 0 0 0
1148 141 4 -0.1504 32.153751 10.759814 22.197079 0 0 0
1149 63 4 -0.1504 27.730832 5.226061 32.153751 0 0 0
1150 150 4 -0.1504 23.668233 14.696722 20.230458 0 0 0
1151 151 4 -0.1504 31.667739999999988 3.259439 23.668233 0 0 0
1152 140 4 -0.1504 18.759312 6.211211 22.19708599999999 0 0 0
1153 160 4 -0.1504 27.24482399999999 3.2594369999999993 19.24531 0 0 0
1154 138 4 -0.1504 32.153748 5.226063 27.73082899999999 0 0 0
1155 147 4 -0.1504 23.668231 3.259439 31.667741 0 0 0
1156 140 4 -0.1504 18.759314 5.226067999999997 23.18223 0 0 0
1157 159 4 -0.1504 20.230458 2.274297999999999 27.244819 0 0 0
1158 157 4 -0.1504 19.245311 10.273806 20.230455 0 0 0
1159 62 4 -0.1504 22.197083 6.211209 18.75931 0 0 0
1160 64 4 -0.1504 22.197079 10.759813 32.15375 0 0 0
1161 144 4 -0.1504 27.730828 15.18273 22.19708199999999 0 0 0
1162 143 4 -0.1504 31.667739999999988 6.697215 20.230456 0 0 0
1163 148 4 -0.1504 20.230457 14.696721 23.66823199999999 0 0 0
1164 158 4 -0.1504 23.182226 1.788293 22.197083999999993 0 0 0
1165 157 5 -0.0519 18.980502 8.498743999999995 18.980503 0 0 0
1166 143 5 -0.0519 31.932548 8.472276 18.980504 0 0 0
1167 152 5 -0.0519 18.980504 8.472275 31.93254899999999 0 0 0
1168 158 5 -0.0519 23.447043 0.013237999999999996 23.44704399999999 0 0 0
1169 159 5 -0.0519 18.980497 2.009479 25.469765 0 0 0
1170 160 5 -0.0519 25.469759999999997 2.009488 18.980505 0 0 0
1171 62 5 -0.0519 23.44704599999999 6.476029 16.984257 0 0 0
1172 141 5 -0.0519 33.92879 10.494977999999996 23.447059 0 0 0
1173 63 5 -0.0519 27.465998 6.476037999999998 33.928791 0 0 0
1174 138 5 -0.0519 33.928793 6.476033999999998 27.466001 0 0 0
1175 64 5 -0.0519 23.447053999999994 10.494983 33.928793 0 0 0
1176 140 5 -0.0519 16.984254 6.476022 23.447041 0 0 0
1177 142 6 -0.1532 28.539392 0.658335 26.942321 0 0 0
1178 143 6 -0.1532 30.859169 7.827175 18.456812999999997 0 0 0
1179 144 6 -0.1532 28.53938899999999 16.312683 23.970735 0 0 0
1180 145 6 -0.1532 30.85917 9.143843 32.456241 0 0 0
1181 53 6 -0.1532 26.942323 11.568376 17.629352 0 0 0
1182 129 6 -0.1532 17.629352 9.971304 28.53939299999999 0 0 0
1183 146 6 -0.1532 32.456243 13.888154 26.11486 0 0 0
1184 147 6 -0.1532 24.798194 1.4857969999999996 30.859169 0 0 0
1185 148 6 -0.1532 18.456812 13.888151999999998 24.798192 0 0 0
1186 138 6 -0.1532 33.283701 6.999716 28.53938899999999 0 0 0
1187 64 6 -0.1532 23.970737 11.56837 33.283699 0 0 0
1188 149 6 -0.1532 26.11486 15.485224999999996 30.859171 0 0 0
1189 129 6 -0.1532 17.629353 11.568374 26.942321 0 0 0
1190 150 6 -0.1532 24.79819099999999 13.888152999999999 18.456812 0 0 0
1191 141 6 -0.1532 33.283697 11.568367 23.97074 0 0 0
1192 149 6 -0.1532 26.114861 13.888154 32.456243 0 0 0
1193 53 6 -0.1532 28.539394 9.971306 17.629352 0 0 0
1194 142 6 -0.1532 26.94232199999999 0.658335 28.539392 0 0 0
1195 146 6 -0.1532 30.859171 15.485223999999995 26.11486 0 0 0
1196 151 6 -0.1532 30.85917 1.485794 24.79819299999999 0 0 0
1197 152 6 -0.1532 18.456814 7.827176 30.859168 0 0 0
1198 153 6 -0.1532 23.970733 16.312684 28.53939299999999 0 0 0
1199 63 6 -0.1532 28.53938699999999 6.999718999999997 33.283699 0 0 0
1200 145 6 -0.1532 32.45624 9.143841 30.859168 0 0 0
1201 157 6 -0.1532 20.05388199999999 9.143843 18.456812999999997 0 0 0
1202 153 6 -0.1532 22.373661 16.312685 26.942323 0 0 0
1203 152 6 -0.1532 20.053885999999995 7.827177 32.456239 0 0 0
1204 158 6 -0.1532 22.37366 0.658335 23.970732 0 0 0
1205 159 6 -0.1532 18.456810999999995 3.082864 26.114861 0 0 0
1206 160 6 -0.1532 26.114858 1.485798 20.053885999999995 0 0 0
1207 62 6 -0.1532 23.970732 5.402643999999997 17.629352 0 0 0
1208 141 6 -0.1532 33.283701 9.971299 22.373666 0 0 0
1209 63 6 -0.1532 26.94231799999999 5.402646999999998 33.2837 0 0 0
1210 150 6 -0.1532 24.798196 15.485220999999994 20.053885999999995 0 0 0
1211 151 6 -0.1532 32.45624 3.082866 24.798194 0 0 0
1212 140 6 -0.1532 17.629351 6.999711 22.373659 0 0 0
1213 160 6 -0.1532 26.11486 3.082867 18.456812999999997 0 0 0
1214 138 6 -0.1532 33.283701 5.402645999999998 26.94231799999999 0 0 0
1215 147 6 -0.1532 24.79819499999999 3.082868 32.456239 0 0 0
1216 140 6 -0.1532 17.629352 5.402640999999997 23.97073 0 0 0
1217 159 6 -0.1532 20.053881 1.485793 26.114861 0 0 0
1218 157 6 -0.1532 18.456812 9.143842 20.053883999999993 0 0 0
1219 62 6 -0.1532 22.373661 6.999714 17.629353 0 0 0
1220 64 6 -0.1532 22.373663 9.971302 33.283702 0 0 0
1221 144 6 -0.1532 26.94232199999999 16.312686 22.373661 0 0 0
1222 143 6 -0.1532 32.456237 7.827179 20.053887 0 0 0
1223 148 6 -0.1532 20.053885999999995 15.485219999999995 24.798196 0 0 0
1224 158 6 -0.1532 23.970729 0.658333 22.373659 0 0 0
1225 1 1 0.5212 12.728262 16.971018 25.456527 0 0 0
1226 1 1 0.5212 12.728262 25.456527999999988 16.971017 0 0 0
1227 1 1 0.5212 8.485509 29.699281 16.971018 0 0 0
1228 1 1 0.5212 0 25.456527 29.699279999999995 0 0 0
1229 1 1 0.5212 0 29.699281 25.456527 0 0 0
1230 1 1 0.5212 8.485509 16.971018999999988 29.699281 0 0 0
1231 1 1 0.5212 4.242755 25.456527 16.971018 0 0 0
1232 1 1 0.5212 4.242754 16.971018 25.456527999999988 0 0 0
1233 1 1 0.5212 33.942035000000004 21.213772 25.45652599999999 -1 0 0
1234 1 1 0.5212 8.485508 16.971018999999988 21.213773 0 0 0
1235 1 1 0.5212 8.485509 21.213774 16.971018 0 0 0
1236 1 1 0.5212 33.942035000000004 25.45652599999999 21.213774 -1 0 0
1237 130 2 0.142 12.54715 19.477850999999994 27.523704999999996 0 0 0
1238 162 2 0.142 12.909391 22.949682 19.038181 0 0 0
1239 132 2 0.142 12.547145 31.435201 23.389353 0 0 0
1240 163 2 0.142 12.909388 27.963367 31.874868 0 0 0
1241 81 2 0.142 10.552685 29.51816699999999 19.477852 0 0 0
1242 164 2 0.142 2.506834 27.523702999999994 29.518166 0 0 0
1243 165 2 0.142 14.903847999999995 29.880402 27.96336199999999 0 0 0
1244 166 2 0.142 5.978665 19.038183 29.880408 0 0 0
1245 167 2 0.142 2.067164 29.880409 22.949682 0 0 0
1246 168 2 0.142 14.464189999999999 23.389346 29.51817099999999 0 0 0
1247 90 2 0.142 6.418329 29.51817 31.435207 0 0 0
1248 169 2 0.142 10.992344 31.874864 29.8804 0 0 0
1249 164 2 0.142 2.506835 29.51816499999999 27.523700999999992 0 0 0
1250 170 2 0.142 5.978665 29.880408 19.038183 0 0 0
1251 171 2 0.142 14.464191 29.518172 23.389345 0 0 0
1252 169 2 0.142 10.992344 29.880401 31.874865 0 0 0
1253 81 2 0.142 12.547148 27.523704 19.477852 0 0 0
1254 130 2 0.142 10.552687 19.477850999999994 29.518168 0 0 0
1255 165 2 0.142 12.909382999999998 31.874864 27.96336199999999 0 0 0
1256 172 2 0.142 12.909388 19.038183999999994 22.949685 0 0 0
1257 173 2 0.142 2.067165 22.949683 29.880409 0 0 0
1258 131 2 0.142 6.418335 31.435201 29.51816499999999 0 0 0
1259 89 2 0.142 12.547155999999994 23.389343 31.43521 0 0 0
1260 163 2 0.142 14.903848999999996 27.963365 29.880403 0 0 0
1261 68 3 0.1145 10.083286 27.05430499999999 33.024268 0 0 0
1262 165 3 0.1145 15.37324 32.34426 24.538756 0 0 0
1263 167 3 0.1145 1.597786 32.344248 26.374304 0 0 0
1264 172 3 0.1145 15.373233 18.568801 26.374302 0 0 0
1265 174 3 0.1145 16.053251 27.05430299999999 27.054302 0 0 0
1266 114 3 0.1145 10.083282 33.024271 27.0543 0 0 0
1267 170 3 0.1145 9.403283999999994 32.34425 18.568801 0 0 0
1268 163 3 0.1145 15.373235 24.538752 32.344252 0 0 0
1269 169 3 0.1145 7.567739 32.34426 32.344259 0 0 0
1270 128 3 0.1145 6.887733 17.888787 27.054304 0 0 0
1271 166 3 0.1145 9.403287999999995 18.568807 32.344247 0 0 0
1272 116 3 0.1145 10.083282 17.888785 23.858754 0 0 0
1273 175 2 0.142 4.061625 27.963371 19.038181 0 0 0
1274 131 2 0.142 4.423869 31.435203 27.523704 0 0 0
1275 173 2 0.142 4.061629 22.949685 31.874872 0 0 0
1276 139 2 0.142 4.423873 19.477856999999997 23.389356 0 0 0
1277 176 2 0.142 2.067171 21.032653999999994 27.96336199999999 0 0 0
1278 177 2 0.142 10.992352 19.038181999999992 21.032645 0 0 0
1279 88 2 0.142 6.418335 21.394889 19.477852999999996 0 0 0
1280 171 2 0.142 14.464196 27.523712999999997 21.394877 0 0 0
1281 89 2 0.142 10.552694999999995 21.394877 31.435213 0 0 0
1282 170 2 0.142 5.978671 31.874867 21.032651999999995 0 0 0
1283 172 2 0.142 14.903849999999997 21.032649 22.949687 0 0 0
1284 178 2 0.142 2.5068399999999986 23.389358 21.394894 0 0 0
1285 177 2 0.142 10.992354999999995 21.032643 19.038179 0 0 0
1286 168 2 0.142 14.464188999999998 21.394883 27.523706 0 0 0
1287 166 2 0.142 5.978667 21.032647 31.87487 0 0 0
1288 178 2 0.142 2.506842 21.394895 23.389359 0 0 0
1289 176 2 0.142 4.061635 19.038189999999997 27.963363 0 0 0
1290 175 2 0.142 2.067163 27.963369999999994 21.032645999999993 0 0 0
1291 88 2 0.142 4.42387 23.389352 19.477852999999996 0 0 0
1292 90 2 0.142 4.423862 27.52371 31.435211 0 0 0
1293 132 2 0.142 10.552687 31.435207 21.394884 0 0 0
1294 162 2 0.142 14.903850999999996 22.949687 21.03264799999999 0 0 0
1295 167 2 0.142 4.061632 31.874868 22.949687 0 0 0
1296 139 2 0.142 6.418334 19.477854999999998 21.39489 0 0 0
1297 176 3 0.1145 1.5977749999999993 18.56879399999999 24.538757 0 0 0
1298 86 3 0.1145 6.887732 23.85875099999999 33.024268 0 0 0
1299 80 3 0.1145 10.083268 23.858768 17.888773 0 0 0
1300 74 3 0.1145 6.887745 27.054291 17.888777999999995 0 0 0
1301 177 3 0.1145 7.567727 18.568809 18.56880799999999 0 0 0
1302 175 3 0.1145 1.597786 24.538749 18.568805 0 0 0
1303 179 3 0.1145 0.917761 23.85876099999999 27.054292 0 0 0
1304 134 3 0.1145 6.887727 33.024265 23.858746 0 0 0
1305 180 3 0.1145 16.053242 23.85874 23.858740999999988 0 0 0
1306 162 3 0.1145 15.373228 26.374306999999998 18.56880599999999 0 0 0
1307 181 3 0.1145 0.917754 27.054284 23.858772 0 0 0
1308 173 3 0.1145 1.597788 26.374306 32.344246 0 0 0
1309 130 4 -0.1504 11.744955 18.759308 27.73082899999999 0 0 0
1310 162 4 -0.1504 13.71158 23.66823 19.245312 0 0 0
1311 132 4 -0.1504 11.744950999999999 32.153746 23.18222699999999 0 0 0
1312 163 4 -0.1504 13.711579 27.244821 31.667739999999988 0 0 0
1313 81 4 -0.1504 10.75981 28.715972 18.759308999999988 0 0 0
1314 164 4 -0.1504 1.7882909999999999 27.730828 28.715971 0 0 0
1315 165 4 -0.1504 14.696721 30.682596 27.244817999999988 0 0 0
1316 166 4 -0.1504 6.697213 19.245313 30.682598 0 0 0
1317 167 4 -0.1504 2.274294 30.682598 23.66823 0 0 0
1318 168 4 -0.1504 15.182731 23.18222299999999 28.715973 0 0 0
1319 90 4 -0.1504 6.211206 28.715973 32.153748 0 0 0
1320 169 4 -0.1504 10.2738 31.66773799999999 30.682594 0 0 0
1321 164 4 -0.1504 1.7882909999999999 28.715971 27.730827 0 0 0
1322 170 4 -0.1504 6.697213 30.682598 19.245313 0 0 0
1323 171 4 -0.1504 15.182731 28.715973 23.182224 0 0 0
1324 169 4 -0.1504 10.273801 30.68259499999999 31.66773799999999 0 0 0
1325 81 4 -0.1504 11.744954 27.73082899999999 18.759308999999988 0 0 0
1326 130 4 -0.1504 10.759812 18.759308 28.715972 0 0 0
1327 165 4 -0.1504 13.711577 31.66773799999999 27.244817999999988 0 0 0
1328 172 4 -0.1504 13.711579 19.245313 23.66823199999999 0 0 0
1329 173 4 -0.1504 2.274295 23.668231 30.682598 0 0 0
1330 131 4 -0.1504 6.211209 32.153745 28.715971 0 0 0
1331 89 4 -0.1504 11.744957 23.182222 32.15375 0 0 0
1332 163 4 -0.1504 14.696721 27.24481999999999 30.68259499999999 0 0 0
1333 130 5 -0.0519 10.494988 16.984259 27.466006 0 0 0
1334 131 5 -0.0519 6.476028 33.928798 27.466008 0 0 0
1335 132 5 -0.0519 10.494987 33.928797 23.44704799999999 0 0 0
1336 163 5 -0.0519 14.961534 25.469763 31.93255099999999 0 0 0
1337 81 5 -0.0519 10.494991 27.466009 16.984257 0 0 0
1338 164 5 -0.0519 0.01324 27.466007 27.466007 0 0 0
1339 165 5 -0.0519 14.961538 31.932556 25.469763999999998 0 0 0
1340 166 5 -0.0519 8.472275 18.980505 31.93254899999999 0 0 0
1341 167 5 -0.0519 2.009485 31.93254899999999 25.443292 0 0 0
1342 170 5 -0.0519 8.472273 31.93255099999999 18.980502 0 0 0
1343 172 5 -0.0519 14.961534 18.980501 25.443291 0 0 0
1344 169 5 -0.0519 8.498746999999995 31.93255699999999 31.932556 0 0 0
1345 175 4 -0.1504 3.2594349999999985 27.24482399999999 19.245311 0 0 0
1346 131 4 -0.1504 5.226065 32.153746 27.730828 0 0 0
1347 173 4 -0.1504 3.2594379999999994 23.668231 31.66774199999999 0 0 0
1348 139 4 -0.1504 5.226065999999998 18.75931099999999 23.18222899999999 0 0 0
1349 176 4 -0.1504 2.274296999999999 20.230459 27.244819 0 0 0
1350 177 4 -0.1504 10.273805 19.245313 20.230455 0 0 0
1351 88 4 -0.1504 6.211209 22.197083999999993 18.75931 0 0 0
1352 171 4 -0.1504 15.182733 27.730832 22.197079 0 0 0
1353 89 4 -0.1504 10.759814 22.197079 32.153751 0 0 0
1354 170 4 -0.1504 6.697215 31.667739999999988 20.230458 0 0 0
1355 172 4 -0.1504 14.696722 20.230457 23.668233 0 0 0
1356 178 4 -0.1504 1.788294 23.18222899999999 22.19708599999999 0 0 0
1357 177 4 -0.1504 10.273806 20.230455 19.24531 0 0 0
1358 168 4 -0.1504 15.18273 22.197081 27.73082899999999 0 0 0
1359 166 4 -0.1504 6.697213 20.230457 31.667741 0 0 0
1360 178 4 -0.1504 1.788296 22.19708599999999 23.18223 0 0 0
1361 176 4 -0.1504 3.25944 19.24531599999999 27.244819 0 0 0
1362 175 4 -0.1504 2.274293 27.24482399999999 20.230455 0 0 0
1363 88 4 -0.1504 5.226065 23.18222699999999 18.75931 0 0 0
1364 90 4 -0.1504 5.226061 27.730830999999988 32.15375 0 0 0
1365 132 4 -0.1504 10.75981 32.153748 22.19708199999999 0 0 0
1366 162 4 -0.1504 14.696722 23.668233 20.230456 0 0 0
1367 167 4 -0.1504 3.259439 31.667739 23.66823199999999 0 0 0
1368 139 4 -0.1504 6.211208 18.75931099999999 22.197083999999993 0 0 0
1369 175 5 -0.0519 2.009484 25.469761999999996 18.980503 0 0 0
1370 162 5 -0.0519 14.96153 25.443294 18.980504 0 0 0
1371 173 5 -0.0519 2.009486 25.443293 31.93254899999999 0 0 0
1372 139 5 -0.0519 6.476025 16.984256 23.44704399999999 0 0 0
1373 176 5 -0.0519 2.009479 18.980497 25.469765 0 0 0
1374 177 5 -0.0519 8.498742 18.980506 18.980505 0 0 0
1375 88 5 -0.0519 6.476028 23.447047 16.984257 0 0 0
1376 171 5 -0.0519 16.957772 27.465996 23.447059 0 0 0
1377 89 5 -0.0519 10.494979999999998 23.447055999999993 33.928791 0 0 0
1378 168 5 -0.0519 16.957775 23.447051999999992 27.466001 0 0 0
1379 90 5 -0.0519 6.476035999999997 27.466001 33.928793 0 0 0
1380 178 5 -0.0519 0.013235999999999994 23.44703999999999 23.447041 0 0 0
1381 130 6 -0.1532 11.568374 17.629353 26.942321 0 0 0
1382 162 6 -0.1532 13.888150999999999 24.79819299999999 18.456812999999997 0 0 0
1383 132 6 -0.1532 11.568371 33.283701 23.970735 0 0 0
1384 163 6 -0.1532 13.888151999999998 26.114861 32.456241 0 0 0
1385 81 6 -0.1532 9.971305 28.539394 17.629352 0 0 0
1386 164 6 -0.1532 0.658334 26.94232199999999 28.53939299999999 0 0 0
1387 165 6 -0.1532 15.485224999999996 30.859172 26.11486 0 0 0
1388 166 6 -0.1532 7.827176 18.456815 30.859169 0 0 0
1389 167 6 -0.1532 1.485794 30.85917 24.798192 0 0 0
1390 168 6 -0.1532 16.312683 23.970734 28.53938899999999 0 0 0
1391 90 6 -0.1532 6.999718999999997 28.539388 33.283699 0 0 0
1392 169 6 -0.1532 9.143842 32.456243 30.859171 0 0 0
1393 164 6 -0.1532 0.658335 28.539392 26.942321 0 0 0
1394 170 6 -0.1532 7.827173 30.859171 18.456812 0 0 0
1395 171 6 -0.1532 16.312679 28.53938499999999 23.97074 0 0 0
1396 169 6 -0.1532 9.143843 30.859172 32.456243 0 0 0
1397 81 6 -0.1532 11.568376 26.942323999999992 17.629352 0 0 0
1398 130 6 -0.1532 9.971304 17.629353 28.539392 0 0 0
1399 165 6 -0.1532 13.888152999999999 32.456242 26.11486 0 0 0
1400 172 6 -0.1532 13.888151999999998 18.456812 24.79819299999999 0 0 0
1401 173 6 -0.1532 1.4857959999999992 24.798194 30.859168 0 0 0
1402 131 6 -0.1532 6.999715 33.283702 28.53939299999999 0 0 0
1403 89 6 -0.1532 11.568369 23.970737 33.283699 0 0 0
1404 163 6 -0.1532 15.485221999999995 26.11485899999999 30.859168 0 0 0
1405 175 6 -0.1532 3.082864 26.114861 18.456812999999997 0 0 0
1406 131 6 -0.1532 5.402642999999998 33.283703 26.942323 0 0 0
1407 173 6 -0.1532 3.082868 24.79819499999999 32.456239 0 0 0
1408 139 6 -0.1532 5.4026419999999975 17.629353 23.970732 0 0 0
1409 176 6 -0.1532 1.485793 20.05388199999999 26.114861 0 0 0
1410 177 6 -0.1532 9.14384 18.456816 20.053885999999995 0 0 0
1411 88 6 -0.1532 6.999714 22.373662 17.629352 0 0 0
1412 171 6 -0.1532 16.312683 26.942317 22.373666 0 0 0
1413 89 6 -0.1532 9.9713 22.373665 33.2837 0 0 0
1414 170 6 -0.1532 7.827178 32.456239 20.053885999999995 0 0 0
1415 172 6 -0.1532 15.485221999999995 20.053883999999993 24.798194 0 0 0
1416 178 6 -0.1532 0.658333 23.970729 22.373659 0 0 0
1417 177 6 -0.1532 9.143842 20.053885 18.456812999999997 0 0 0
1418 168 6 -0.1532 16.312683 22.373664 26.94231799999999 0 0 0
1419 166 6 -0.1532 7.827177 20.053885999999995 32.456239 0 0 0
1420 178 6 -0.1532 0.658334 22.373659 23.97073 0 0 0
1421 176 6 -0.1532 3.0828629999999997 18.456810999999995 26.114861 0 0 0
1422 175 6 -0.1532 1.485794 26.11486 20.053883999999993 0 0 0
1423 88 6 -0.1532 5.402642999999998 23.970732 17.629353 0 0 0
1424 90 6 -0.1532 5.402644999999998 26.94231999999999 33.283702 0 0 0
1425 132 6 -0.1532 9.971304 33.283704 22.373661 0 0 0
1426 162 6 -0.1532 15.485218999999995 24.798196999999988 20.053887 0 0 0
1427 167 6 -0.1532 3.082868 32.456238 24.798196 0 0 0
1428 139 6 -0.1532 6.999711 17.629351 22.373659 0 0 0
1429 1 1 0.5212 29.699279999999995 16.971018 25.456527 0 0 0
1430 1 1 0.5212 29.699279999999995 25.456527999999988 16.971017 0 0 0
1431 1 1 0.5212 25.456527 29.699281 16.971018 0 0 0
1432 1 1 0.5212 16.971018 25.456527 29.699279999999995 0 0 0
1433 1 1 0.5212 16.971018 29.699281 25.456527 0 0 0
1434 1 1 0.5212 25.456527 16.971018999999988 29.699281 0 0 0
1435 1 1 0.5212 21.213773 25.456527 16.971018 0 0 0
1436 1 1 0.5212 21.213772 16.971018 25.456527999999988 0 0 0
1437 1 1 0.5212 16.971017 21.213772 25.45652599999999 0 0 0
1438 1 1 0.5212 25.45652599999999 16.971018999999988 21.213773 0 0 0
1439 1 1 0.5212 25.456527 21.213774 16.971018 0 0 0
1440 1 1 0.5212 16.971017 25.45652599999999 21.213774 0 0 0
1441 154 2 0.142 29.518168 19.477850999999994 27.523704999999996 0 0 0
1442 182 2 0.142 29.880409 22.949682 19.038181 0 0 0
1443 156 2 0.142 29.51816299999999 31.435201 23.389353 0 0 0
1444 183 2 0.142 29.880406 27.963367 31.874868 0 0 0
1445 106 2 0.142 27.523702999999994 29.51816699999999 19.477852 0 0 0
1446 174 2 0.142 19.477852 27.523702999999994 29.518166 0 0 0
1447 184 2 0.142 31.874866 29.880402 27.96336199999999 0 0 0
1448 185 2 0.142 22.949683 19.038183 29.880408 0 0 0
1449 186 2 0.142 19.038181999999992 29.880409 22.949682 0 0 0
1450 179 2 0.142 31.435208 23.389346 29.51817099999999 0 0 0
1451 113 2 0.142 23.389347 29.51817 31.435207 0 0 0
1452 187 2 0.142 27.96336199999999 31.874864 29.8804 0 0 0
1453 174 2 0.142 19.477852999999996 29.51816499999999 27.523700999999992 0 0 0
1454 188 2 0.142 22.949683 29.880408 19.038183 0 0 0
1455 181 2 0.142 31.435209 29.518172 23.389345 0 0 0
1456 187 2 0.142 27.96336199999999 29.880401 31.874865 0 0 0
1457 106 2 0.142 29.518166 27.523704 19.477852 0 0 0
1458 154 2 0.142 27.523704999999996 19.477850999999994 29.518168 0 0 0
1459 184 2 0.142 29.880401 31.874864 27.96336199999999 0 0 0
1460 189 2 0.142 29.880406 19.038183999999994 22.949685 0 0 0
1461 190 2 0.142 19.038183 22.949683 29.880409 0 0 0
1462 155 2 0.142 23.389353 31.435201 29.51816499999999 0 0 0
1463 112 2 0.142 29.518174 23.389343 31.43521 0 0 0
1464 183 2 0.142 31.874867 27.963365 29.880403 0 0 0
1465 96 3 0.1145 27.054304 27.05430499999999 33.024268 0 0 0
1466 184 3 0.1145 32.344258 32.34426 24.538756 0 0 0
1467 186 3 0.1145 18.56880399999999 32.344248 26.374304 0 0 0
1468 189 3 0.1145 32.344251 18.568801 26.374302 0 0 0
1469 164 3 0.1145 33.024269 27.05430299999999 27.054302 0 0 0
1470 142 3 0.1145 27.0543 33.024271 27.0543 0 0 0
1471 188 3 0.1145 26.374302 32.34425 18.568801 0 0 0
1472 183 3 0.1145 32.344253 24.538752 32.344252 0 0 0
1473 187 3 0.1145 24.538757 32.34426 32.344259 0 0 0
1474 153 3 0.1145 23.85875099999999 17.888787 27.054304 0 0 0
1475 185 3 0.1145 26.374306 18.568807 32.344247 0 0 0
1476 144 3 0.1145 27.0543 17.888785 23.858754 0 0 0
1477 191 2 0.142 21.032643 27.963371 19.038181 0 0 0
1478 155 2 0.142 21.394887 31.435203 27.523704 0 0 0
1479 190 2 0.142 21.032647 22.949685 31.874872 0 0 0
1480 161 2 0.142 21.394891 19.477856999999997 23.389356 0 0 0
1481 192 2 0.142 19.038189 21.032653999999994 27.96336199999999 0 0 0
1482 193 2 0.142 27.963369999999994 19.038181999999992 21.032645 0 0 0
1483 111 2 0.142 23.389353 21.394889 19.477852999999996 0 0 0
1484 181 2 0.142 31.435214 27.523712999999997 21.394877 0 0 0
1485 112 2 0.142 27.523712999999997 21.394877 31.435213 0 0 0
1486 188 2 0.142 22.949689 31.874867 21.032651999999995 0 0 0
1487 189 2 0.142 31.874868 21.032649 22.949687 0 0 0
1488 180 2 0.142 19.477858 23.389358 21.394894 0 0 0
1489 193 2 0.142 27.963373 21.032643 19.038179 0 0 0
1490 179 2 0.142 31.435207 21.394883 27.523706 0 0 0
1491 185 2 0.142 22.949685 21.032647 31.87487 0 0 0
1492 180 2 0.142 19.47786 21.394895 23.389359 0 0 0
1493 192 2 0.142 21.032653 19.038189999999997 27.963363 0 0 0
1494 191 2 0.142 19.038181 27.963369999999994 21.032645999999993 0 0 0
1495 111 2 0.142 21.394888 23.389352 19.477852999999996 0 0 0
1496 113 2 0.142 21.39488 27.52371 31.435211 0 0 0
1497 156 2 0.142 27.523704999999996 31.435207 21.394884 0 0 0
1498 182 2 0.142 31.874869 22.949687 21.03264799999999 0 0 0
1499 186 2 0.142 21.032649999999993 31.874868 22.949687 0 0 0
1500 161 2 0.142 23.389352 19.477854999999998 21.39489 0 0 0
1501 192 3 0.1145 18.568793 18.56879399999999 24.538757 0 0 0
1502 110 3 0.1145 23.85875 23.85875099999999 33.024268 0 0 0
1503 105 3 0.1145 27.054286 23.858768 17.888773 0 0 0
1504 100 3 0.1145 23.85876299999999 27.054291 17.888777999999995 0 0 0
1505 193 3 0.1145 24.538745 18.568809 18.56880799999999 0 0 0
1506 191 3 0.1145 18.56880399999999 24.538749 18.568805 0 0 0
1507 168 3 0.1145 17.888779 23.85876099999999 27.054292 0 0 0
1508 158 3 0.1145 23.85874499999999 33.024265 23.858746 0 0 0
1509 178 3 0.1145 33.02426 23.85874 23.858740999999988 0 0 0
1510 182 3 0.1145 32.344246 26.374306999999998 18.56880599999999 0 0 0
1511 171 3 0.1145 17.888771999999992 27.054284 23.858772 0 0 0
1512 190 3 0.1145 18.56880599999999 26.374306 32.344246 0 0 0
1513 154 4 -0.1504 28.715973 18.759308 27.73082899999999 0 0 0
1514 182 4 -0.1504 30.682598 23.66823 19.245312 0 0 0
1515 156 4 -0.1504 28.715969 32.153746 23.18222699999999 0 0 0
1516 183 4 -0.1504 30.68259699999999 27.244821 31.667739999999988 0 0 0
1517 106 4 -0.1504 27.730828 28.715972 18.759308999999988 0 0 0
1518 174 4 -0.1504 18.759308999999988 27.730828 28.715971 0 0 0
1519 184 4 -0.1504 31.667739 30.682596 27.244817999999988 0 0 0
1520 185 4 -0.1504 23.668231 19.245313 30.682598 0 0 0
1521 186 4 -0.1504 19.245312 30.682598 23.66823 0 0 0
1522 179 4 -0.1504 32.153749 23.18222299999999 28.715973 0 0 0
1523 113 4 -0.1504 23.182224 28.715973 32.153748 0 0 0
1524 187 4 -0.1504 27.244817999999988 31.66773799999999 30.682594 0 0 0
1525 174 4 -0.1504 18.759308999999988 28.715971 27.730827 0 0 0
1526 188 4 -0.1504 23.668231 30.682598 19.245313 0 0 0
1527 181 4 -0.1504 32.153749 28.715973 23.182224 0 0 0
1528 187 4 -0.1504 27.244819 30.68259499999999 31.66773799999999 0 0 0
1529 106 4 -0.1504 28.715972 27.73082899999999 18.759308999999988 0 0 0
1530 154 4 -0.1504 27.73083 18.759308 28.715972 0 0 0
1531 184 4 -0.1504 30.68259499999999 31.66773799999999 27.244817999999988 0 0 0
1532 189 4 -0.1504 30.68259699999999 19.245313 23.66823199999999 0 0 0
1533 190 4 -0.1504 19.245313 23.668231 30.682598 0 0 0
1534 155 4 -0.1504 23.18222699999999 32.153745 28.715971 0 0 0
1535 112 4 -0.1504 28.715975 23.182222 32.15375 0 0 0
1536 183 4 -0.1504 31.667739 27.24481999999999 30.68259499999999 0 0 0
1537 154 5 -0.0519 27.466006 16.984259 27.466006 0 0 0
1538 155 5 -0.0519 23.44704599999999 33.928798 27.466008 0 0 0
1539 156 5 -0.0519 27.466005 33.928797 23.44704799999999 0 0 0
1540 183 5 -0.0519 31.932552 25.469763 31.93255099999999 0 0 0
1541 106 5 -0.0519 27.466009 27.466009 16.984257 0 0 0
1542 174 5 -0.0519 16.984258 27.466007 27.466007 0 0 0
1543 184 5 -0.0519 31.932556 31.932556 25.469763999999998 0 0 0
1544 185 5 -0.0519 25.443293 18.980505 31.93254899999999 0 0 0
1545 186 5 -0.0519 18.980503 31.93254899999999 25.443292 0 0 0
1546 188 5 -0.0519 25.443291 31.93255099999999 18.980502 0 0 0
1547 189 5 -0.0519 31.932552 18.980501 25.443291 0 0 0
1548 187 5 -0.0519 25.469765 31.93255699999999 31.932556 0 0 0
1549 191 4 -0.1504 20.230453 27.24482399999999 19.245311 0 0 0
1550 155 4 -0.1504 22.197083 32.153746 27.730828 0 0 0
1551 190 4 -0.1504 20.230456 23.668231 31.66774199999999 0 0 0
1552 161 4 -0.1504 22.197083999999993 18.75931099999999 23.18222899999999 0 0 0
1553 192 4 -0.1504 19.245315 20.230459 27.244819 0 0 0
1554 193 4 -0.1504 27.244823 19.245313 20.230455 0 0 0
1555 111 4 -0.1504 23.18222699999999 22.197083999999993 18.75931 0 0 0
1556 181 4 -0.1504 32.153751 27.730832 22.197079 0 0 0
1557 112 4 -0.1504 27.730832 22.197079 32.153751 0 0 0
1558 188 4 -0.1504 23.668233 31.667739999999988 20.230458 0 0 0
1559 189 4 -0.1504 31.667739999999988 20.230457 23.668233 0 0 0
1560 180 4 -0.1504 18.759312 23.18222899999999 22.19708599999999 0 0 0
1561 193 4 -0.1504 27.24482399999999 20.230455 19.24531 0 0 0
1562 179 4 -0.1504 32.153748 22.197081 27.73082899999999 0 0 0
1563 185 4 -0.1504 23.668231 20.230457 31.667741 0 0 0
1564 180 4 -0.1504 18.759314 22.19708599999999 23.18223 0 0 0
1565 192 4 -0.1504 20.230458 19.24531599999999 27.244819 0 0 0
1566 191 4 -0.1504 19.245311 27.24482399999999 20.230455 0 0 0
1567 111 4 -0.1504 22.197083 23.18222699999999 18.75931 0 0 0
1568 113 4 -0.1504 22.197079 27.730830999999988 32.15375 0 0 0
1569 156 4 -0.1504 27.730828 32.153748 22.19708199999999 0 0 0
1570 182 4 -0.1504 31.667739999999988 23.668233 20.230456 0 0 0
1571 186 4 -0.1504 20.230457 31.667739 23.66823199999999 0 0 0
1572 161 4 -0.1504 23.182226 18.75931099999999 22.197083999999993 0 0 0
1573 191 5 -0.0519 18.980502 25.469761999999996 18.980503 0 0 0
1574 182 5 -0.0519 31.932548 25.443294 18.980504 0 0 0
1575 190 5 -0.0519 18.980504 25.443293 31.93254899999999 0 0 0
1576 161 5 -0.0519 23.447043 16.984256 23.44704399999999 0 0 0
1577 192 5 -0.0519 18.980497 18.980497 25.469765 0 0 0
1578 193 5 -0.0519 25.469759999999997 18.980506 18.980505 0 0 0
1579 111 5 -0.0519 23.44704599999999 23.447047 16.984257 0 0 0
1580 181 5 -0.0519 33.92879 27.465996 23.447059 0 0 0
1581 112 5 -0.0519 27.465998 23.447055999999993 33.928791 0 0 0
1582 179 5 -0.0519 33.928793 23.447051999999992 27.466001 0 0 0
1583 113 5 -0.0519 23.447053999999994 27.466001 33.928793 0 0 0
1584 180 5 -0.0519 16.984254 23.44703999999999 23.447041 0 0 0
1585 154 6 -0.1532 28.539392 17.629353 26.942321 0 0 0
1586 182 6 -0.1532 30.859169 24.79819299999999 18.456812999999997 0 0 0
1587 156 6 -0.1532 28.53938899999999 33.283701 23.970735 0 0 0
1588 183 6 -0.1532 30.85917 26.114861 32.456241 0 0 0
1589 106 6 -0.1532 26.942323 28.539394 17.629352 0 0 0
1590 174 6 -0.1532 17.629352 26.94232199999999 28.53939299999999 0 0 0
1591 184 6 -0.1532 32.456243 30.859172 26.11486 0 0 0
1592 185 6 -0.1532 24.798194 18.456815 30.859169 0 0 0
1593 186 6 -0.1532 18.456812 30.85917 24.798192 0 0 0
1594 179 6 -0.1532 33.283701 23.970734 28.53938899999999 0 0 0
1595 113 6 -0.1532 23.970737 28.539388 33.283699 0 0 0
1596 187 6 -0.1532 26.11486 32.456243 30.859171 0 0 0
1597 174 6 -0.1532 17.629353 28.539392 26.942321 0 0 0
1598 188 6 -0.1532 24.79819099999999 30.859171 18.456812 0 0 0
1599 181 6 -0.1532 33.283697 28.53938499999999 23.97074 0 0 0
1600 187 6 -0.1532 26.114861 30.859172 32.456243 0 0 0
1601 106 6 -0.1532 28.539394 26.942323999999992 17.629352 0 0 0
1602 154 6 -0.1532 26.94232199999999 17.629353 28.539392 0 0 0
1603 184 6 -0.1532 30.859171 32.456242 26.11486 0 0 0
1604 189 6 -0.1532 30.85917 18.456812 24.79819299999999 0 0 0
1605 190 6 -0.1532 18.456814 24.798194 30.859168 0 0 0
1606 155 6 -0.1532 23.970733 33.283702 28.53939299999999 0 0 0
1607 112 6 -0.1532 28.53938699999999 23.970737 33.283699 0 0 0
1608 183 6 -0.1532 32.45624 26.11485899999999 30.859168 0 0 0
1609 191 6 -0.1532 20.05388199999999 26.114861 18.456812999999997 0 0 0
1610 155 6 -0.1532 22.373661 33.283703 26.942323 0 0 0
1611 190 6 -0.1532 20.053885999999995 24.79819499999999 32.456239 0 0 0
1612 161 6 -0.1532 22.37366 17.629353 23.970732 0 0 0
1613 192 6 -0.1532 18.456810999999995 20.05388199999999 26.114861 0 0 0
1614 193 6 -0.1532 26.114858 18.456816 20.053885999999995 0 0 0
1615 111 6 -0.1532 23.970732 22.373662 17.629352 0 0 0
1616 181 6 -0.1532 33.283701 26.942317 22.373666 0 0 0
1617 112 6 -0.1532 26.94231799999999 22.373665 33.2837 0 0 0
1618 188 6 -0.1532 24.798196 32.456239 20.053885999999995 0 0 0
1619 189 6 -0.1532 32.45624 20.053883999999993 24.798194 0 0 0
1620 180 6 -0.1532 17.629351 23.970729 22.373659 0 0 0
1621 193 6 -0.1532 26.11486 20.053885 18.456812999999997 0 0 0
1622 179 6 -0.1532 33.283701 22.373664 26.94231799999999 0 0 0
1623 185 6 -0.1532 24.79819499999999 20.053885999999995 32.456239 0 0 0
1624 180 6 -0.1532 17.629352 22.373659 23.97073 0 0 0
1625 192 6 -0.1532 20.053881 18.456810999999995 26.114861 0 0 0
1626 191 6 -0.1532 18.456812 26.11486 20.053883999999993 0 0 0
1627 111 6 -0.1532 22.373661 23.970732 17.629353 0 0 0
1628 113 6 -0.1532 22.373663 26.94231999999999 33.283702 0 0 0
1629 156 6 -0.1532 26.94232199999999 33.283704 22.373661 0 0 0
1630 182 6 -0.1532 32.456237 24.798196999999988 20.053887 0 0 0
1631 186 6 -0.1532 20.053885999999995 32.456238 24.798196 0 0 0
1632 161 6 -0.1532 23.970729 17.629351 22.373659 0 0 0

Velocities

1 0 0 0
2 0 0 0
3 0 0 0
4 0 0 0
5 0 0 0
6 0 0 0
7 0 0 0
8 0 0 0
9 0 0 0
10 0 0 0
11 0 0 0
12 0 0 0
13 0 0 0
14 0 0 0
15 0 0 0
16 0 0 0
17 0 0 0
18 0 0 0
19 0 0 0
20 0 0 0
21 0 0 0
22 0 0 0
23 0 0 0
24 0 0 0
25 0 0 0
26 0 0 0
27 0 0 0
28 0 0 0
29 0 0 0
30 0 0 0
31 0 0 0
32 0 0 0
33 0 0 0
34 0 0 0
35 0 0 0
36 0 0 0
37 0 0 0
38 0 0 0
39 0 0 0
40 0 0 0
41 0 0 0
42 0 0 0
43 0 0 0
44 0 0 0
45 0 0 0
46 0 0 0
47 0 0 0
48 0 0 0
49 0 0 0
50 0 0 0
51 0 0 0
52 0 0 0
53 0 0 0
54 0 0 0
55 0 0 0
56 0 0 0
57 0 0 0
58 0 0 0
59 0 0 0
60 0 0 0
61 0 0 0
62 0 0 0
63 0 0 0
64 0 0 0
65 0 0 0
66 0 0 0
67 0 0 0
68 0 0 0
69 0 0 0
70 0 0 0
71 0 0 0
72 0 0 0
73 0 0 0
74 0 0 0
75 0 0 0
76 0 0 0
77 0 0 0
78 0 0 0
79 0 0 0
80 0 0 0
81 0 0 0
82 0 0 0
83 0 0 0
84 0 0 0
85 0 0 0
86 0 0 0
87 0 0 0
88 0 0 0
89 0 0 0
90 0 0 0
91 0 0 0
92 0 0 0
93 0 0 0
94 0 0 0
95 0 0 0
96 0 0 0
97 0 0 0
98 0 0 0
99 0 0 0
100 0 0 0
101 0 0 0
102 0 0 0
103 0 0 0
104 0 0 0
105 0 0 0
106 0 0 0
107 0 0 0
108 0 0 0
109 0 0 0
110 0 0 0
111 0 0 0
112 0 0 0
113 0 0 0
114 0 0 0
115 0 0 0
116 0 0 0
117 0 0 0
118 0 0 0
119 0 0 0
120 0 0 0
121 0 0 0
122 0 0 0
123 0 0 0
124 0 0 0
125 0 0 0
126 0 0 0
127 0 0 0
128 0 0 0
129 0 0 0
130 0 0 0
131 0 0 0
132 0 0 0
133 0 0 0
134 0 0 0
135 0 0 0
136 0 0 0
137 0 0 0
138 0 0 0
139 0 0 0
140 0 0 0
141 0 0 0
142 0 0 0
143 0 0 0
144 0 0 0
145 0 0 0
146 0 0 0
147 0 0 0
148 0 0 0
149 0 0 0
150 0 0 0
151 0 0 0
152 0 0 0
153 0 0 0
154 0 0 0
155 0 0 0
156 0 0 0
157 0 0 0
158 0 0 0
159 0 0 0
160 0 0 0
161 0 0 0
162 0 0 0
163 0 0 0
164 0 0 0
165 0 0 0
166 0 0 0
167 0 0 0
168 0 0 0
169 0 0 0
170 0 0 0
171 0 0 0
172 0 0 0
173 0 0 0
174 0 0 0
175 0 0 0
176 0 0 0
177 0 0 0
178 0 0 0
179 0 0 0
180 0 0 0
181 0 0 0
182 0 0 0
183 0 0 0
184 0 0 0
185 0 0 0
186 0 0 0
187 0 0 0
188 0 0 0
189 0 0 0
190 0 0 0
191 0 0 0
192 0 0 0
193 0 0 0
194 0 0 0
195 0 0 0
196 0 0 0
197 0 0 0
198 0 0 0
199 0 0 0
200 0 0 0
201 0 0 0
202 0 0 0
203 0 0 0
204 0 0 0
205 0 0 0
206 0 0 0
207 0 0 0
208 0 0 0
209 0 0 0
210 0 0 0
211 0 0 0
212 0 0 0
213 0 0 0
214 0 0 0
215 0 0 0
216 0 0 0
217 0 0 0
218 0 0 0
219 0 0 0
220 0 0 0
221 0 0 0
222 0 0 0
223 0 0 0
224 0 0 0
225 0 0 0
226 0 0 0
227 0 0 0
228 0 0 0
229 0 0 0
230 0 0 0
231 0 0 0
232 0 0 0
233 0 0 0
234 0 0 0
235 0 0 0
236 0 0 0
237 0 0 0
238 0 0 0
239 0 0 0
240 0 0 0
241 0 0 0
242 0 0 0
243 0 0 0
244 0 0 0
245 0 0 0
246 0 0 0
247 0 0 0
248 0 0 0
249 0 0 0
250 0 0 0
251 0 0 0
252 0 0 0
253 0 0 0
254 0 0 0
255 0 0 0
256 0 0 0
257 0 0 0
258 0 0 0
259 0 0 0
260 0 0 0
261 0 0 0
262 0 0 0
263 0 0 0
264 0 0 0
265 0 0 0
266 0 0 0
267 0 0 0
268 0 0 0
269 0 0 0
270 0 0 0
271 0 0 0
272 0 0 0
273 0 0 0
274 0 0 0
275 0 0 0
276 0 0 0
277 0 0 0
278 0 0 0
279 0 0 0
280 0 0 0
281 0 0 0
282 0 0 0
283 0 0 0
284 0 0 0
285 0 0 0
286 0 0 0
287 0 0 0
288 0 0 0
289 0 0 0
290 0 0 0
291 0 0 0
292 0 0 0
293 0 0 0
294 0 0 0
295 0 0 0
296 0 0 0
297 0 0 0
298 0 0 0
299 0 0 0
300 0 0 0
301 0 0 0
302 0 0 0
303 0 0 0
304 0 0 0
305 0 0 0
306 0 0 0
307 0 0 0
308 0 0 0
309 0 0 0
310 0 0 0
311 0 0 0
312 0 0 0
313 0 0 0
314 0 0 0
315 0 0 0
316 0 0 0
317 0 0 0
318 0 0 0
319 0 0 0
320 0 0 0
321 0 0 0
322 0 0 0
323 0 0 0
324 0 0 0
325 0 0 0
326 0 0 0
327 0 0 0
328 0 0 0
329 0 0 0
330 0 0 0
331 0 0 0
332 0 0 0
333 0 0 0
334 0 0 0
335 0 0 0
336 0 0 0
337 0 0 0
338 0 0 0
339 0 0 0
340 0 0 0
341 0 0 0
342 0 0 0
343 0 0 0
344 0 0 0
345 0 0 0
346 0 0 0
347 0 0 0
348 0 0 0
349 0 0 0
350 0 0 0
351 0 0 0
352 0 0 0
353 0 0 0
354 0 0 0
355 0 0 0
356 0 0 0
357 0 0 0
358 0 0 0
359 0 0 0
360 0 0 0
361 0 0 0
362 0 0 0
363 0 0 0
364 0 0 0
365 0 0 0
366 0 0 0
367 0 0 0
368 0 0 0
369 0 0 0
370 0 0 0
371 0 0 0
372 0 0 0
373 0 0 0
374 0 0 0
375 0 0 0
376 0 0 0
377 0 0 0
378 0 0 0
379 0 0 0
380 0 0 0
381 0 0 0
382 0 0 0
383 0 0 0
384 0 0 0
385 0 0 0
386 0 0 0
387 0 0 0
388 0 0 0
389 0 0 0
390 0 0 0
391 0 0 0
392 0 0 0
393 0 0 0
394 0 0 0
395 0 0 0
396 0 0 0
397 0 0 0
398 0 0 0
399 0 0 0
400 0 0 0
401 0 0 0
402 0 0 0
403 0 0 0
404 0 0 0
405 0 0 0
406 0 0 0
407 0 0 0
408 0 0 0
409 0 0 0
410 0 0 0
411 0 0 0
412 0 0 0
413 0 0 0
414 0 0 0
415 0 0 0
416 0 0 0
417 0 0 0
418 0 0 0
419 0 0 0
420 0 0 0
421 0 0 0
422 0 0 0
423 0 0 0
424 0 0 0
425 0 0 0
426 0 0 0
427 0 0 0
428 0 0 0
429 0 0 0
430 0 0 0
431 0 0 0
432 0 0 0
433 0 0 0
434 0 0 0
435 0 0 0
436 0 0 0
437 0 0 0
438 0 0 0
439 0 0 0
440 0 0 0
441 0 0 0
442 0 0 0
443 0 0 0
444 0 0 0
445 0 0 0
446 0 0 0
447 0 0 0
448 0 0 0
449 0 0 0
450 0 0 0
451 0 0 0
452 0 0 0
453 0 0 0
454 0 0 0
455 0 0 0
456 0 0 0
457 0 0 0
458 0 0 0
459 0 0 0
460 0 0 0
461 0 0 0
462 0 0 0
463 0 0 0
464 0 0 0
465 0 0 0
466 0 0 0
467 0 0 0
468 0 0 0
469 0 0 0
470 0 0 0
471 0 0 0
472 0 0 0
473 0 0 0
474 0 0 0
475 0 0 0
476 0 0 0
477 0 0 0
478 0 0 0
479 0 0 0
480 0 0 0
481 0 0 0
482 0 0 0
483 0 0 0
484 0 0 0
485 0 0 0
486 0 0 0
487 0 0 0
488 0 0 0
489 0 0 0
490 0 0 0
491 0 0 0
492 0 0 0
493 0 0 0
494 0 0 0
495 0 0 0
496 0 0 0
497 0 0 0
498 0 0 0
499 0 0 0
500 0 0 0
501 0 0 0
502 0 0 0
503 0 0 0
504 0 0 0
505 0 0 0
506 0 0 0
507 0 0 0
508 0 0 0
509 0 0 0
510 0 0 0
511 0 0 0
512 0 0 0
513 0 0 0
514 0 0 0
515 0 0 0
516 0 0 0
517 0 0 0
518 0 0 0
519 0 0 0
520 0 0 0
521 0 0 0
522 0 0 0
523 0 0 0
524 0 0 0
525 0 0 0
526 0 0 0
527 0 0 0
528 0 0 0
529 0 0 0
530 0 0 0
531 0 0 0
532 0 0 0
533 0 0 0
534 0 0 0
535 0 0 0
536 0 0 0
537 0 0 0
538 0 0 0
539 0 0 0
540 0 0 0
541 0 0 0
542 0 0 0
543 0 0 0
544 0 0 0
545 0 0 0
546 0 0 0
547 0 0 0
548 0 0 0
549 0 0 0
550 0 0 0
551 0 0 0
552 0 0 0
553 0 0 0
554 0 0 0
555 0 0 0
556 0 0 0
557 0 0 0
558 0 0 0
559 0 0 0
560 0 0 0
561 0 0 0
562 0 0 0
563 0 0 0
564 0 0 0
565 0 0 0
566 0 0 0
567 0 0 0
568 0 0 0
569 0 0 0
570 0 0 0
571 0 0 0
572 0 0 0
573 0 0 0
574 0 0 0
575 0 0 0
576 0 0 0
577 0 0 0
578 0 0 0
579 0 0 0
580 0 0 0
581 0 0 0
582 0 0 0
583 0 0 0
584 0 0 0
585 0 0 0
586 0 0 0
587 0 0 0
588 0 0 0
589 0 0 0
590 0 0 0
591 0 0 0
592 0 0 0
593 0 0 0
594 0 0 0
595 0 0 0
596 0 0 0
597 0 0 0
598 0 0 0
599 0 0 0
600 0 0 0
601 0 0 0
602 0 0 0
603 0 0 0
604 0 0 0
605 0 0 0
606 0 0 0
607 0 0 0
608 0 0 0
609 0 0 0
610 0 0 0
611 0 0 0
612 0 0 0
613 0 0 0
614 0 0 0
615 0 0 0
616 0 0 0
617 0 0 0
618 0 0 0
619 0 0 0
620 0 0 0
621 0 0 0
622 0 0 0
623 0 0 0
624 0 0 0
625 0 0 0
626 0 0 0
627 0 0 0
628 0 0 0
629 0 0 0
630 0 0 0
631 0 0 0
632 0 0 0
633 0 0 0
634 0 0 0
635 0 0 0
636 0 0 0
637 0 0 0
638 0 0 0
639 0 0 0
640 0 0 0
641 0 0 0
642 0 0 0
643 0 0 0
644 0 0 0
645 0 0 0
646 0 0 0
647 0 0 0
648 0 0 0
649 0 0 0
650 0 0 0
651 0 0 0
652 0 0 0
653 0 0 0
654 0 0 0
655 0 0 0
656 0 0 0
657 0 0 0
658 0 0 0
659 0 0 0
660 0 0 0
661 0 0 0
662 0 0 0
663 0 0 0
664 0 0 0
665 0 0 0
666 0 0 0
667 0 0 0
668 0 0 0
669 0 0 0
670 0 0 0
671 0 0 0
672 0 0 0
673 0 0 0
674 0 0 0
675 0 0 0
676 0 0 0
677 0 0 0
678 0 0 0
679 0 0 0
680 0 0 0
681 0 0 0
682 0 0 0
683 0 0 0
684 0 0 0
685 0 0 0
686 0 0 0
687 0 0 0
688 0 0 0
689 0 0 0
690 0 0 0
691 0 0 0
692 0 0 0
693 0 0 0
694 0 0 0
695 0 0 0
696 0 0 0
697 0 0 0
698 0 0 0
699 0 0 0
700 0 0 0
701 0 0 0
702 0 0 0
703 0 0 0
704 0 0 0
705 0 0 0
706 0 0 0
707 0 0 0
708 0 0 0
709 0 0 0
710 0 0 0
711 0 0 0
712 0 0 0
713 0 0 0
714 0 0 0
715 0 0 0
716 0 0 0
717 0 0 0
718 0 0 0
719 0 0 0
720 0 0 0
721 0 0 0
722 0 0 0
723 0 0 0
724 0 0 0
725 0 0 0
726 0 0 0
727 0 0 0
728 0 0 0
729 0 0 0
730 0 0 0
731 0 0 0
732 0 0 0
733 0 0 0
734 0 0 0
735 0 0 0
736 0 0 0
737 0 0 0
738 0 0 0
739 0 0 0
740 0 0 0
741 0 0 0
742 0 0 0
743 0 0 0
744 0 0 0
745 0 0 0
746 0 0 0
747 0 0 0
748 0 0 0
749 0 0 0
750 0 0 0
751 0 0 0
752 0 0 0
753 0 0 0
754 0 0 0
755 0 0 0
756 0 0 0
757 0 0 0
758 0 0 0
759 0 0 0
760 0 0 0
761 0 0 0
762 0 0 0
763 0 0 0
764 0 0 0
765 0 0 0
766 0 0 0
767 0 0 0
768 0 0 0
769 0 0 0
770 0 0 0
771 0 0 0
772 0 0 0
773 0 0 0
774 0 0 0
775 0 0 0
776 0 0 0
777 0 0 0
778 0 0 0
779 0 0 0
780 0 0 0
781 0 0 0
782 0 0 0
783 0 0 0
784 0 0 0
785 0 0 0
786 0 0 0
787 0 0 0
788 0 0 0
789 0 0 0
790 0 0 0
791 0 0 0
792 0 0 0
793 0 0 0
794 0 0 0
795 0 0 0
796 0 0 0
797 0 0 0
798 0 0 0
799 0 0 0
800 0 0 0
801 0 0 0
802 0 0 0
803 0 0 0
804 0 0 0
805 0 0 0
806 0 0 0
807 0 0 0
808 0 0 0
809 0 0 0
810 0 0 0
811 0 0 0
812 0 0 0
813 0 0 0
814 0 0 0
815 0 0 0
816 0 0 0
817 0 0 0
818 0 0 0
819 0 0 0
820 0 0 0
821 0 0 0
822 0 0 0
823 0 0 0
824 0 0 0
825 0 0 0
826 0 0 0
827 0 0 0
828 0 0 0
829 0 0 0
830 0 0 0
831 0 0 0
832 0 0 0
833 0 0 0
834 0 0 0
835 0 0 0
836 0 0 0
837 0 0 0
838 0 0 0
839 0 0 0
840 0 0 0
841 0 0 0
842 0 0 0
843 0 0 0
844 0 0 0
845 0 0 0
846 0 0 0
847 0 0 0
848 0 0 0
849 0 0 0
850 0 0 0
851 0 0 0
852 0 0 0
853 0 0 0
854 0 0 0
855 0 0 0
856 0 0 0
857 0 0 0
858 0 0 0
859 0 0 0
860 0 0 0
861 0 0 0
862 0 0 0
863 0 0 0
864 0 0 0
865 0 0 0
866 0 0 0
867 0 0 0
868 0 0 0
869 0 0 0
870 0 0 0
871 0 0 0
872 0 0 0
873 0 0 0
874 0 0 0
875 0 0 0
876 0 0 0
877 0 0 0
878 0 0 0
879 0 0 0
880 0 0 0
881 0 0 0
882 0 0 0
883 0 0 0
884 0 0 0
885 0 0 0
886 0 0 0
887 0 0 0
888 0 0 0
889 0 0 0
890 0 0 0
891 0 0 0
892 0 0 0
893 0 0 0
894 0 0 0
895 0 0 0
896 0 0 0
897 0 0 0
898 0 0 0
899 0 0 0
900 0 0 0
901 0 0 0
902 0 0 0
903 0 0 0
904 0 0 0
905 0 0 0
906 0 0 0
907 0 0 0
908 0 0 0
909 0 0 0
910 0 0 0
911 0 0 0
912 0 0 0
913 0 0 0
914 0 0 0
915 0 0 0
916 0 0 0
917 0 0 0
918 0 0 0
919 0 0 0
920 0 0 0
921 0 0 0
922 0 0 0
923 0 0 0
924 0 0 0
925 0 0 0
926 0 0 0
927 0 0 0
928 0 0 0
929 0 0 0
930 0 0 0
931 0 0 0
932 0 0 0
933 0 0 0
934 0 0 0
935 0 0 0
936 0 0 0
937 0 0 0
938 0 0 0
939 0 0 0
940 0 0 0
941 0 0 0
942 0 0 0
943 0 0 0
944 0 0 0
945 0 0 0
946 0 0 0
947 0 0 0
948 0 0 0
949 0 0 0
950 0 0 0
951 0 0 0
952 0 0 0
953 0 0 0
954 0 0 0
955 0 0 0
956 0 0 0
957 0 0 0
958 0 0 0
959 0 0 0
960 0 0 0
961 0 0 0
962 0 0 0
963 0 0 0
964 0 0 0
965 0 0 0
966 0 0 0
967 0 0 0
968 0 0 0
969 0 0 0
970 0 0 0
971 0 0 0
972 0 0 0
973 0 0 0
974 0 0 0
975 0 0 0
976 0 0 0
977 0 0 0
978 0 0 0
979 0 0 0
980 0 0 0
981 0 0 0
982 0 0 0
983 0 0 0
984 0 0 0
985 0 0 0
986 0 0 0
987 0 0 0
988 0 0 0
989 0 0 0
990 0 0 0
991 0 0 0
992 0 0 0
993 0 0 0
994 0 0 0
995 0 0 0
996 0 0 0
997 0 0 0
998 0 0 0
999 0 0 0
1000 0 0 0
1001 0 0 0
1002 0 0 0
1003 0 0 0
1004 0 0 0
1005 0 0 0
1006 0 0 0
1007 0 0 0
1008 0 0 0
1009 0 0 0
1010 0 0 0
1011 0 0 0
1012 0 0 0
1013 0 0 0
1014 0 0 0
1015 0 0 0
1016 0 0 0
1017 0 0 0
1018 0 0 0
1019 0 0 0
1020 0 0 0
1021 0 0 0
1022 0 0 0
1023 0 0 0
1024 0 0 0
1025 0 0 0
1026 0 0 0
1027 0 0 0
1028 0 0 0
1029 0 0 0
1030 0 0 0
1031 0 0 0
1032 0 0 0
1033 0 0 0
1034 0 0 0
1035 0 0 0
1036 0 0 0
1037 0 0 0
1038 0 0 0
1039 0 0 0
1040 0 0 0
1041 0 0 0
1042 0 0 0
1043 0 0 0
1044 0 0 0
1045 0 0 0
1046 0 0 0
1047 0 0 0
1048 0 0 0
1049 0 0 0
1050 0 0 0
1051 0 0 0
1052 0 0 0
1053 0 0 0
1054 0 0 0
1055 0 0 0
1056 0 0 0
1057 0 0 0
1058 0 0 0
1059 0 0 0
1060 0 0 0
1061 0 0 0
1062 0 0 0
1063 0 0 0
1064 0 0 0
1065 0 0 0
1066 0 0 0
1067 0 0 0
1068 0 0 0
1069 0 0 0
1070 0 0 0
1071 0 0 0
1072 0 0 0
1073 0 0 0
1074 0 0 0
1075 0 0 0
1076 0 0 0
1077 0 0 0
1078 0 0 0
1079 0 0 0
1080 0 0 0
1081 0 0 0
1082 0 0 0
1083 0 0 0
1084 0 0 0
1085 0 0 0
1086 0 0 0
1087 0 0 0
1088 0 0 0
1089 0 0 0
1090 0 0 0
1091 0 0 0
1092 0 0 0
1093 0 0 0
1094 0 0 0
1095 0 0 0
1096 0 0 0
1097 0 0 0
1098 0 0 0
1099 0 0 0
1100 0 0 0
1101 0 0 0
1102 0 0 0
1103 0 0 0
1104 0 0 0
1105 0 0 0
1106 0 0 0
1107 0 0 0
1108 0 0 0
1109 0 0 0
1110 0 0 0
1111 0 0 0
1112 0 0 0
1113 0 0 0
1114 0 0 0
1115 0 0 0
1116 0 0 0
1117 0 0 0
1118 0 0 0
1119 0 0 0
1120 0 0 0
1121 0 0 0
1122 0 0 0
1123 0 0 0
1124 0 0 0
1125 0 0 0
1126 0 0 0
1127 0 0 0
1128 0 0 0
1129 0 0 0
1130 0 0 0
1131 0 0 0
1132 0 0 0
1133 0 0 0
1134 0 0 0
1135 0 0 0
1136 0 0 0
1137 0 0 0
1138 0 0 0
1139 0 0 0
1140 0 0 0
1141 0 0 0
1142 0 0 0
1143 0 0 0
1144 0 0 0
1145 0 0 0
1146 0 0 0
1147 0 0 0
1148 0 0 0
1149 0 0 0
1150 0 0 0
1151 0 0 0
1152 0 0 0
1153 0 0 0
1154 0 0 0
1155 0 0 0
1156 0 0 0
1157 0 0 0
1158 0 0 0
1159 0 0 0
1160 0 0 0
1161 0 0 0
1162 0 0 0
1163 0 0 0
1164 0 0 0
1165 0 0 0
1166 0 0 0
1167 0 0 0
1168 0 0 0
1169 0 0 0
1170 0 0 0
1171 0 0 0
1172 0 0 0
1173 0 0 0
1174 0 0 0
1175 0 0 0
1176 0 0 0
1177 0 0 0
1178 0 0 0
1179 0 0 0
1180 0 0 0
1181 0 0 0
1182 0 0 0
1183 0 0 0
1184 0 0 0
1185 0 0 0
1186 0 0 0
1187 0 0 0
1188 0 0 0
1189 0 0 0
1190 0 0 0
1191 0 0 0
1192 0 0 0
1193 0 0 0
1194 0 0 0
1195 0 0 0
1196 0 0 0
1197 0 0 0
1198 0 0 0
1199 0 0 0
1200 0 0 0
1201 0 0 0
1202 0 0 0
1203 0 0 0
1204 0 0 0
1205 0 0 0
1206 0 0 0
1207 0 0 0
1208 0 0 0
1209 0 0 0
1210 0 0 0
1211 0 0 0
1212 0 0 0
1213 0 0 0
1214 0 0 0
1215 0 0 0
1216 0 0 0
1217 0 0 0
1218 0 0 0
1219 0 0 0
1220 0 0 0
1221 0 0 0
1222 0 0 0
1223 0 0 0
1224 0 0 0
1225 0 0 0
1226 0 0 0
1227 0 0 0
1228 0 0 0
1229 0 0 0
1230 0 0 0
1231 0 0 0
1232 0 0 0
1233 0 0 0
1234 0 0 0
1235 0 0 0
1236 0 0 0
1237 0 0 0
1238 0 0 0
1239 0 0 0
1240 0 0 0
1241 0 0 0
1242 0 0 0
1243 0 0 0
1244 0 0 0
1245 0 0 0
1246 0 0 0
1247 0 0 0
1248 0 0 0
1249 0 0 0
1250 0 0 0
1251 0 0 0
1252 0 0 0
1253 0 0 0
1254 0 0 0
1255 0 0 0
1256 0 0 0
1257 0 0 0
1258 0 0 0
1259 0 0 0
1260 0 0 0
1261 0 0 0
1262 0 0 0
1263 0 0 0
1264 0 0 0
1265 0 0 0
1266 0 0 0
1267 0 0 0
1268 0 0 0
1269 0 0 0
1270 0 0 0
1271 0 0 0
1272 0 0 0
1273 0 0 0
1274 0 0 0
1275 0 0 0
1276 0 0 0
1277 0 0 0
1278 0 0 0
1279 0 0 0
1280 0 0 0
1281 0 0 0
1282 0 0 0
1283 0 0 0
1284 0 0 0
1285 0 0 0
1286 0 0 0
1287 0 0 0
1288 0 0 0
1289 0 0 0
1290 0 0 0
1291 0 0 0
1292 0 0 0
1293 0 0 0
1294 0 0 0
1295 0 0 0
1296 0 0 0
1297 0 0 0
1298 0 0 0
1299 0 0 0
1300 0 0 0
1301 0 0 0
1302 0 0 0
1303 0 0 0
1304 0 0 0
1305 0 0 0
1306 0 0 0
1307 0 0 0
1308 0 0 0
1309 0 0 0
1310 0 0 0
1311 0 0 0
1312 0 0 0
1313 0 0 0
1314 0 0 0
1315 0 0 0
1316 0 0 0
1317 0 0 0
1318 0 0 0
1319 0 0 0
1320 0 0 0
1321 0 0 0
1322 0 0 0
1323 0 0 0
1324 0 0 0
1325 0 0 0
1326 0 0 0
1327 0 0 0
1328 0 0 0
1329 0 0 0
1330 0 0 0
1331 0 0 0
1332 0 0 0
1333 0 0 0
1334 0 0 0
1335 0 0 0
1336 0 0 0
1337 0 0 0
1338 0 0 0
1339 0 0 0
1340 0 0 0
1341 0 0 0
1342 0 0 0
1343 0 0 0
1344 0 0 0
1345 0 0 0
1346 0 0 0
1347 0 0 0
1348 0 0 0
1349 0 0 0
1350 0 0 0
1351 0 0 0
1352 0 0 0
1353 0 0 0
1354 0 0 0
1355 0 0 0
1356 0 0 0
1357 0 0 0
1358 0 0 0
1359 0 0 0
1360 0 0 0
1361 0 0 0
1362 0 0 0
1363 0 0 0
1364 0 0 0
1365 0 0 0
1366 0 0 0
1367 0 0 0
1368 0 0 0
1369 0 0 0
1370 0 0 0
1371 0 0 0
1372 0 0 0
1373 0 0 0
1374 0 0 0
1375 0 0 0
1376 0 0 0
1377 0 0 0
1378 0 0 0
1379 0 0 0
1380 0 0 0
1381 0 0 0
1382 0 0 0
1383 0 0 0
1384 0 0 0
1385 0 0 0
1386 0 0 0
1387 0 0 0
1388 0 0 0
1389 0 0 0
1390 0 0 0
1391 0 0 0
1392 0 0 0
1393 0 0 0
1394 0 0 0
1395 0 0 0
1396 0 0 0
1397 0 0 0
1398 0 0 0
1399 0 0 0
1400 0 0 0
1401 0 0 0
1402 0 0 0
1403 0 0 0
1404 0 0 0
1405 0 0 0
1406 0 0 0
1407 0 0 0
1408 0 0 0
1409 0 0 0
1410 0 0 0
1411 0 0 0
1412 0 0 0
1413 0 0 0
1414 0 0 0
1415 0 0 0
1416 0 0 0
1417 0 0 0
1418 0 0 0
1419 0 0 0
1420 0 0 0
1421 0 0 0
1422 0 0 0
1423 0 0 0
1424 0 0 0
1425 0 0 0
1426 0 0 0
1427 0 0 0
1428 0 0 0
1429 0 0 0
1430 0 0 0
1431 0 0 0
1432 0 0 0
1433 0 0 0
1434 0 0 0
1435 0 0 0
1436 0 0 0
1437 0 0 0
1438 0 0 0
1439 0 0 0
1440 0 0 0
1441 0 0 0
1442 0 0 0
1443 0 0 0
1444 0 0 0
1445 0 0 0
1446 0 0 0
1447 0 0 0
1448 0 0 0
1449 0 0 0
1450 0 0 0
1451 0 0 0
1452 0 0 0
1453 0 0 0
1454 0 0 0
1455 0 0 0
1456 0 0 0
1457 0 0 0
1458 0 0 0
1459 0 0 0
1460 0 0 0
1461 0 0 0
1462 0 0 0
1463 0 0 0
1464 0 0 0
1465 0 0 0
1466 0 0 0
1467 0 0 0
1468 0 0 0
1469 0 0 0
1470 0 0 0
1471 0 0 0
1472 0 0 0
1473 0 0 0
1474 0 0 0
1475 0 0 0
1476 0 0 0
1477 0 0 0
1478 0 0 0
1479 0 0 0
1480 0 0 0
1481 0 0 0
1482 0 0 0
1483 0 0 0
1484 0 0 0
1485 0 0 0
1486 0 0 0
1487 0 0 0
1488 0 0 0
1489 0 0 0
1490 0 0 0
1491 0 0 0
1492 0 0 0
1493 0 0 0
1494 0 0 0
1495 0 0 0
1496 0 0 0
1497 0 0 0
1498 0 0 0
1499 0 0 0
1500 0 0 0
1501 0 0 0
1502 0 0 0
1503 0 0 0
1504 0 0 0
1505 0 0 0
1506 0 0 0
1507 0 0 0
1508 0 0 0
1509 0 0 0
1510 0 0 0
1511 0 0 0
1512 0 0 0
1513 0 0 0
1514 0 0 0
1515 0 0 0
1516 0 0 0
1517 0 0 0
1518 0 0 0
1519 0 0 0
1520 0 0 0
1521 0 0 0
1522 0 0 0
1523 0 0 0
1524 0 0 0
1525 0 0 0
1526 0 0 0
1527 0 0 0
1528 0 0 0
1529 0 0 0
1530 0 0 0
1531 0 0 0
1532 0 0 0
1533 0 0 0
1534 0 0 0
1535 0 0 0
1536 0 0 0
1537 0 0 0
1538 0 0 0
1539 0 0 0
1540 0 0 0
1541 0 0 0
1542 0 0 0
1543 0 0 0
1544 0 0 0
1545 0 0 0
1546 0 0 0
1547 0 0 0
1548 0 0 0
1549 0 0 0
1550 0 0 0
1551 0 0 0
1552 0 0 0
1553 0 0 0
1554 0 0 0
1555 0 0 0
1556 0 0 0
1557 0 0 0
1558 0 0 0
1559 0 0 0
1560 0 0 0
1561 0 0 0
1562 0 0 0
1563 0 0 0
1564 0 0 0
1565 0 0 0
1566 0 0 0
1567 0 0 0
1568 0 0 0
1569 0 0 0
1570 0 0 0
1571 0 0 0
1572 0 0 0
1573 0 0 0
1574 0 0 0
1575 0 0 0
1576 0 0 0
1577 0 0 0
1578 0 0 0
1579 0 0 0
1580 0 0 0
1581 0 0 0
1582 0 0 0
1583 0 0 0
1584 0 0 0
1585 0 0 0
1586 0 0 0
1587 0 0 0
1588 0 0 0
1589 0 0 0
1590 0 0 0
1591 0 0 0
1592 0 0 0
1593 0 0 0
1594 0 0 0
1595 0 0 0
1596 0 0 0
1597 0 0 0
1598 0 0 0
1599 0 0 0
1600 0 0 0
1601 0 0 0
1602 0 0 0
1603 0 0 0
1604 0 0 0
1605 0 0 0
1606 0 0 0
1607 0 0 0
1608 0 0 0
1609 0 0 0
1610 0 0 0
1611 0 0 0
1612 0 0 0
1613 0 0 0
1614 0 0 0
1615 0 0 0
1616 0 0 0
1617 0 0 0
1618 0 0 0
1619 0 0 0
1620 0 0 0
1621 0 0 0
1622 0 0 0
1623 0 0 0
1624 0 0 0
1625 0 0 0
1626 0 0 0
1627 0 0 0
1628 0 0 0
1629 0 0 0
1630 0 0 0
1631 0 0 0
1632 0 0 0

Bonds

1 1 1 157
2 1 1 567
3 1 1 583
4 1 1 176
5 1 2 158
6 1 2 976
7 1 2 173
8 1 2 995
9 1 3 161
10 1 3 983
11 1 3 170
12 1 3 988
13 1 4 162
14 1 4 370
15 1 4 177
16 1 4 384
17 1 5 367
18 1 5 165
19 1 5 169
20 1 5 375
21 1 6 164
22 1 6 576
23 1 6 174
24 1 6 586
25 1 7 181
26 1 7 999
27 1 7 199
28 1 7 1016
29 1 8 590
30 1 8 184
31 1 8 197
32 1 8 611
33 1 9 185
34 1 9 395
35 1 9 398
36 1 9 196
37 1 10 186
38 1 10 598
39 1 10 609
40 1 10 204
41 1 11 187
42 1 11 1005
43 1 11 193
44 1 11 1011
45 1 12 392
46 1 12 192
47 1 12 198
48 1 12 406
49 2 13 85
50 2 14 86
51 2 15 87
52 2 16 88
53 2 17 89
54 2 18 90
55 2 19 91
56 2 20 92
57 2 21 93
58 2 22 94
59 2 23 95
60 2 24 96
61 2 25 97
62 2 26 98
63 2 27 99
64 2 28 100
65 2 29 101
66 2 30 102
67 2 31 103
68 2 32 104
69 2 33 105
70 2 34 106
71 2 35 107
72 2 36 108
73 3 37 929
74 3 38 115
75 3 39 117
76 3 40 119
77 3 41 318
78 3 42 517
79 3 43 118
80 3 44 112
81 3 45 120
82 3 46 518
83 3 47 116
84 3 48 519
85 2 49 121
86 2 50 122
87 2 51 123
88 2 52 124
89 2 53 125
90 2 54 126
91 2 55 127
92 2 56 128
93 2 57 129
94 2 58 130
95 2 59 131
96 2 60 132
97 2 61 133
98 2 62 134
99 2 63 135
100 2 64 136
101 2 65 137
102 2 66 138
103 2 67 139
104 2 68 140
105 2 69 141
106 2 70 142
107 2 71 143
108 2 72 144
109 3 73 149
110 3 74 967
111 3 75 969
112 3 76 971
113 3 77 150
114 3 78 145
115 3 79 358
116 3 80 556
117 3 81 360
118 3 82 146
119 3 83 356
120 3 84 147
121 4 85 102
122 5 85 157
123 4 86 142
124 5 86 158
125 4 87 141
126 5 87 159
127 4 88 108
128 5 88 160
129 4 89 101
130 5 89 161
131 4 90 97
132 5 90 162
133 4 91 103
134 5 91 163
135 4 92 135
136 5 92 164
137 4 93 143
138 5 93 165
139 4 94 134
140 5 94 166
141 4 95 140
142 5 95 167
143 4 96 100
144 5 96 168
145 5 97 169
146 4 98 130
147 5 98 170
148 4 99 128
149 5 99 171
150 5 100 172
151 5 101 173
152 5 102 174
153 5 103 175
154 4 104 131
155 5 104 176
156 4 105 123
157 5 105 177
158 4 106 122
159 5 106 178
160 4 107 129
161 5 107 179
162 5 108 180
163 3 109 450
164 6 109 157
165 6 109 174
166 3 110 454
167 6 110 178
168 6 110 182
169 3 111 456
170 6 111 159
171 6 111 201
172 6 112 160
173 6 112 180
174 3 113 853
175 6 113 161
176 6 113 173
177 3 114 245
178 6 114 162
179 6 114 169
180 6 115 163
181 6 115 175
182 6 116 164
183 6 116 195
184 6 117 165
185 6 117 203
186 6 118 170
187 6 118 190
188 6 119 176
189 6 119 191
190 6 120 168
191 6 120 172
192 4 121 138
193 5 121 181
194 5 122 182
195 5 123 183
196 4 124 144
197 5 124 184
198 4 125 137
199 5 125 185
200 4 126 133
201 5 126 186
202 4 127 139
203 5 127 187
204 5 128 188
205 5 129 189
206 5 130 190
207 5 131 191
208 4 132 136
209 5 132 192
210 5 133 193
211 5 134 194
212 5 135 195
213 5 136 196
214 5 137 197
215 5 138 198
216 5 139 199
217 5 140 200
218 5 141 201
219 5 142 202
220 5 143 203
221 5 144 204
222 6 145 181
223 6 145 198
224 6 146 158
225 6 146 202
226 6 147 177
227 6 147 183
228 3 148 488
229 6 148 184
230 6 148 204
231 6 149 185
232 6 149 197
233 6 150 186
234 6 150 193
235 3 151 890
236 6 151 187
237 6 151 199
238 3 152 287
239 6 152 171
240 6 152 188
241 3 153 891
242 6 153 179
243 6 153 189
244 3 154 283
245 6 154 166
246 6 154 194
247 3 155 892
248 6 155 167
249 6 155 200
250 3 156 285
251 6 156 192
252 6 156 196
253 1 159 409
254 1 160 818
255 1 163 209
256 1 166 208
257 1 167 819
258 1 168 414
259 1 171 209
260 1 172 819
261 1 175 409
262 1 178 414
263 1 179 818
264 1 180 208
265 1 182 416
266 1 183 823
267 1 188 216
268 1 189 827
269 1 190 418
270 1 191 213
271 1 194 213
272 1 195 827
273 1 200 823
274 1 201 418
275 1 202 216
276 1 203 416
277 1 205 361
278 1 205 771
279 1 205 787
280 1 205 380
281 1 206 362
282 1 206 1180
283 1 206 377
284 1 206 1199
285 1 207 365
286 1 207 1187
287 1 207 374
288 1 207 1192
289 1 208 366
290 1 208 381
291 1 209 369
292 1 209 373
293 1 210 368
294 1 210 780
295 1 210 378
296 1 210 790
297 1 211 385
298 1 211 1203
299 1 211 403
300 1 211 1220
301 1 212 794
302 1 212 388
303 1 212 401
304 1 212 815
305 1 213 389
306 1 213 400
307 1 214 390
308 1 214 802
309 1 214 813
310 1 214 408
311 1 215 391
312 1 215 1209
313 1 215 397
314 1 215 1215
315 1 216 396
316 1 216 402
317 2 217 289
318 2 218 290
319 2 219 291
320 2 220 292
321 2 221 293
322 2 222 294
323 2 223 295
324 2 224 296
325 2 225 297
326 2 226 298
327 2 227 299
328 2 228 300
329 2 229 301
330 2 230 302
331 2 231 303
332 2 232 304
333 2 233 305
334 2 234 306
335 2 235 307
336 2 236 308
337 2 237 309
338 2 238 310
339 2 239 311
340 2 240 312
341 3 241 1133
342 3 242 319
343 3 243 321
344 3 244 323
345 3 246 721
346 3 247 322
347 3 248 316
348 3 249 324
349 3 250 722
350 3 251 320
351 3 252 723
352 2 253 325
353 2 254 326
354 2 255 327
355 2 256 328
356 2 257 329
357 2 258 330
358 2 259 331
359 2 260 332
360 2 261 333
361 2 262 334
362 2 263 335
363 2 264 336
364 2 265 337
365 2 266 338
366 2 267 339
367 2 268 340
368 2 269 341
369 2 270 342
370 2 271 343
371 2 272 344
372 2 273 345
373 2 274 346
374 2 275 347
375 2 276 348
376 3 277 353
377 3 278 1171
378 3 279 1173
379 3 280 1175
380 3 281 354
381 3 282 349
382 3 284 760
383 3 286 350
384 3 288 351
385 4 289 306
386 5 289 361
387 4 290 346
388 5 290 362
389 4 291 345
390 5 291 363
391 4 292 312
392 5 292 364
393 4 293 305
394 5 293 365
395 4 294 301
396 5 294 366
397 4 295 307
398 5 295 367
399 4 296 339
400 5 296 368
401 4 297 347
402 5 297 369
403 4 298 338
404 5 298 370
405 4 299 344
406 5 299 371
407 4 300 304
408 5 300 372
409 5 301 373
410 4 302 334
411 5 302 374
412 4 303 332
413 5 303 375
414 5 304 376
415 5 305 377
416 5 306 378
417 5 307 379
418 4 308 335
419 5 308 380
420 4 309 327
421 5 309 381
422 4 310 326
423 5 310 382
424 4 311 333
425 5 311 383
426 5 312 384
427 3 313 654
428 6 313 361
429 6 313 378
430 3 314 658
431 6 314 382
432 6 314 386
433 3 315 660
434 6 315 363
435 6 315 405
436 6 316 364
437 6 316 384
438 3 317 1057
439 6 317 365
440 6 317 377
441 6 318 366
442 6 318 373
443 6 319 367
444 6 319 379
445 6 320 368
446 6 320 399
447 6 321 369
448 6 321 407
449 6 322 374
450 6 322 394
451 6 323 380
452 6 323 395
453 6 324 372
454 6 324 376
455 4 325 342
456 5 325 385
457 5 326 386
458 5 327 387
459 4 328 348
460 5 328 388
461 4 329 341
462 5 329 389
463 4 330 337
464 5 330 390
465 4 331 343
466 5 331 391
467 5 332 392
468 5 333 393
469 5 334 394
470 5 335 395
471 4 336 340
472 5 336 396
473 5 337 397
474 5 338 398
475 5 339 399
476 5 340 400
477 5 341 401
478 5 342 402
479 5 343 403
480 5 344 404
481 5 345 405
482 5 346 406
483 5 347 407
484 5 348 408
485 6 349 385
486 6 349 402
487 6 350 362
488 6 350 406
489 6 351 381
490 6 351 387
491 3 352 692
492 6 352 388
493 6 352 408
494 6 353 389
495 6 353 401
496 6 354 390
497 6 354 397
498 3 355 1094
499 6 355 391
500 6 355 403
501 6 356 375
502 6 356 392
503 3 357 1095
504 6 357 383
505 6 357 393
506 6 358 370
507 6 358 398
508 3 359 1096
509 6 359 371
510 6 359 404
511 6 360 396
512 6 360 400
513 1 363 613
514 1 364 1022
515 1 371 1023
516 1 372 618
517 1 376 1023
518 1 379 613
519 1 382 618
520 1 383 1022
521 1 386 620
522 1 387 1027
523 1 393 1031
524 1 394 622
525 1 399 1031
526 1 404 1027
527 1 405 622
528 1 407 620
529 1 409 565
530 1 409 584
531 1 410 566
532 1 410 1384
533 1 410 581
534 1 410 1403
535 1 411 569
536 1 411 1391
537 1 411 578
538 1 411 1396
539 1 412 570
540 1 412 778
541 1 412 585
542 1 412 792
543 1 413 775
544 1 413 573
545 1 413 577
546 1 413 783
547 1 414 572
548 1 414 582
549 1 415 589
550 1 415 1407
551 1 415 607
552 1 415 1424
553 1 416 592
554 1 416 605
555 1 417 593
556 1 417 803
557 1 417 806
558 1 417 604
559 1 418 594
560 1 418 612
561 1 419 595
562 1 419 1413
563 1 419 601
564 1 419 1419
565 1 420 800
566 1 420 600
567 1 420 606
568 1 420 814
569 2 421 493
570 2 422 494
571 2 423 495
572 2 424 496
573 2 425 497
574 2 426 498
575 2 427 499
576 2 428 500
577 2 429 501
578 2 430 502
579 2 431 503
580 2 432 504
581 2 433 505
582 2 434 506
583 2 435 507
584 2 436 508
585 2 437 509
586 2 438 510
587 2 439 511
588 2 440 512
589 2 441 513
590 2 442 514
591 2 443 515
592 2 444 516
593 3 445 1337
594 3 446 523
595 3 447 525
596 3 448 527
597 3 449 726
598 3 451 526
599 3 452 520
600 3 453 528
601 3 455 524
602 2 457 529
603 2 458 530
604 2 459 531
605 2 460 532
606 2 461 533
607 2 462 534
608 2 463 535
609 2 464 536
610 2 465 537
611 2 466 538
612 2 467 539
613 2 468 540
614 2 469 541
615 2 470 542
616 2 471 543
617 2 472 544
618 2 473 545
619 2 474 546
620 2 475 547
621 2 476 548
622 2 477 549
623 2 478 550
624 2 479 551
625 2 480 552
626 3 481 557
627 3 482 1375
628 3 483 1377
629 3 484 1379
630 3 485 558
631 3 486 553
632 3 487 766
633 3 489 768
634 3 490 554
635 3 491 764
636 3 492 555
637 4 493 510
638 5 493 565
639 4 494 550
640 5 494 566
641 4 495 549
642 5 495 567
643 4 496 516
644 5 496 568
645 4 497 509
646 5 497 569
647 4 498 505
648 5 498 570
649 4 499 511
650 5 499 571
651 4 500 543
652 5 500 572
653 4 501 551
654 5 501 573
655 4 502 542
656 5 502 574
657 4 503 548
658 5 503 575
659 4 504 508
660 5 504 576
661 5 505 577
662 4 506 538
663 5 506 578
664 4 507 536
665 5 507 579
666 5 508 580
667 5 509 581
668 5 510 582
669 5 511 583
670 4 512 539
671 5 512 584
672 4 513 531
673 5 513 585
674 4 514 530
675 5 514 586
676 4 515 537
677 5 515 587
678 5 516 588
679 6 517 565
680 6 517 582
681 6 518 586
682 6 518 590
683 6 519 567
684 6 519 609
685 6 520 568
686 6 520 588
687 3 521 1261
688 6 521 569
689 6 521 581
690 3 522 653
691 6 522 570
692 6 522 577
693 6 523 571
694 6 523 583
695 6 524 572
696 6 524 603
697 6 525 573
698 6 525 611
699 6 526 578
700 6 526 598
701 6 527 584
702 6 527 599
703 6 528 576
704 6 528 580
705 4 529 546
706 5 529 589
707 5 530 590
708 5 531 591
709 4 532 552
710 5 532 592
711 4 533 545
712 5 533 593
713 4 534 541
714 5 534 594
715 4 535 547
716 5 535 595
717 5 536 596
718 5 537 597
719 5 538 598
720 5 539 599
721 4 540 544
722 5 540 600
723 5 541 601
724 5 542 602
725 5 543 603
726 5 544 604
727 5 545 605
728 5 546 606
729 5 547 607
730 5 548 608
731 5 549 609
732 5 550 610
733 5 551 611
734 5 552 612
735 6 553 589
736 6 553 606
737 6 554 566
738 6 554 610
739 6 555 585
740 6 555 591
741 6 556 592
742 6 556 612
743 6 557 593
744 6 557 605
745 6 558 594
746 6 558 601
747 3 559 1298
748 6 559 595
749 6 559 607
750 3 560 695
751 6 560 579
752 6 560 596
753 3 561 1299
754 6 561 587
755 6 561 597
756 3 562 691
757 6 562 574
758 6 562 602
759 3 563 1300
760 6 563 575
761 6 563 608
762 3 564 693
763 6 564 600
764 6 564 604
765 1 568 1226
766 1 571 617
767 1 574 616
768 1 575 1227
769 1 579 617
770 1 580 1227
771 1 587 1226
772 1 588 616
773 1 591 1231
774 1 596 624
775 1 597 1235
776 1 599 621
777 1 602 621
778 1 603 1235
779 1 608 1231
780 1 610 624
781 1 613 769
782 1 613 788
783 1 614 770
784 1 614 1588
785 1 614 785
786 1 614 1607
787 1 615 773
788 1 615 1595
789 1 615 782
790 1 615 1600
791 1 616 774
792 1 616 789
793 1 617 777
794 1 617 781
795 1 618 776
796 1 618 786
797 1 619 793
798 1 619 1611
799 1 619 811
800 1 619 1628
801 1 620 796
802 1 620 809
803 1 621 797
804 1 621 808
805 1 622 798
806 1 622 816
807 1 623 799
808 1 623 1617
809 1 623 805
810 1 623 1623
811 1 624 804
812 1 624 810
813 2 625 697
814 2 626 698
815 2 627 699
816 2 628 700
817 2 629 701
818 2 630 702
819 2 631 703
820 2 632 704
821 2 633 705
822 2 634 706
823 2 635 707
824 2 636 708
825 2 637 709
826 2 638 710
827 2 639 711
828 2 640 712
829 2 641 713
830 2 642 714
831 2 643 715
832 2 644 716
833 2 645 717
834 2 646 718
835 2 647 719
836 2 648 720
837 3 649 1541
838 3 650 727
839 3 651 729
840 3 652 731
841 3 655 730
842 3 656 724
843 3 657 732
844 3 659 728
845 2 661 733
846 2 662 734
847 2 663 735
848 2 664 736
849 2 665 737
850 2 666 738
851 2 667 739
852 2 668 740
853 2 669 741
854 2 670 742
855 2 671 743
856 2 672 744
857 2 673 745
858 2 674 746
859 2 675 747
860 2 676 748
861 2 677 749
862 2 678 750
863 2 679 751
864 2 680 752
865 2 681 753
866 2 682 754
867 2 683 755
868 2 684 756
869 3 685 761
870 3 686 1579
871 3 687 1581
872 3 688 1583
873 3 689 762
874 3 690 757
875 3 694 758
876 3 696 759
877 4 697 714
878 5 697 769
879 4 698 754
880 5 698 770
881 4 699 753
882 5 699 771
883 4 700 720
884 5 700 772
885 4 701 713
886 5 701 773
887 4 702 709
888 5 702 774
889 4 703 715
890 5 703 775
891 4 704 747
892 5 704 776
893 4 705 755
894 5 705 777
895 4 706 746
896 5 706 778
897 4 707 752
898 5 707 779
899 4 708 712
900 5 708 780
901 5 709 781
902 4 710 742
903 5 710 782
904 4 711 740
905 5 711 783
906 5 712 784
907 5 713 785
908 5 714 786
909 5 715 787
910 4 716 743
911 5 716 788
912 4 717 735
913 5 717 789
914 4 718 734
915 5 718 790
916 4 719 741
917 5 719 791
918 5 720 792
919 6 721 769
920 6 721 786
921 6 722 790
922 6 722 794
923 6 723 771
924 6 723 813
925 6 724 772
926 6 724 792
927 3 725 1465
928 6 725 773
929 6 725 785
930 6 726 774
931 6 726 781
932 6 727 775
933 6 727 787
934 6 728 776
935 6 728 807
936 6 729 777
937 6 729 815
938 6 730 782
939 6 730 802
940 6 731 788
941 6 731 803
942 6 732 780
943 6 732 784
944 4 733 750
945 5 733 793
946 5 734 794
947 5 735 795
948 4 736 756
949 5 736 796
950 4 737 749
951 5 737 797
952 4 738 745
953 5 738 798
954 4 739 751
955 5 739 799
956 5 740 800
957 5 741 801
958 5 742 802
959 5 743 803
960 4 744 748
961 5 744 804
962 5 745 805
963 5 746 806
964 5 747 807
965 5 748 808
966 5 749 809
967 5 750 810
968 5 751 811
969 5 752 812
970 5 753 813
971 5 754 814
972 5 755 815
973 5 756 816
974 6 757 793
975 6 757 810
976 6 758 770
977 6 758 814
978 6 759 789
979 6 759 795
980 6 760 796
981 6 760 816
982 6 761 797
983 6 761 809
984 6 762 798
985 6 762 805
986 3 763 1502
987 6 763 799
988 6 763 811
989 6 764 783
990 6 764 800
991 3 765 1503
992 6 765 791
993 6 765 801
994 6 766 778
995 6 766 806
996 3 767 1504
997 6 767 779
998 6 767 812
999 6 768 804
1000 6 768 808
1001 1 772 1430
1002 1 779 1431
1003 1 784 1431
1004 1 791 1430
1005 1 795 1435
1006 1 801 1439
1007 1 807 1439
1008 1 812 1435
1009 1 817 973
1010 1 817 1383
1011 1 817 1399
1012 1 817 992
1013 1 818 974
1014 1 818 989
1015 1 819 977
1016 1 819 986
1017 1 820 978
1018 1 820 1186
1019 1 820 993
1020 1 820 1200
1021 1 821 1183
1022 1 821 981
1023 1 821 985
1024 1 821 1191
1025 1 822 980
1026 1 822 1392
1027 1 822 990
1028 1 822 1402
1029 1 823 997
1030 1 823 1015
1031 1 824 1406
1032 1 824 1000
1033 1 824 1013
1034 1 824 1427
1035 1 825 1001
1036 1 825 1211
1037 1 825 1214
1038 1 825 1012
1039 1 826 1002
1040 1 826 1414
1041 1 826 1425
1042 1 826 1020
1043 1 827 1003
1044 1 827 1009
1045 1 828 1208
1046 1 828 1008
1047 1 828 1014
1048 1 828 1222
1049 2 829 901
1050 2 830 902
1051 2 831 903
1052 2 832 904
1053 2 833 905
1054 2 834 906
1055 2 835 907
1056 2 836 908
1057 2 837 909
1058 2 838 910
1059 2 839 911
1060 2 840 912
1061 2 841 913
1062 2 842 914
1063 2 843 915
1064 2 844 916
1065 2 845 917
1066 2 846 918
1067 2 847 919
1068 2 848 920
1069 2 849 921
1070 2 850 922
1071 2 851 923
1072 2 852 924
1073 3 854 931
1074 3 855 933
1075 3 856 935
1076 3 857 1134
1077 3 858 1333
1078 3 859 934
1079 3 860 928
1080 3 861 936
1081 3 862 1334
1082 3 863 932
1083 3 864 1335
1084 2 865 937
1085 2 866 938
1086 2 867 939
1087 2 868 940
1088 2 869 941
1089 2 870 942
1090 2 871 943
1091 2 872 944
1092 2 873 945
1093 2 874 946
1094 2 875 947
1095 2 876 948
1096 2 877 949
1097 2 878 950
1098 2 879 951
1099 2 880 952
1100 2 881 953
1101 2 882 954
1102 2 883 955
1103 2 884 956
1104 2 885 957
1105 2 886 958
1106 2 887 959
1107 2 888 960
1108 3 889 965
1109 3 893 966
1110 3 894 961
1111 3 895 1174
1112 3 896 1372
1113 3 897 1176
1114 3 898 962
1115 3 899 1172
1116 3 900 963
1117 4 901 918
1118 5 901 973
1119 4 902 958
1120 5 902 974
1121 4 903 957
1122 5 903 975
1123 4 904 924
1124 5 904 976
1125 4 905 917
1126 5 905 977
1127 4 906 913
1128 5 906 978
1129 4 907 919
1130 5 907 979
1131 4 908 951
1132 5 908 980
1133 4 909 959
1134 5 909 981
1135 4 910 950
1136 5 910 982
1137 4 911 956
1138 5 911 983
1139 4 912 916
1140 5 912 984
1141 5 913 985
1142 4 914 946
1143 5 914 986
1144 4 915 944
1145 5 915 987
1146 5 916 988
1147 5 917 989
1148 5 918 990
1149 5 919 991
1150 4 920 947
1151 5 920 992
1152 4 921 939
1153 5 921 993
1154 4 922 938
1155 5 922 994
1156 4 923 945
1157 5 923 995
1158 5 924 996
1159 3 925 1266
1160 6 925 973
1161 6 925 990
1162 3 926 1270
1163 6 926 994
1164 6 926 998
1165 3 927 1272
1166 6 927 975
1167 6 927 1017
1168 6 928 976
1169 6 928 996
1170 6 929 977
1171 6 929 989
1172 3 930 1061
1173 6 930 978
1174 6 930 985
1175 6 931 979
1176 6 931 991
1177 6 932 980
1178 6 932 1011
1179 6 933 981
1180 6 933 1019
1181 6 934 986
1182 6 934 1006
1183 6 935 992
1184 6 935 1007
1185 6 936 984
1186 6 936 988
1187 4 937 954
1188 5 937 997
1189 5 938 998
1190 5 939 999
1191 4 940 960
1192 5 940 1000
1193 4 941 953
1194 5 941 1001
1195 4 942 949
1196 5 942 1002
1197 4 943 955
1198 5 943 1003
1199 5 944 1004
1200 5 945 1005
1201 5 946 1006
1202 5 947 1007
1203 4 948 952
1204 5 948 1008
1205 5 949 1009
1206 5 950 1010
1207 5 951 1011
1208 5 952 1012
1209 5 953 1013
1210 5 954 1014
1211 5 955 1015
1212 5 956 1016
1213 5 957 1017
1214 5 958 1018
1215 5 959 1019
1216 5 960 1020
1217 6 961 997
1218 6 961 1014
1219 6 962 974
1220 6 962 1018
1221 6 963 993
1222 6 963 999
1223 3 964 1304
1224 6 964 1000
1225 6 964 1020
1226 6 965 1001
1227 6 965 1013
1228 6 966 1002
1229 6 966 1009
1230 6 967 1003
1231 6 967 1015
1232 3 968 1103
1233 6 968 987
1234 6 968 1004
1235 6 969 995
1236 6 969 1005
1237 3 970 1099
1238 6 970 982
1239 6 970 1010
1240 6 971 983
1241 6 971 1016
1242 3 972 1101
1243 6 972 1008
1244 6 972 1012
1245 1 975 1225
1246 1 979 1025
1247 1 982 1024
1248 1 984 1230
1249 1 987 1025
1250 1 991 1225
1251 1 994 1230
1252 1 996 1024
1253 1 998 1232
1254 1 1004 1032
1255 1 1006 1234
1256 1 1007 1029
1257 1 1010 1029
1258 1 1017 1234
1259 1 1018 1032
1260 1 1019 1232
1261 1 1021 1177
1262 1 1021 1587
1263 1 1021 1603
1264 1 1021 1196
1265 1 1022 1178
1266 1 1022 1193
1267 1 1023 1181
1268 1 1023 1190
1269 1 1024 1182
1270 1 1024 1197
1271 1 1025 1185
1272 1 1025 1189
1273 1 1026 1184
1274 1 1026 1596
1275 1 1026 1194
1276 1 1026 1606
1277 1 1027 1201
1278 1 1027 1219
1279 1 1028 1610
1280 1 1028 1204
1281 1 1028 1217
1282 1 1028 1631
1283 1 1029 1205
1284 1 1029 1216
1285 1 1030 1206
1286 1 1030 1618
1287 1 1030 1629
1288 1 1030 1224
1289 1 1031 1207
1290 1 1031 1213
1291 1 1032 1212
1292 1 1032 1218
1293 2 1033 1105
1294 2 1034 1106
1295 2 1035 1107
1296 2 1036 1108
1297 2 1037 1109
1298 2 1038 1110
1299 2 1039 1111
1300 2 1040 1112
1301 2 1041 1113
1302 2 1042 1114
1303 2 1043 1115
1304 2 1044 1116
1305 2 1045 1117
1306 2 1046 1118
1307 2 1047 1119
1308 2 1048 1120
1309 2 1049 1121
1310 2 1050 1122
1311 2 1051 1123
1312 2 1052 1124
1313 2 1053 1125
1314 2 1054 1126
1315 2 1055 1127
1316 2 1056 1128
1317 3 1058 1135
1318 3 1059 1137
1319 3 1060 1139
1320 3 1062 1537
1321 3 1063 1138
1322 3 1064 1132
1323 3 1065 1140
1324 3 1066 1538
1325 3 1067 1136
1326 3 1068 1539
1327 2 1069 1141
1328 2 1070 1142
1329 2 1071 1143
1330 2 1072 1144
1331 2 1073 1145
1332 2 1074 1146
1333 2 1075 1147
1334 2 1076 1148
1335 2 1077 1149
1336 2 1078 1150
1337 2 1079 1151
1338 2 1080 1152
1339 2 1081 1153
1340 2 1082 1154
1341 2 1083 1155
1342 2 1084 1156
1343 2 1085 1157
1344 2 1086 1158
1345 2 1087 1159
1346 2 1088 1160
1347 2 1089 1161
1348 2 1090 1162
1349 2 1091 1163
1350 2 1092 1164
1351 3 1093 1169
1352 3 1097 1170
1353 3 1098 1165
1354 3 1100 1576
1355 3 1102 1166
1356 3 1104 1167
1357 4 1105 1122
1358 5 1105 1177
1359 4 1106 1162
1360 5 1106 1178
1361 4 1107 1161
1362 5 1107 1179
1363 4 1108 1128
1364 5 1108 1180
1365 4 1109 1121
1366 5 1109 1181
1367 4 1110 1117
1368 5 1110 1182
1369 4 1111 1123
1370 5 1111 1183
1371 4 1112 1155
1372 5 1112 1184
1373 4 1113 1163
1374 5 1113 1185
1375 4 1114 1154
1376 5 1114 1186
1377 4 1115 1160
1378 5 1115 1187
1379 4 1116 1120
1380 5 1116 1188
1381 5 1117 1189
1382 4 1118 1150
1383 5 1118 1190
1384 4 1119 1148
1385 5 1119 1191
1386 5 1120 1192
1387 5 1121 1193
1388 5 1122 1194
1389 5 1123 1195
1390 4 1124 1151
1391 5 1124 1196
1392 4 1125 1143
1393 5 1125 1197
1394 4 1126 1142
1395 5 1126 1198
1396 4 1127 1149
1397 5 1127 1199
1398 5 1128 1200
1399 3 1129 1470
1400 6 1129 1177
1401 6 1129 1194
1402 3 1130 1474
1403 6 1130 1198
1404 6 1130 1202
1405 3 1131 1476
1406 6 1131 1179
1407 6 1131 1221
1408 6 1132 1180
1409 6 1132 1200
1410 6 1133 1181
1411 6 1133 1193
1412 6 1134 1182
1413 6 1134 1189
1414 6 1135 1183
1415 6 1135 1195
1416 6 1136 1184
1417 6 1136 1215
1418 6 1137 1185
1419 6 1137 1223
1420 6 1138 1190
1421 6 1138 1210
1422 6 1139 1196
1423 6 1139 1211
1424 6 1140 1188
1425 6 1140 1192
1426 4 1141 1158
1427 5 1141 1201
1428 5 1142 1202
1429 5 1143 1203
1430 4 1144 1164
1431 5 1144 1204
1432 4 1145 1157
1433 5 1145 1205
1434 4 1146 1153
1435 5 1146 1206
1436 4 1147 1159
1437 5 1147 1207
1438 5 1148 1208
1439 5 1149 1209
1440 5 1150 1210
1441 5 1151 1211
1442 4 1152 1156
1443 5 1152 1212
1444 5 1153 1213
1445 5 1154 1214
1446 5 1155 1215
1447 5 1156 1216
1448 5 1157 1217
1449 5 1158 1218
1450 5 1159 1219
1451 5 1160 1220
1452 5 1161 1221
1453 5 1162 1222
1454 5 1163 1223
1455 5 1164 1224
1456 6 1165 1201
1457 6 1165 1218
1458 6 1166 1178
1459 6 1166 1222
1460 6 1167 1197
1461 6 1167 1203
1462 3 1168 1508
1463 6 1168 1204
1464 6 1168 1224
1465 6 1169 1205
1466 6 1169 1217
1467 6 1170 1206
1468 6 1170 1213
1469 6 1171 1207
1470 6 1171 1219
1471 6 1172 1191
1472 6 1172 1208
1473 6 1173 1199
1474 6 1173 1209
1475 6 1174 1186
1476 6 1174 1214
1477 6 1175 1187
1478 6 1175 1220
1479 6 1176 1212
1480 6 1176 1216
1481 1 1179 1429
1482 1 1188 1434
1483 1 1195 1429
1484 1 1198 1434
1485 1 1202 1436
1486 1 1210 1438
1487 1 1221 1438
1488 1 1223 1436
1489 1 1225 1381
1490 1 1225 1400
1491 1 1226 1382
1492 1 1226 1397
1493 1 1227 1385
1494 1 1227 1394
1495 1 1228 1386
1496 1 1228 1594
1497 1 1228 1401
1498 1 1228 1608
1499 1 1229 1591
1500 1 1229 1389
1501 1 1229 1393
1502 1 1229 1599
1503 1 1230 1388
1504 1 1230 1398
1505 1 1231 1405
1506 1 1231 1423
1507 1 1232 1408
1508 1 1232 1421
1509 1 1233 1409
1510 1 1233 1619
1511 1 1233 1622
1512 1 1233 1420
1513 1 1234 1410
1514 1 1234 1428
1515 1 1235 1411
1516 1 1235 1417
1517 1 1236 1616
1518 1 1236 1416
1519 1 1236 1422
1520 1 1236 1630
1521 2 1237 1309
1522 2 1238 1310
1523 2 1239 1311
1524 2 1240 1312
1525 2 1241 1313
1526 2 1242 1314
1527 2 1243 1315
1528 2 1244 1316
1529 2 1245 1317
1530 2 1246 1318
1531 2 1247 1319
1532 2 1248 1320
1533 2 1249 1321
1534 2 1250 1322
1535 2 1251 1323
1536 2 1252 1324
1537 2 1253 1325
1538 2 1254 1326
1539 2 1255 1327
1540 2 1256 1328
1541 2 1257 1329
1542 2 1258 1330
1543 2 1259 1331
1544 2 1260 1332
1545 3 1262 1339
1546 3 1263 1341
1547 3 1264 1343
1548 3 1265 1542
1549 3 1267 1342
1550 3 1268 1336
1551 3 1269 1344
1552 3 1271 1340
1553 2 1273 1345
1554 2 1274 1346
1555 2 1275 1347
1556 2 1276 1348
1557 2 1277 1349
1558 2 1278 1350
1559 2 1279 1351
1560 2 1280 1352
1561 2 1281 1353
1562 2 1282 1354
1563 2 1283 1355
1564 2 1284 1356
1565 2 1285 1357
1566 2 1286 1358
1567 2 1287 1359
1568 2 1288 1360
1569 2 1289 1361
1570 2 1290 1362
1571 2 1291 1363
1572 2 1292 1364
1573 2 1293 1365
1574 2 1294 1366
1575 2 1295 1367
1576 2 1296 1368
1577 3 1297 1373
1578 3 1301 1374
1579 3 1302 1369
1580 3 1303 1582
1581 3 1305 1584
1582 3 1306 1370
1583 3 1307 1580
1584 3 1308 1371
1585 4 1309 1326
1586 5 1309 1381
1587 4 1310 1366
1588 5 1310 1382
1589 4 1311 1365
1590 5 1311 1383
1591 4 1312 1332
1592 5 1312 1384
1593 4 1313 1325
1594 5 1313 1385
1595 4 1314 1321
1596 5 1314 1386
1597 4 1315 1327
1598 5 1315 1387
1599 4 1316 1359
1600 5 1316 1388
1601 4 1317 1367
1602 5 1317 1389
1603 4 1318 1358
1604 5 1318 1390
1605 4 1319 1364
1606 5 1319 1391
1607 4 1320 1324
1608 5 1320 1392
1609 5 1321 1393
1610 4 1322 1354
1611 5 1322 1394
1612 4 1323 1352
1613 5 1323 1395
1614 5 1324 1396
1615 5 1325 1397
1616 5 1326 1398
1617 5 1327 1399
1618 4 1328 1355
1619 5 1328 1400
1620 4 1329 1347
1621 5 1329 1401
1622 4 1330 1346
1623 5 1330 1402
1624 4 1331 1353
1625 5 1331 1403
1626 5 1332 1404
1627 6 1333 1381
1628 6 1333 1398
1629 6 1334 1402
1630 6 1334 1406
1631 6 1335 1383
1632 6 1335 1425
1633 6 1336 1384
1634 6 1336 1404
1635 6 1337 1385
1636 6 1337 1397
1637 3 1338 1469
1638 6 1338 1386
1639 6 1338 1393
1640 6 1339 1387
1641 6 1339 1399
1642 6 1340 1388
1643 6 1340 1419
1644 6 1341 1389
1645 6 1341 1427
1646 6 1342 1394
1647 6 1342 1414
1648 6 1343 1400
1649 6 1343 1415
1650 6 1344 1392
1651 6 1344 1396
1652 4 1345 1362
1653 5 1345 1405
1654 5 1346 1406
1655 5 1347 1407
1656 4 1348 1368
1657 5 1348 1408
1658 4 1349 1361
1659 5 1349 1409
1660 4 1350 1357
1661 5 1350 1410
1662 4 1351 1363
1663 5 1351 1411
1664 5 1352 1412
1665 5 1353 1413
1666 5 1354 1414
1667 5 1355 1415
1668 4 1356 1360
1669 5 1356 1416
1670 5 1357 1417
1671 5 1358 1418
1672 5 1359 1419
1673 5 1360 1420
1674 5 1361 1421
1675 5 1362 1422
1676 5 1363 1423
1677 5 1364 1424
1678 5 1365 1425
1679 5 1366 1426
1680 5 1367 1427
1681 5 1368 1428
1682 6 1369 1405
1683 6 1369 1422
1684 6 1370 1382
1685 6 1370 1426
1686 6 1371 1401
1687 6 1371 1407
1688 6 1372 1408
1689 6 1372 1428
1690 6 1373 1409
1691 6 1373 1421
1692 6 1374 1410
1693 6 1374 1417
1694 6 1375 1411
1695 6 1375 1423
1696 3 1376 1511
1697 6 1376 1395
1698 6 1376 1412
1699 6 1377 1403
1700 6 1377 1413
1701 3 1378 1507
1702 6 1378 1390
1703 6 1378 1418
1704 6 1379 1391
1705 6 1379 1424
1706 3 1380 1509
1707 6 1380 1416
1708 6 1380 1420
1709 1 1387 1433
1710 1 1390 1432
1711 1 1395 1433
1712 1 1404 1432
1713 1 1412 1440
1714 1 1415 1437
1715 1 1418 1437
1716 1 1426 1440
1717 1 1429 1585
1718 1 1429 1604
1719 1 1430 1586
1720 1 1430 1601
1721 1 1431 1589
1722 1 1431 1598
1723 1 1432 1590
1724 1 1432 1605
1725 1 1433 1593
1726 1 1433 1597
1727 1 1434 1592
1728 1 1434 1602
1729 1 1435 1609
1730 1 1435 1627
1731 1 1436 1612
1732 1 1436 1625
1733 1 1437 1613
1734 1 1437 1624
1735 1 1438 1614
1736 1 1438 1632
1737 1 1439 1615
1738 1 1439 1621
1739 1 1440 1620
1740 1 1440 1626
1741 2 1441 1513
1742 2 1442 1514
1743 2 1443 1515
1744 2 1444 1516
1745 2 1445 1517
1746 2 1446 1518
1747 2 1447 1519
1748 2 1448 1520
1749 2 1449 1521
1750 2 1450 1522
1751 2 1451 1523
1752 2 1452 1524
1753 2 1453 1525
1754 2 1454 1526
1755 2 1455 1527
1756 2 1456 1528
1757 2 1457 1529
1758 2 1458 1530
1759 2 1459 1531
1760 2 1460 1532
1761 2 1461 1533
1762 2 1462 1534
1763 2 1463 1535
1764 2 1464 1536
1765 3 1466 1543
1766 3 1467 1545
1767 3 1468 1547
1768 3 1471 1546
1769 3 1472 1540
1770 3 1473 1548
1771 3 1475 1544
1772 2 1477 1549
1773 2 1478 1550
1774 2 1479 1551
1775 2 1480 1552
1776 2 1481 1553
1777 2 1482 1554
1778 2 1483 1555
1779 2 1484 1556
1780 2 1485 1557
1781 2 1486 1558
1782 2 1487 1559
1783 2 1488 1560
1784 2 1489 1561
1785 2 1490 1562
1786 2 1491 1563
1787 2 1492 1564
1788 2 1493 1565
1789 2 1494 1566
1790 2 1495 1567
1791 2 1496 1568
1792 2 1497 1569
1793 2 1498 1570
1794 2 1499 1571
1795 2 1500 1572
1796 3 1501 1577
1797 3 1505 1578
1798 3 1506 1573
1799 3 1510 1574
1800 3 1512 1575
1801 4 1513 1530
1802 5 1513 1585
1803 4 1514 1570
1804 5 1514 1586
1805 4 1515 1569
1806 5 1515 1587
1807 4 1516 1536
1808 5 1516 1588
1809 4 1517 1529
1810 5 1517 1589
1811 4 1518 1525
1812 5 1518 1590
1813 4 1519 1531
1814 5 1519 1591
1815 4 1520 1563
1816 5 1520 1592
1817 4 1521 1571
1818 5 1521 1593
1819 4 1522 1562
1820 5 1522 1594
1821 4 1523 1568
1822 5 1523 1595
1823 4 1524 1528
1824 5 1524 1596
1825 5 1525 1597
1826 4 1526 1558
1827 5 1526 1598
1828 4 1527 1556
1829 5 1527 1599
1830 5 1528 1600
1831 5 1529 1601
1832 5 1530 1602
1833 5 1531 1603
1834 4 1532 1559
1835 5 1532 1604
1836 4 1533 1551
1837 5 1533 1605
1838 4 1534 1550
1839 5 1534 1606
1840 4 1535 1557
1841 5 1535 1607
1842 5 1536 1608
1843 6 1537 1585
1844 6 1537 1602
1845 6 1538 1606
1846 6 1538 1610
1847 6 1539 1587
1848 6 1539 1629
1849 6 1540 1588
1850 6 1540 1608
1851 6 1541 1589
1852 6 1541 1601
1853 6 1542 1590
1854 6 1542 1597
1855 6 1543 1591
1856 6 1543 1603
1857 6 1544 1592
1858 6 1544 1623
1859 6 1545 1593
1860 6 1545 1631
1861 6 1546 1598
1862 6 1546 1618
1863 6 1547 1604
1864 6 1547 1619
1865 6 1548 1596
1866 6 1548 1600
1867 4 1549 1566
1868 5 1549 1609
1869 5 1550 1610
1870 5 1551 1611
1871 4 1552 1572
1872 5 1552 1612
1873 4 1553 1565
1874 5 1553 1613
1875 4 1554 1561
1876 5 1554 1614
1877 4 1555 1567
1878 5 1555 1615
1879 5 1556 1616
1880 5 1557 1617
1881 5 1558 1618
1882 5 1559 1619
1883 4 1560 1564
1884 5 1560 1620
1885 5 1561 1621
1886 5 1562 1622
1887 5 1563 1623
1888 5 1564 1624
1889 5 1565 1625
1890 5 1566 1626
1891 5 1567 1627
1892 5 1568 1628
1893 5 1569 1629
1894 5 1570 1630
1895 5 1571 1631
1896 5 1572 1632
1897 6 1573 1609
1898 6 1573 1626
1899 6 1574 1586
1900 6 1574 1630
1901 6 1575 1605
1902 6 1575 1611
1903 6 1576 1612
1904 6 1576 1632
1905 6 1577 1613
1906 6 1577 1625
1907 6 1578 1614
1908 6 1578 1621
1909 6 1579 1615
1910 6 1579 1627
1911 6 1580 1599
1912 6 1580 1616
1913 6 1581 1607
1914 6 1581 1617
1915 6 1582 1594
1916 6 1582 1622
1917 6 1583 1595
1918 6 1583 1628
1919 6 1584 1620
1920 6 1584 1624

Angles

1 1 157 1 567
2 1 157 1 583
3 1 157 1 176
4 1 567 1 583
5 1 176 1 567
6 1 176 1 583
7 1 158 2 976
8 1 158 2 173
9 1 158 2 995
10 1 173 2 976
11 1 976 2 995
12 1 173 2 995
13 1 161 3 983
14 1 161 3 170
15 1 161 3 988
16 1 170 3 983
17 1 983 3 988
18 1 170 3 988
19 1 162 4 370
20 1 162 4 177
21 1 162 4 384
22 1 177 4 370
23 1 370 4 384
24 1 177 4 384
25 1 165 5 367
26 1 169 5 367
27 1 367 5 375
28 1 165 5 169
29 1 165 5 375
30 1 169 5 375
31 1 164 6 576
32 1 164 6 174
33 1 164 6 586
34 1 174 6 576
35 1 576 6 586
36 1 174 6 586
37 1 181 7 999
38 1 181 7 199
39 1 181 7 1016
40 1 199 7 999
41 1 999 7 1016
42 1 199 7 1016
43 1 184 8 590
44 1 197 8 590
45 1 590 8 611
46 1 184 8 197
47 1 184 8 611
48 1 197 8 611
49 1 185 9 395
50 1 185 9 398
51 1 185 9 196
52 1 395 9 398
53 1 196 9 395
54 1 196 9 398
55 1 186 10 598
56 1 186 10 609
57 1 186 10 204
58 1 598 10 609
59 1 204 10 598
60 1 204 10 609
61 1 187 11 1005
62 1 187 11 193
63 1 187 11 1011
64 1 193 11 1005
65 1 1005 11 1011
66 1 193 11 1011
67 1 192 12 392
68 1 198 12 392
69 1 392 12 406
70 1 192 12 198
71 1 192 12 406
72 1 198 12 406
73 2 102 85 13
74 3 13 85 157
75 4 102 85 157
76 2 142 86 14
77 3 14 86 158
78 4 142 86 158
79 2 141 87 15
80 3 15 87 159
81 4 141 87 159
82 2 108 88 16
83 3 16 88 160
84 4 108 88 160
85 2 101 89 17
86 3 17 89 161
87 4 101 89 161
88 2 97 90 18
89 3 18 90 162
90 4 97 90 162
91 2 103 91 19
92 3 19 91 163
93 4 103 91 163
94 2 135 92 20
95 3 20 92 164
96 4 135 92 164
97 2 143 93 21
98 3 21 93 165
99 4 143 93 165
100 2 134 94 22
101 3 22 94 166
102 4 134 94 166
103 2 140 95 23
104 3 23 95 167
105 4 140 95 167
106 2 100 96 24
107 3 24 96 168
108 4 100 96 168
109 2 90 97 25
110 3 25 97 169
111 4 90 97 169
112 2 130 98 26
113 3 26 98 170
114 4 130 98 170
115 2 128 99 27
116 3 27 99 171
117 4 128 99 171
118 2 96 100 28
119 3 28 100 172
120 4 96 100 172
121 2 89 101 29
122 3 29 101 173
123 4 89 101 173
124 2 85 102 30
125 3 30 102 174
126 4 85 102 174
127 2 91 103 31
128 3 31 103 175
129 4 91 103 175
130 2 131 104 32
131 3 32 104 176
132 4 131 104 176
133 2 123 105 33
134 3 33 105 177
135 4 123 105 177
136 2 122 106 34
137 3 34 106 178
138 4 122 106 178
139 2 129 107 35
140 3 35 107 179
141 4 129 107 179
142 2 88 108 36
143 3 36 108 180
144 4 88 108 180
145 5 450 109 157
146 5 450 109 174
147 6 157 109 174
148 5 454 110 178
149 5 454 110 182
150 6 178 110 182
151 5 456 111 159
152 5 456 111 201
153 6 159 111 201
154 5 44 112 160
155 5 44 112 180
156 6 160 112 180
157 5 853 113 161
158 5 853 113 173
159 6 161 113 173
160 5 245 114 162
161 5 245 114 169
162 6 162 114 169
163 5 38 115 163
164 5 38 115 175
165 6 163 115 175
166 5 47 116 164
167 5 47 116 195
168 6 164 116 195
169 5 39 117 165
170 5 39 117 203
171 6 165 117 203
172 5 43 118 170
173 5 43 118 190
174 6 170 118 190
175 5 40 119 176
176 5 40 119 191
177 6 176 119 191
178 5 45 120 168
179 5 45 120 172
180 6 168 120 172
181 2 138 121 49
182 3 49 121 181
183 4 138 121 181
184 2 106 122 50
185 3 50 122 182
186 4 106 122 182
187 2 105 123 51
188 3 51 123 183
189 4 105 123 183
190 2 144 124 52
191 3 52 124 184
192 4 144 124 184
193 2 137 125 53
194 3 53 125 185
195 4 137 125 185
196 2 133 126 54
197 3 54 126 186
198 4 133 126 186
199 2 139 127 55
200 3 55 127 187
201 4 139 127 187
202 2 99 128 56
203 3 56 128 188
204 4 99 128 188
205 2 107 129 57
206 3 57 129 189
207 4 107 129 189
208 2 98 130 58
209 3 58 130 190
210 4 98 130 190
211 2 104 131 59
212 3 59 131 191
213 4 104 131 191
214 2 136 132 60
215 3 60 132 192
216 4 136 132 192
217 2 126 133 61
218 3 61 133 193
219 4 126 133 193
220 2 94 134 62
221 3 62 134 194
222 4 94 134 194
223 2 92 135 63
224 3 63 135 195
225 4 92 135 195
226 2 132 136 64
227 3 64 136 196
228 4 132 136 196
229 2 125 137 65
230 3 65 137 197
231 4 125 137 197
232 2 121 138 66
233 3 66 138 198
234 4 121 138 198
235 2 127 139 67
236 3 67 139 199
237 4 127 139 199
238 2 95 140 68
239 3 68 140 200
240 4 95 140 200
241 2 87 141 69
242 3 69 141 201
243 4 87 141 201
244 2 86 142 70
245 3 70 142 202
246 4 86 142 202
247 2 93 143 71
248 3 71 143 203
249 4 93 143 203
250 2 124 144 72
251 3 72 144 204
252 4 124 144 204
253 5 78 145 181
254 5 78 145 198
255 6 181 145 198
256 5 82 146 158
257 5 82 146 202
258 6 158 146 202
259 5 84 147 177
260 5 84 147 183
261 6 177 147 183
262 5 488 148 184
263 5 488 148 204
264 6 184 148 204
265 5 73 149 185
266 5 73 149 197
267 6 185 149 197
268 5 77 150 186
269 5 77 150 193
270 6 186 150 193
271 5 890 151 187
272 5 890 151 199
273 6 187 151 199
274 5 287 152 171
275 5 287 152 188
276 6 171 152 188
277 5 891 153 179
278 5 891 153 189
279 6 179 153 189
280 5 283 154 166
281 5 283 154 194
282 6 166 154 194
283 5 892 155 167
284 5 892 155 200
285 6 167 155 200
286 5 285 156 192
287 5 285 156 196
288 6 192 156 196
289 7 85 157 1
290 8 109 157 1
291 9 85 157 109
292 7 86 158 2
293 8 146 158 2
294 9 86 158 146
295 7 87 159 409
296 8 111 159 409
297 9 87 159 111
298 7 88 160 818
299 8 112 160 818
300 9 88 160 112
301 7 89 161 3
302 8 113 161 3
303 9 89 161 113
304 7 90 162 4
305 8 114 162 4
306 9 90 162 114
307 7 91 163 209
308 8 115 163 209
309 9 91 163 115
310 7 92 164 6
311 8 116 164 6
312 9 92 164 116
313 7 93 165 5
314 8 117 165 5
315 9 93 165 117
316 7 94 166 208
317 8 154 166 208
318 9 94 166 154
319 7 95 167 819
320 8 155 167 819
321 9 95 167 155
322 7 96 168 414
323 8 120 168 414
324 9 96 168 120
325 7 97 169 5
326 8 114 169 5
327 9 97 169 114
328 7 98 170 3
329 8 118 170 3
330 9 98 170 118
331 7 99 171 209
332 8 152 171 209
333 9 99 171 152
334 7 100 172 819
335 8 120 172 819
336 9 100 172 120
337 7 101 173 2
338 8 113 173 2
339 9 101 173 113
340 7 102 174 6
341 8 109 174 6
342 9 102 174 109
343 7 103 175 409
344 8 115 175 409
345 9 103 175 115
346 7 104 176 1
347 8 119 176 1
348 9 104 176 119
349 7 105 177 4
350 8 147 177 4
351 9 105 177 147
352 7 106 178 414
353 8 110 178 414
354 9 106 178 110
355 7 107 179 818
356 8 153 179 818
357 9 107 179 153
358 7 108 180 208
359 8 112 180 208
360 9 108 180 112
361 7 121 181 7
362 8 145 181 7
363 9 121 181 145
364 8 110 182 416
365 7 122 182 416
366 9 122 182 110
367 7 123 183 823
368 8 147 183 823
369 9 123 183 147
370 7 124 184 8
371 8 148 184 8
372 9 124 184 148
373 7 125 185 9
374 8 149 185 9
375 9 125 185 149
376 7 126 186 10
377 8 150 186 10
378 9 126 186 150
379 7 127 187 11
380 8 151 187 11
381 9 127 187 151
382 7 128 188 216
383 8 152 188 216
384 9 128 188 152
385 7 129 189 827
386 8 153 189 827
387 9 129 189 153
388 8 118 190 418
389 7 130 190 418
390 9 130 190 118
391 8 119 191 213
392 7 131 191 213
393 9 131 191 119
394 7 132 192 12
395 8 156 192 12
396 9 132 192 156
397 7 133 193 11
398 8 150 193 11
399 9 133 193 150
400 7 134 194 213
401 8 154 194 213
402 9 134 194 154
403 8 116 195 827
404 7 135 195 827
405 9 135 195 116
406 7 136 196 9
407 8 156 196 9
408 9 136 196 156
409 7 137 197 8
410 8 149 197 8
411 9 137 197 149
412 7 138 198 12
413 8 145 198 12
414 9 138 198 145
415 7 139 199 7
416 8 151 199 7
417 9 139 199 151
418 7 140 200 823
419 8 155 200 823
420 9 140 200 155
421 8 111 201 418
422 7 141 201 418
423 9 141 201 111
424 7 142 202 216
425 8 146 202 216
426 9 142 202 146
427 8 117 203 416
428 7 143 203 416
429 9 143 203 117
430 7 144 204 10
431 8 148 204 10
432 9 144 204 148
433 1 361 205 771
434 1 361 205 787
435 1 361 205 380
436 1 771 205 787
437 1 380 205 771
438 1 380 205 787
439 1 362 206 1180
440 1 362 206 377
441 1 362 206 1199
442 1 377 206 1180
443 1 1180 206 1199
444 1 377 206 1199
445 1 365 207 1187
446 1 365 207 374
447 1 365 207 1192
448 1 374 207 1187
449 1 1187 207 1192
450 1 374 207 1192
451 1 166 208 366
452 1 366 208 381
453 1 180 208 366
454 1 166 208 381
455 1 166 208 180
456 1 180 208 381
457 1 163 209 369
458 1 163 209 373
459 1 163 209 171
460 1 369 209 373
461 1 171 209 369
462 1 171 209 373
463 1 368 210 780
464 1 368 210 378
465 1 368 210 790
466 1 378 210 780
467 1 780 210 790
468 1 378 210 790
469 1 385 211 1203
470 1 385 211 403
471 1 385 211 1220
472 1 403 211 1203
473 1 1203 211 1220
474 1 403 211 1220
475 1 388 212 794
476 1 401 212 794
477 1 794 212 815
478 1 388 212 401
479 1 388 212 815
480 1 401 212 815
481 1 191 213 389
482 1 194 213 389
483 1 389 213 400
484 1 191 213 194
485 1 191 213 400
486 1 194 213 400
487 1 390 214 802
488 1 390 214 813
489 1 390 214 408
490 1 802 214 813
491 1 408 214 802
492 1 408 214 813
493 1 391 215 1209
494 1 391 215 397
495 1 391 215 1215
496 1 397 215 1209
497 1 1209 215 1215
498 1 397 215 1215
499 1 188 216 396
500 1 188 216 402
501 1 188 216 202
502 1 396 216 402
503 1 202 216 396
504 1 202 216 402
505 2 306 289 217
506 3 217 289 361
507 4 306 289 361
508 2 346 290 218
509 3 218 290 362
510 4 346 290 362
511 2 345 291 219
512 3 219 291 363
513 4 345 291 363
514 2 312 292 220
515 3 220 292 364
516 4 312 292 364
517 2 305 293 221
518 3 221 293 365
519 4 305 293 365
520 2 301 294 222
521 3 222 294 366
522 4 301 294 366
523 2 307 295 223
524 3 223 295 367
525 4 307 295 367
526 2 339 296 224
527 3 224 296 368
528 4 339 296 368
529 2 347 297 225
530 3 225 297 369
531 4 347 297 369
532 2 338 298 226
533 3 226 298 370
534 4 338 298 370
535 2 344 299 227
536 3 227 299 371
537 4 344 299 371
538 2 304 300 228
539 3 228 300 372
540 4 304 300 372
541 2 294 301 229
542 3 229 301 373
543 4 294 301 373
544 2 334 302 230
545 3 230 302 374
546 4 334 302 374
547 2 332 303 231
548 3 231 303 375
549 4 332 303 375
550 2 300 304 232
551 3 232 304 376
552 4 300 304 376
553 2 293 305 233
554 3 233 305 377
555 4 293 305 377
556 2 289 306 234
557 3 234 306 378
558 4 289 306 378
559 2 295 307 235
560 3 235 307 379
561 4 295 307 379
562 2 335 308 236
563 3 236 308 380
564 4 335 308 380
565 2 327 309 237
566 3 237 309 381
567 4 327 309 381
568 2 326 310 238
569 3 238 310 382
570 4 326 310 382
571 2 333 311 239
572 3 239 311 383
573 4 333 311 383
574 2 292 312 240
575 3 240 312 384
576 4 292 312 384
577 5 654 313 361
578 5 654 313 378
579 6 361 313 378
580 5 658 314 382
581 5 658 314 386
582 6 382 314 386
583 5 660 315 363
584 5 660 315 405
585 6 363 315 405
586 5 248 316 364
587 5 248 316 384
588 6 364 316 384
589 5 1057 317 365
590 5 1057 317 377
591 6 365 317 377
592 5 41 318 366
593 5 41 318 373
594 6 366 318 373
595 5 242 319 367
596 5 242 319 379
597 6 367 319 379
598 5 251 320 368
599 5 251 320 399
600 6 368 320 399
601 5 243 321 369
602 5 243 321 407
603 6 369 321 407
604 5 247 322 374
605 5 247 322 394
606 6 374 322 394
607 5 244 323 380
608 5 244 323 395
609 6 380 323 395
610 5 249 324 372
611 5 249 324 376
612 6 372 324 376
613 2 342 325 253
614 3 253 325 385
615 4 342 325 385
616 2 310 326 254
617 3 254 326 386
618 4 310 326 386
619 2 309 327 255
620 3 255 327 387
621 4 309 327 387
622 2 348 328 256
623 3 256 328 388
624 4 348 328 388
625 2 341 329 257
626 3 257 329 389
627 4 341 329 389
628 2 337 330 258
629 3 258 330 390
630 4 337 330 390
631 2 343 331 259
632 3 259 331 391
633 4 343 331 391
634 2 303 332 260
635 3 260 332 392
636 4 303 332 392
637 2 311 333 261
638 3 261 333 393
639 4 311 333 393
640 2 302 334 262
641 3 262 334 394
642 4 302 334 394
643 2 308 335 263
644 3 263 335 395
645 4 308 335 395
646 2 340 336 264
647 3 264 336 396
648 4 340 336 396
649 2 330 337 265
650 3 265 337 397
651 4 330 337 397
652 2 298 338 266
653 3 266 338 398
654 4 298 338 398
655 2 296 339 267
656 3 267 339 399
657 4 296 339 399
658 2 336 340 268
659 3 268 340 400
660 4 336 340 400
661 2 329 341 269
662 3 269 341 401
663 4 329 341 401
664 2 325 342 270
665 3 270 342 402
666 4 325 342 402
667 2 331 343 271
668 3 271 343 403
669 4 331 343 403
670 2 299 344 272
671 3 272 344 404
672 4 299 344 404
673 2 291 345 273
674 3 273 345 405
675 4 291 345 405
676 2 290 346 274
677 3 274 346 406
678 4 290 346 406
679 2 297 347 275
680 3 275 347 407
681 4 297 347 407
682 2 328 348 276
683 3 276 348 408
684 4 328 348 408
685 5 282 349 385
686 5 282 349 402
687 6 385 349 402
688 5 286 350 362
689 5 286 350 406
690 6 362 350 406
691 5 288 351 381
692 5 288 351 387
693 6 381 351 387
694 5 692 352 388
695 5 692 352 408
696 6 388 352 408
697 5 277 353 389
698 5 277 353 401
699 6 389 353 401
700 5 281 354 390
701 5 281 354 397
702 6 390 354 397
703 5 1094 355 391
704 5 1094 355 403
705 6 391 355 403
706 5 83 356 375
707 5 83 356 392
708 6 375 356 392
709 5 1095 357 383
710 5 1095 357 393
711 6 383 357 393
712 5 79 358 370
713 5 79 358 398
714 6 370 358 398
715 5 1096 359 371
716 5 1096 359 404
717 6 371 359 404
718 5 81 360 396
719 5 81 360 400
720 6 396 360 400
721 7 289 361 205
722 8 313 361 205
723 9 289 361 313
724 7 290 362 206
725 8 350 362 206
726 9 290 362 350
727 7 291 363 613
728 8 315 363 613
729 9 291 363 315
730 7 292 364 1022
731 8 316 364 1022
732 9 292 364 316
733 7 293 365 207
734 8 317 365 207
735 9 293 365 317
736 7 294 366 208
737 8 318 366 208
738 9 294 366 318
739 7 295 367 5
740 8 319 367 5
741 9 295 367 319
742 7 296 368 210
743 8 320 368 210
744 9 296 368 320
745 7 297 369 209
746 8 321 369 209
747 9 297 369 321
748 7 298 370 4
749 8 358 370 4
750 9 298 370 358
751 7 299 371 1023
752 8 359 371 1023
753 9 299 371 359
754 7 300 372 618
755 8 324 372 618
756 9 300 372 324
757 7 301 373 209
758 8 318 373 209
759 9 301 373 318
760 7 302 374 207
761 8 322 374 207
762 9 302 374 322
763 7 303 375 5
764 8 356 375 5
765 9 303 375 356
766 7 304 376 1023
767 8 324 376 1023
768 9 304 376 324
769 7 305 377 206
770 8 317 377 206
771 9 305 377 317
772 7 306 378 210
773 8 313 378 210
774 9 306 378 313
775 7 307 379 613
776 8 319 379 613
777 9 307 379 319
778 7 308 380 205
779 8 323 380 205
780 9 308 380 323
781 7 309 381 208
782 8 351 381 208
783 9 309 381 351
784 7 310 382 618
785 8 314 382 618
786 9 310 382 314
787 7 311 383 1022
788 8 357 383 1022
789 9 311 383 357
790 7 312 384 4
791 8 316 384 4
792 9 312 384 316
793 7 325 385 211
794 8 349 385 211
795 9 325 385 349
796 8 314 386 620
797 7 326 386 620
798 9 326 386 314
799 7 327 387 1027
800 8 351 387 1027
801 9 327 387 351
802 7 328 388 212
803 8 352 388 212
804 9 328 388 352
805 7 329 389 213
806 8 353 389 213
807 9 329 389 353
808 7 330 390 214
809 8 354 390 214
810 9 330 390 354
811 7 331 391 215
812 8 355 391 215
813 9 331 391 355
814 7 332 392 12
815 8 356 392 12
816 9 332 392 356
817 7 333 393 1031
818 8 357 393 1031
819 9 333 393 357
820 8 322 394 622
821 7 334 394 622
822 9 334 394 322
823 8 323 395 9
824 7 335 395 9
825 9 335 395 323
826 7 336 396 216
827 8 360 396 216
828 9 336 396 360
829 7 337 397 215
830 8 354 397 215
831 9 337 397 354
832 7 338 398 9
833 8 358 398 9
834 9 338 398 358
835 8 320 399 1031
836 7 339 399 1031
837 9 339 399 320
838 7 340 400 213
839 8 360 400 213
840 9 340 400 360
841 7 341 401 212
842 8 353 401 212
843 9 341 401 353
844 7 342 402 216
845 8 349 402 216
846 9 342 402 349
847 7 343 403 211
848 8 355 403 211
849 9 343 403 355
850 7 344 404 1027
851 8 359 404 1027
852 9 344 404 359
853 8 315 405 622
854 7 345 405 622
855 9 345 405 315
856 7 346 406 12
857 8 350 406 12
858 9 346 406 350
859 8 321 407 620
860 7 347 407 620
861 9 347 407 321
862 7 348 408 214
863 8 352 408 214
864 9 348 408 352
865 1 159 409 565
866 1 175 409 565
867 1 565 409 584
868 1 159 409 175
869 1 159 409 584
870 1 175 409 584
871 1 566 410 1384
872 1 566 410 581
873 1 566 410 1403
874 1 581 410 1384
875 1 1384 410 1403
876 1 581 410 1403
877 1 569 411 1391
878 1 569 411 578
879 1 569 411 1396
880 1 578 411 1391
881 1 1391 411 1396
882 1 578 411 1396
883 1 570 412 778
884 1 570 412 585
885 1 570 412 792
886 1 585 412 778
887 1 778 412 792
888 1 585 412 792
889 1 573 413 775
890 1 577 413 775
891 1 775 413 783
892 1 573 413 577
893 1 573 413 783
894 1 577 413 783
895 1 168 414 572
896 1 572 414 582
897 1 178 414 572
898 1 168 414 582
899 1 168 414 178
900 1 178 414 582
901 1 589 415 1407
902 1 589 415 607
903 1 589 415 1424
904 1 607 415 1407
905 1 1407 415 1424
906 1 607 415 1424
907 1 182 416 592
908 1 182 416 605
909 1 182 416 203
910 1 592 416 605
911 1 203 416 592
912 1 203 416 605
913 1 593 417 803
914 1 593 417 806
915 1 593 417 604
916 1 803 417 806
917 1 604 417 803
918 1 604 417 806
919 1 190 418 594
920 1 201 418 594
921 1 594 418 612
922 1 190 418 201
923 1 190 418 612
924 1 201 418 612
925 1 595 419 1413
926 1 595 419 601
927 1 595 419 1419
928 1 601 419 1413
929 1 1413 419 1419
930 1 601 419 1419
931 1 600 420 800
932 1 606 420 800
933 1 800 420 814
934 1 600 420 606
935 1 600 420 814
936 1 606 420 814
937 2 510 493 421
938 3 421 493 565
939 4 510 493 565
940 2 550 494 422
941 3 422 494 566
942 4 550 494 566
943 2 549 495 423
944 3 423 495 567
945 4 549 495 567
946 2 516 496 424
947 3 424 496 568
948 4 516 496 568
949 2 509 497 425
950 3 425 497 569
951 4 509 497 569
952 2 505 498 426
953 3 426 498 570
954 4 505 498 570
955 2 511 499 427
956 3 427 499 571
957 4 511 499 571
958 2 543 500 428
959 3 428 500 572
960 4 543 500 572
961 2 551 501 429
962 3 429 501 573
963 4 551 501 573
964 2 542 502 430
965 3 430 502 574
966 4 542 502 574
967 2 548 503 431
968 3 431 503 575
969 4 548 503 575
970 2 508 504 432
971 3 432 504 576
972 4 508 504 576
973 2 498 505 433
974 3 433 505 577
975 4 498 505 577
976 2 538 506 434
977 3 434 506 578
978 4 538 506 578
979 2 536 507 435
980 3 435 507 579
981 4 536 507 579
982 2 504 508 436
983 3 436 508 580
984 4 504 508 580
985 2 497 509 437
986 3 437 509 581
987 4 497 509 581
988 2 493 510 438
989 3 438 510 582
990 4 493 510 582
991 2 499 511 439
992 3 439 511 583
993 4 499 511 583
994 2 539 512 440
995 3 440 512 584
996 4 539 512 584
997 2 531 513 441
998 3 441 513 585
999 4 531 513 585
1000 2 530 514 442
1001 3 442 514 586
1002 4 530 514 586
1003 2 537 515 443
1004 3 443 515 587
1005 4 537 515 587
1006 2 496 516 444
1007 3 444 516 588
1008 4 496 516 588
1009 5 42 517 565
1010 5 42 517 582
1011 6 565 517 582
1012 5 46 518 586
1013 5 46 518 590
1014 6 586 518 590
1015 5 48 519 567
1016 5 48 519 609
1017 6 567 519 609
1018 5 452 520 568
1019 5 452 520 588
1020 6 568 520 588
1021 5 1261 521 569
1022 5 1261 521 581
1023 6 569 521 581
1024 5 653 522 570
1025 5 653 522 577
1026 6 570 522 577
1027 5 446 523 571
1028 5 446 523 583
1029 6 571 523 583
1030 5 455 524 572
1031 5 455 524 603
1032 6 572 524 603
1033 5 447 525 573
1034 5 447 525 611
1035 6 573 525 611
1036 5 451 526 578
1037 5 451 526 598
1038 6 578 526 598
1039 5 448 527 584
1040 5 448 527 599
1041 6 584 527 599
1042 5 453 528 576
1043 5 453 528 580
1044 6 576 528 580
1045 2 546 529 457
1046 3 457 529 589
1047 4 546 529 589
1048 2 514 530 458
1049 3 458 530 590
1050 4 514 530 590
1051 2 513 531 459
1052 3 459 531 591
1053 4 513 531 591
1054 2 552 532 460
1055 3 460 532 592
1056 4 552 532 592
1057 2 545 533 461
1058 3 461 533 593
1059 4 545 533 593
1060 2 541 534 462
1061 3 462 534 594
1062 4 541 534 594
1063 2 547 535 463
1064 3 463 535 595
1065 4 547 535 595
1066 2 507 536 464
1067 3 464 536 596
1068 4 507 536 596
1069 2 515 537 465
1070 3 465 537 597
1071 4 515 537 597
1072 2 506 538 466
1073 3 466 538 598
1074 4 506 538 598
1075 2 512 539 467
1076 3 467 539 599
1077 4 512 539 599
1078 2 544 540 468
1079 3 468 540 600
1080 4 544 540 600
1081 2 534 541 469
1082 3 469 541 601
1083 4 534 541 601
1084 2 502 542 470
1085 3 470 542 602
1086 4 502 542 602
1087 2 500 543 471
1088 3 471 543 603
1089 4 500 543 603
1090 2 540 544 472
1091 3 472 544 604
1092 4 540 544 604
1093 2 533 545 473
1094 3 473 545 605
1095 4 533 545 605
1096 2 529 546 474
1097 3 474 546 606
1098 4 529 546 606
1099 2 535 547 475
1100 3 475 547 607
1101 4 535 547 607
1102 2 503 548 476
1103 3 476 548 608
1104 4 503 548 608
1105 2 495 549 477
1106 3 477 549 609
1107 4 495 549 609
1108 2 494 550 478
1109 3 478 550 610
1110 4 494 550 610
1111 2 501 551 479
1112 3 479 551 611
1113 4 501 551 611
1114 2 532 552 480
1115 3 480 552 612
1116 4 532 552 612
1117 5 486 553 589
1118 5 486 553 606
1119 6 589 553 606
1120 5 490 554 566
1121 5 490 554 610
1122 6 566 554 610
1123 5 492 555 585
1124 5 492 555 591
1125 6 585 555 591
1126 5 80 556 592
1127 5 80 556 612
1128 6 592 556 612
1129 5 481 557 593
1130 5 481 557 605
1131 6 593 557 605
1132 5 485 558 594
1133 5 485 558 601
1134 6 594 558 601
1135 5 1298 559 595
1136 5 1298 559 607
1137 6 595 559 607
1138 5 695 560 579
1139 5 695 560 596
1140 6 579 560 596
1141 5 1299 561 587
1142 5 1299 561 597
1143 6 587 561 597
1144 5 691 562 574
1145 5 691 562 602
1146 6 574 562 602
1147 5 1300 563 575
1148 5 1300 563 608
1149 6 575 563 608
1150 5 693 564 600
1151 5 693 564 604
1152 6 600 564 604
1153 7 493 565 409
1154 8 517 565 409
1155 9 493 565 517
1156 7 494 566 410
1157 8 554 566 410
1158 9 494 566 554
1159 7 495 567 1
1160 8 519 567 1
1161 9 495 567 519
1162 7 496 568 1226
1163 8 520 568 1226
1164 9 496 568 520
1165 7 497 569 411
1166 8 521 569 411
1167 9 497 569 521
1168 7 498 570 412
1169 8 522 570 412
1170 9 498 570 522
1171 7 499 571 617
1172 8 523 571 617
1173 9 499 571 523
1174 7 500 572 414
1175 8 524 572 414
1176 9 500 572 524
1177 7 501 573 413
1178 8 525 573 413
1179 9 501 573 525
1180 7 502 574 616
1181 8 562 574 616
1182 9 502 574 562
1183 7 503 575 1227
1184 8 563 575 1227
1185 9 503 575 563
1186 7 504 576 6
1187 8 528 576 6
1188 9 504 576 528
1189 7 505 577 413
1190 8 522 577 413
1191 9 505 577 522
1192 7 506 578 411
1193 8 526 578 411
1194 9 506 578 526
1195 7 507 579 617
1196 8 560 579 617
1197 9 507 579 560
1198 7 508 580 1227
1199 8 528 580 1227
1200 9 508 580 528
1201 7 509 581 410
1202 8 521 581 410
1203 9 509 581 521
1204 7 510 582 414
1205 8 517 582 414
1206 9 510 582 517
1207 7 511 583 1
1208 8 523 583 1
1209 9 511 583 523
1210 7 512 584 409
1211 8 527 584 409
1212 9 512 584 527
1213 7 513 585 412
1214 8 555 585 412
1215 9 513 585 555
1216 7 514 586 6
1217 8 518 586 6
1218 9 514 586 518
1219 7 515 587 1226
1220 8 561 587 1226
1221 9 515 587 561
1222 7 516 588 616
1223 8 520 588 616
1224 9 516 588 520
1225 7 529 589 415
1226 8 553 589 415
1227 9 529 589 553
1228 8 518 590 8
1229 7 530 590 8
1230 9 530 590 518
1231 7 531 591 1231
1232 8 555 591 1231
1233 9 531 591 555
1234 7 532 592 416
1235 8 556 592 416
1236 9 532 592 556
1237 7 533 593 417
1238 8 557 593 417
1239 9 533 593 557
1240 7 534 594 418
1241 8 558 594 418
1242 9 534 594 558
1243 7 535 595 419
1244 8 559 595 419
1245 9 535 595 559
1246 7 536 596 624
1247 8 560 596 624
1248 9 536 596 560
1249 7 537 597 1235
1250 8 561 597 1235
1251 9 537 597 561
1252 8 526 598 10
1253 7 538 598 10
1254 9 538 598 526
1255 8 527 599 621
1256 7 539 599 621
1257 9 539 599 527
1258 7 540 600 420
1259 8 564 600 420
1260 9 540 600 564
1261 7 541 601 419
1262 8 558 601 419
1263 9 541 601 558
1264 7 542 602 621
1265 8 562 602 621
1266 9 542 602 562
1267 8 524 603 1235
1268 7 543 603 1235
1269 9 543 603 524
1270 7 544 604 417
1271 8 564 604 417
1272 9 544 604 564
1273 7 545 605 416
1274 8 557 605 416
1275 9 545 605 557
1276 7 546 606 420
1277 8 553 606 420
1278 9 546 606 553
1279 7 547 607 415
1280 8 559 607 415
1281 9 547 607 559
1282 7 548 608 1231
1283 8 563 608 1231
1284 9 548 608 563
1285 8 519 609 10
1286 7 549 609 10
1287 9 549 609 519
1288 7 550 610 624
1289 8 554 610 624
1290 9 550 610 554
1291 8 525 611 8
1292 7 551 611 8
1293 9 551 611 525
1294 7 552 612 418
1295 8 556 612 418
1296 9 552 612 556
1297 1 363 613 769
1298 1 379 613 769
1299 1 769 613 788
1300 1 363 613 379
1301 1 363 613 788
1302 1 379 613 788
1303 1 770 614 1588
1304 1 770 614 785
1305 1 770 614 1607
1306 1 785 614 1588
1307 1 1588 614 1607
1308 1 785 614 1607
1309 1 773 615 1595
1310 1 773 615 782
1311 1 773 615 1600
1312 1 782 615 1595
1313 1 1595 615 1600
1314 1 782 615 1600
1315 1 574 616 774
1316 1 774 616 789
1317 1 588 616 774
1318 1 574 616 789
1319 1 574 616 588
1320 1 588 616 789
1321 1 571 617 777
1322 1 571 617 781
1323 1 571 617 579
1324 1 777 617 781
1325 1 579 617 777
1326 1 579 617 781
1327 1 372 618 776
1328 1 776 618 786
1329 1 382 618 776
1330 1 372 618 786
1331 1 372 618 382
1332 1 382 618 786
1333 1 793 619 1611
1334 1 793 619 811
1335 1 793 619 1628
1336 1 811 619 1611
1337 1 1611 619 1628
1338 1 811 619 1628
1339 1 386 620 796
1340 1 386 620 809
1341 1 386 620 407
1342 1 796 620 809
1343 1 407 620 796
1344 1 407 620 809
1345 1 599 621 797
1346 1 602 621 797
1347 1 797 621 808
1348 1 599 621 602
1349 1 599 621 808
1350 1 602 621 808
1351 1 394 622 798
1352 1 405 622 798
1353 1 798 622 816
1354 1 394 622 405
1355 1 394 622 816
1356 1 405 622 816
1357 1 799 623 1617
1358 1 799 623 805
1359 1 799 623 1623
1360 1 805 623 1617
1361 1 1617 623 1623
1362 1 805 623 1623
1363 1 596 624 804
1364 1 596 624 810
1365 1 596 624 610
1366 1 804 624 810
1367 1 610 624 804
1368 1 610 624 810
1369 2 714 697 625
1370 3 625 697 769
1371 4 714 697 769
1372 2 754 698 626
1373 3 626 698 770
1374 4 754 698 770
1375 2 753 699 627
1376 3 627 699 771
1377 4 753 699 771
1378 2 720 700 628
1379 3 628 700 772
1380 4 720 700 772
1381 2 713 701 629
1382 3 629 701 773
1383 4 713 701 773
1384 2 709 702 630
1385 3 630 702 774
1386 4 709 702 774
1387 2 715 703 631
1388 3 631 703 775
1389 4 715 703 775
1390 2 747 704 632
1391 3 632 704 776
1392 4 747 704 776
1393 2 755 705 633
1394 3 633 705 777
1395 4 755 705 777
1396 2 746 706 634
1397 3 634 706 778
1398 4 746 706 778
1399 2 752 707 635
1400 3 635 707 779
1401 4 752 707 779
1402 2 712 708 636
1403 3 636 708 780
1404 4 712 708 780
1405 2 702 709 637
1406 3 637 709 781
1407 4 702 709 781
1408 2 742 710 638
1409 3 638 710 782
1410 4 742 710 782
1411 2 740 711 639
1412 3 639 711 783
1413 4 740 711 783
1414 2 708 712 640
1415 3 640 712 784
1416 4 708 712 784
1417 2 701 713 641
1418 3 641 713 785
1419 4 701 713 785
1420 2 697 714 642
1421 3 642 714 786
1422 4 697 714 786
1423 2 703 715 643
1424 3 643 715 787
1425 4 703 715 787
1426 2 743 716 644
1427 3 644 716 788
1428 4 743 716 788
1429 2 735 717 645
1430 3 645 717 789
1431 4 735 717 789
1432 2 734 718 646
1433 3 646 718 790
1434 4 734 718 790
1435 2 741 719 647
1436 3 647 719 791
1437 4 741 719 791
1438 2 700 720 648
1439 3 648 720 792
1440 4 700 720 792
1441 5 246 721 769
1442 5 246 721 786
1443 6 769 721 786
1444 5 250 722 790
1445 5 250 722 794
1446 6 790 722 794
1447 5 252 723 771
1448 5 252 723 813
1449 6 771 723 813
1450 5 656 724 772
1451 5 656 724 792
1452 6 772 724 792
1453 5 1465 725 773
1454 5 1465 725 785
1455 6 773 725 785
1456 5 449 726 774
1457 5 449 726 781
1458 6 774 726 781
1459 5 650 727 775
1460 5 650 727 787
1461 6 775 727 787
1462 5 659 728 776
1463 5 659 728 807
1464 6 776 728 807
1465 5 651 729 777
1466 5 651 729 815
1467 6 777 729 815
1468 5 655 730 782
1469 5 655 730 802
1470 6 782 730 802
1471 5 652 731 788
1472 5 652 731 803
1473 6 788 731 803
1474 5 657 732 780
1475 5 657 732 784
1476 6 780 732 784
1477 2 750 733 661
1478 3 661 733 793
1479 4 750 733 793
1480 2 718 734 662
1481 3 662 734 794
1482 4 718 734 794
1483 2 717 735 663
1484 3 663 735 795
1485 4 717 735 795
1486 2 756 736 664
1487 3 664 736 796
1488 4 756 736 796
1489 2 749 737 665
1490 3 665 737 797
1491 4 749 737 797
1492 2 745 738 666
1493 3 666 738 798
1494 4 745 738 798
1495 2 751 739 667
1496 3 667 739 799
1497 4 751 739 799
1498 2 711 740 668
1499 3 668 740 800
1500 4 711 740 800
1501 2 719 741 669
1502 3 669 741 801
1503 4 719 741 801
1504 2 710 742 670
1505 3 670 742 802
1506 4 710 742 802
1507 2 716 743 671
1508 3 671 743 803
1509 4 716 743 803
1510 2 748 744 672
1511 3 672 744 804
1512 4 748 744 804
1513 2 738 745 673
1514 3 673 745 805
1515 4 738 745 805
1516 2 706 746 674
1517 3 674 746 806
1518 4 706 746 806
1519 2 704 747 675
1520 3 675 747 807
1521 4 704 747 807
1522 2 744 748 676
1523 3 676 748 808
1524 4 744 748 808
1525 2 737 749 677
1526 3 677 749 809
1527 4 737 749 809
1528 2 733 750 678
1529 3 678 750 810
1530 4 733 750 810
1531 2 739 751 679
1532 3 679 751 811
1533 4 739 751 811
1534 2 707 752 680
1535 3 680 752 812
1536 4 707 752 812
1537 2 699 753 681
1538 3 681 753 813
1539 4 699 753 813
1540 2 698 754 682
1541 3 682 754 814
1542 4 698 754 814
1543 2 705 755 683
1544 3 683 755 815
1545 4 705 755 815
1546 2 736 756 684
1547 3 684 756 816
1548 4 736 756 816
1549 5 690 757 793
1550 5 690 757 810
1551 6 793 757 810
1552 5 694 758 770
1553 5 694 758 814
1554 6 770 758 814
1555 5 696 759 789
1556 5 696 759 795
1557 6 789 759 795
1558 5 284 760 796
1559 5 284 760 816
1560 6 796 760 816
1561 5 685 761 797
1562 5 685 761 809
1563 6 797 761 809
1564 5 689 762 798
1565 5 689 762 805
1566 6 798 762 805
1567 5 1502 763 799
1568 5 1502 763 811
1569 6 799 763 811
1570 5 491 764 783
1571 5 491 764 800
1572 6 783 764 800
1573 5 1503 765 791
1574 5 1503 765 801
1575 6 791 765 801
1576 5 487 766 778
1577 5 487 766 806
1578 6 778 766 806
1579 5 1504 767 779
1580 5 1504 767 812
1581 6 779 767 812
1582 5 489 768 804
1583 5 489 768 808
1584 6 804 768 808
1585 7 697 769 613
1586 8 721 769 613
1587 9 697 769 721
1588 7 698 770 614
1589 8 758 770 614
1590 9 698 770 758
1591 7 699 771 205
1592 8 723 771 205
1593 9 699 771 723
1594 7 700 772 1430
1595 8 724 772 1430
1596 9 700 772 724
1597 7 701 773 615
1598 8 725 773 615
1599 9 701 773 725
1600 7 702 774 616
1601 8 726 774 616
1602 9 702 774 726
1603 7 703 775 413
1604 8 727 775 413
1605 9 703 775 727
1606 7 704 776 618
1607 8 728 776 618
1608 9 704 776 728
1609 7 705 777 617
1610 8 729 777 617
1611 9 705 777 729
1612 7 706 778 412
1613 8 766 778 412
1614 9 706 778 766
1615 7 707 779 1431
1616 8 767 779 1431
1617 9 707 779 767
1618 7 708 780 210
1619 8 732 780 210
1620 9 708 780 732
1621 7 709 781 617
1622 8 726 781 617
1623 9 709 781 726
1624 7 710 782 615
1625 8 730 782 615
1626 9 710 782 730
1627 7 711 783 413
1628 8 764 783 413
1629 9 711 783 764
1630 7 712 784 1431
1631 8 732 784 1431
1632 9 712 784 732
1633 7 713 785 614
1634 8 725 785 614
1635 9 713 785 725
1636 7 714 786 618
1637 8 721 786 618
1638 9 714 786 721
1639 7 715 787 205
1640 8 727 787 205
1641 9 715 787 727
1642 7 716 788 613
1643 8 731 788 613
1644 9 716 788 731
1645 7 717 789 616
1646 8 759 789 616
1647 9 717 789 759
1648 7 718 790 210
1649 8 722 790 210
1650 9 718 790 722
1651 7 719 791 1430
1652 8 765 791 1430
1653 9 719 791 765
1654 7 720 792 412
1655 8 724 792 412
1656 9 720 792 724
1657 7 733 793 619
1658 8 757 793 619
1659 9 733 793 757
1660 8 722 794 212
1661 7 734 794 212
1662 9 734 794 722
1663 7 735 795 1435
1664 8 759 795 1435
1665 9 735 795 759
1666 7 736 796 620
1667 8 760 796 620
1668 9 736 796 760
1669 7 737 797 621
1670 8 761 797 621
1671 9 737 797 761
1672 7 738 798 622
1673 8 762 798 622
1674 9 738 798 762
1675 7 739 799 623
1676 8 763 799 623
1677 9 739 799 763
1678 7 740 800 420
1679 8 764 800 420
1680 9 740 800 764
1681 7 741 801 1439
1682 8 765 801 1439
1683 9 741 801 765
1684 8 730 802 214
1685 7 742 802 214
1686 9 742 802 730
1687 8 731 803 417
1688 7 743 803 417
1689 9 743 803 731
1690 7 744 804 624
1691 8 768 804 624
1692 9 744 804 768
1693 7 745 805 623
1694 8 762 805 623
1695 9 745 805 762
1696 7 746 806 417
1697 8 766 806 417
1698 9 746 806 766
1699 8 728 807 1439
1700 7 747 807 1439
1701 9 747 807 728
1702 7 748 808 621
1703 8 768 808 621
1704 9 748 808 768
1705 7 749 809 620
1706 8 761 809 620
1707 9 749 809 761
1708 7 750 810 624
1709 8 757 810 624
1710 9 750 810 757
1711 7 751 811 619
1712 8 763 811 619
1713 9 751 811 763
1714 7 752 812 1435
1715 8 767 812 1435
1716 9 752 812 767
1717 8 723 813 214
1718 7 753 813 214
1719 9 753 813 723
1720 7 754 814 420
1721 8 758 814 420
1722 9 754 814 758
1723 8 729 815 212
1724 7 755 815 212
1725 9 755 815 729
1726 7 756 816 622
1727 8 760 816 622
1728 9 756 816 760
1729 1 973 817 1383
1730 1 973 817 1399
1731 1 973 817 992
1732 1 1383 817 1399
1733 1 992 817 1383
1734 1 992 817 1399
1735 1 160 818 974
1736 1 974 818 989
1737 1 179 818 974
1738 1 160 818 989
1739 1 160 818 179
1740 1 179 818 989
1741 1 167 819 977
1742 1 977 819 986
1743 1 172 819 977
1744 1 167 819 986
1745 1 167 819 172
1746 1 172 819 986
1747 1 978 820 1186
1748 1 978 820 993
1749 1 978 820 1200
1750 1 993 820 1186
1751 1 1186 820 1200
1752 1 993 820 1200
1753 1 981 821 1183
1754 1 985 821 1183
1755 1 1183 821 1191
1756 1 981 821 985
1757 1 981 821 1191
1758 1 985 821 1191
1759 1 980 822 1392
1760 1 980 822 990
1761 1 980 822 1402
1762 1 990 822 1392
1763 1 1392 822 1402
1764 1 990 822 1402
1765 1 183 823 997
1766 1 997 823 1015
1767 1 200 823 997
1768 1 183 823 1015
1769 1 183 823 200
1770 1 200 823 1015
1771 1 1000 824 1406
1772 1 1013 824 1406
1773 1 1406 824 1427
1774 1 1000 824 1013
1775 1 1000 824 1427
1776 1 1013 824 1427
1777 1 1001 825 1211
1778 1 1001 825 1214
1779 1 1001 825 1012
1780 1 1211 825 1214
1781 1 1012 825 1211
1782 1 1012 825 1214
1783 1 1002 826 1414
1784 1 1002 826 1425
1785 1 1002 826 1020
1786 1 1414 826 1425
1787 1 1020 826 1414
1788 1 1020 826 1425
1789 1 189 827 1003
1790 1 1003 827 1009
1791 1 195 827 1003
1792 1 189 827 1009
1793 1 189 827 195
1794 1 195 827 1009
1795 1 1008 828 1208
1796 1 1014 828 1208
1797 1 1208 828 1222
1798 1 1008 828 1014
1799 1 1008 828 1222
1800 1 1014 828 1222
1801 2 918 901 829
1802 3 829 901 973
1803 4 918 901 973
1804 2 958 902 830
1805 3 830 902 974
1806 4 958 902 974
1807 2 957 903 831
1808 3 831 903 975
1809 4 957 903 975
1810 2 924 904 832
1811 3 832 904 976
1812 4 924 904 976
1813 2 917 905 833
1814 3 833 905 977
1815 4 917 905 977
1816 2 913 906 834
1817 3 834 906 978
1818 4 913 906 978
1819 2 919 907 835
1820 3 835 907 979
1821 4 919 907 979
1822 2 951 908 836
1823 3 836 908 980
1824 4 951 908 980
1825 2 959 909 837
1826 3 837 909 981
1827 4 959 909 981
1828 2 950 910 838
1829 3 838 910 982
1830 4 950 910 982
1831 2 956 911 839
1832 3 839 911 983
1833 4 956 911 983
1834 2 916 912 840
1835 3 840 912 984
1836 4 916 912 984
1837 2 906 913 841
1838 3 841 913 985
1839 4 906 913 985
1840 2 946 914 842
1841 3 842 914 986
1842 4 946 914 986
1843 2 944 915 843
1844 3 843 915 987
1845 4 944 915 987
1846 2 912 916 844
1847 3 844 916 988
1848 4 912 916 988
1849 2 905 917 845
1850 3 845 917 989
1851 4 905 917 989
1852 2 901 918 846
1853 3 846 918 990
1854 4 901 918 990
1855 2 907 919 847
1856 3 847 919 991
1857 4 907 919 991
1858 2 947 920 848
1859 3 848 920 992
1860 4 947 920 992
1861 2 939 921 849
1862 3 849 921 993
1863 4 939 921 993
1864 2 938 922 850
1865 3 850 922 994
1866 4 938 922 994
1867 2 945 923 851
1868 3 851 923 995
1869 4 945 923 995
1870 2 904 924 852
1871 3 852 924 996
1872 4 904 924 996
1873 5 1266 925 973
1874 5 1266 925 990
1875 6 973 925 990
1876 5 1270 926 994
1877 5 1270 926 998
1878 6 994 926 998
1879 5 1272 927 975
1880 5 1272 927 1017
1881 6 975 927 1017
1882 5 860 928 976
1883 5 860 928 996
1884 6 976 928 996
1885 5 37 929 977
1886 5 37 929 989
1887 6 977 929 989
1888 5 1061 930 978
1889 5 1061 930 985
1890 6 978 930 985
1891 5 854 931 979
1892 5 854 931 991
1893 6 979 931 991
1894 5 863 932 980
1895 5 863 932 1011
1896 6 980 932 1011
1897 5 855 933 981
1898 5 855 933 1019
1899 6 981 933 1019
1900 5 859 934 986
1901 5 859 934 1006
1902 6 986 934 1006
1903 5 856 935 992
1904 5 856 935 1007
1905 6 992 935 1007
1906 5 861 936 984
1907 5 861 936 988
1908 6 984 936 988
1909 2 954 937 865
1910 3 865 937 997
1911 4 954 937 997
1912 2 922 938 866
1913 3 866 938 998
1914 4 922 938 998
1915 2 921 939 867
1916 3 867 939 999
1917 4 921 939 999
1918 2 960 940 868
1919 3 868 940 1000
1920 4 960 940 1000
1921 2 953 941 869
1922 3 869 941 1001
1923 4 953 941 1001
1924 2 949 942 870
1925 3 870 942 1002
1926 4 949 942 1002
1927 2 955 943 871
1928 3 871 943 1003
1929 4 955 943 1003
1930 2 915 944 872
1931 3 872 944 1004
1932 4 915 944 1004
1933 2 923 945 873
1934 3 873 945 1005
1935 4 923 945 1005
1936 2 914 946 874
1937 3 874 946 1006
1938 4 914 946 1006
1939 2 920 947 875
1940 3 875 947 1007
1941 4 920 947 1007
1942 2 952 948 876
1943 3 876 948 1008
1944 4 952 948 1008
1945 2 942 949 877
1946 3 877 949 1009
1947 4 942 949 1009
1948 2 910 950 878
1949 3 878 950 1010
1950 4 910 950 1010
1951 2 908 951 879
1952 3 879 951 1011
1953 4 908 951 1011
1954 2 948 952 880
1955 3 880 952 1012
1956 4 948 952 1012
1957 2 941 953 881
1958 3 881 953 1013
1959 4 941 953 1013
1960 2 937 954 882
1961 3 882 954 1014
1962 4 937 954 1014
1963 2 943 955 883
1964 3 883 955 1015
1965 4 943 955 1015
1966 2 911 956 884
1967 3 884 956 1016
1968 4 911 956 1016
1969 2 903 957 885
1970 3 885 957 1017
1971 4 903 957 1017
1972 2 902 958 886
1973 3 886 958 1018
1974 4 902 958 1018
1975 2 909 959 887
1976 3 887 959 1019
1977 4 909 959 1019
1978 2 940 960 888
1979 3 888 960 1020
1980 4 940 960 1020
1981 5 894 961 997
1982 5 894 961 1014
1983 6 997 961 1014
1984 5 898 962 974
1985 5 898 962 1018
1986 6 974 962 1018
1987 5 900 963 993
1988 5 900 963 999
1989 6 993 963 999
1990 5 1304 964 1000
1991 5 1304 964 1020
1992 6 1000 964 1020
1993 5 889 965 1001
1994 5 889 965 1013
1995 6 1001 965 1013
1996 5 893 966 1002
1997 5 893 966 1009
1998 6 1002 966 1009
1999 5 74 967 1003
2000 5 74 967 1015
2001 6 1003 967 1015
2002 5 1103 968 987
2003 5 1103 968 1004
2004 6 987 968 1004
2005 5 75 969 995
2006 5 75 969 1005
2007 6 995 969 1005
2008 5 1099 970 982
2009 5 1099 970 1010
2010 6 982 970 1010
2011 5 76 971 983
2012 5 76 971 1016
2013 6 983 971 1016
2014 5 1101 972 1008
2015 5 1101 972 1012
2016 6 1008 972 1012
2017 7 901 973 817
2018 8 925 973 817
2019 9 901 973 925
2020 7 902 974 818
2021 8 962 974 818
2022 9 902 974 962
2023 7 903 975 1225
2024 8 927 975 1225
2025 9 903 975 927
2026 7 904 976 2
2027 8 928 976 2
2028 9 904 976 928
2029 7 905 977 819
2030 8 929 977 819
2031 9 905 977 929
2032 7 906 978 820
2033 8 930 978 820
2034 9 906 978 930
2035 7 907 979 1025
2036 8 931 979 1025
2037 9 907 979 931
2038 7 908 980 822
2039 8 932 980 822
2040 9 908 980 932
2041 7 909 981 821
2042 8 933 981 821
2043 9 909 981 933
2044 7 910 982 1024
2045 8 970 982 1024
2046 9 910 982 970
2047 7 911 983 3
2048 8 971 983 3
2049 9 911 983 971
2050 7 912 984 1230
2051 8 936 984 1230
2052 9 912 984 936
2053 7 913 985 821
2054 8 930 985 821
2055 9 913 985 930
2056 7 914 986 819
2057 8 934 986 819
2058 9 914 986 934
2059 7 915 987 1025
2060 8 968 987 1025
2061 9 915 987 968
2062 7 916 988 3
2063 8 936 988 3
2064 9 916 988 936
2065 7 917 989 818
2066 8 929 989 818
2067 9 917 989 929
2068 7 918 990 822
2069 8 925 990 822
2070 9 918 990 925
2071 7 919 991 1225
2072 8 931 991 1225
2073 9 919 991 931
2074 7 920 992 817
2075 8 935 992 817
2076 9 920 992 935
2077 7 921 993 820
2078 8 963 993 820
2079 9 921 993 963
2080 7 922 994 1230
2081 8 926 994 1230
2082 9 922 994 926
2083 7 923 995 2
2084 8 969 995 2
2085 9 923 995 969
2086 7 924 996 1024
2087 8 928 996 1024
2088 9 924 996 928
2089 7 937 997 823
2090 8 961 997 823
2091 9 937 997 961
2092 8 926 998 1232
2093 7 938 998 1232
2094 9 938 998 926
2095 7 939 999 7
2096 8 963 999 7
2097 9 939 999 963
2098 7 940 1000 824
2099 8 964 1000 824
2100 9 940 1000 964
2101 7 941 1001 825
2102 8 965 1001 825
2103 9 941 1001 965
2104 7 942 1002 826
2105 8 966 1002 826
2106 9 942 1002 966
2107 7 943 1003 827
2108 8 967 1003 827
2109 9 943 1003 967
2110 7 944 1004 1032
2111 8 968 1004 1032
2112 9 944 1004 968
2113 7 945 1005 11
2114 8 969 1005 11
2115 9 945 1005 969
2116 8 934 1006 1234
2117 7 946 1006 1234
2118 9 946 1006 934
2119 8 935 1007 1029
2120 7 947 1007 1029
2121 9 947 1007 935
2122 7 948 1008 828
2123 8 972 1008 828
2124 9 948 1008 972
2125 7 949 1009 827
2126 8 966 1009 827
2127 9 949 1009 966
2128 7 950 1010 1029
2129 8 970 1010 1029
2130 9 950 1010 970
2131 8 932 1011 11
2132 7 951 1011 11
2133 9 951 1011 932
2134 7 952 1012 825
2135 8 972 1012 825
2136 9 952 1012 972
2137 7 953 1013 824
2138 8 965 1013 824
2139 9 953 1013 965
2140 7 954 1014 828
2141 8 961 1014 828
2142 9 954 1014 961
2143 7 955 1015 823
2144 8 967 1015 823
2145 9 955 1015 967
2146 7 956 1016 7
2147 8 971 1016 7
2148 9 956 1016 971
2149 8 927 1017 1234
2150 7 957 1017 1234
2151 9 957 1017 927
2152 7 958 1018 1032
2153 8 962 1018 1032
2154 9 958 1018 962
2155 8 933 1019 1232
2156 7 959 1019 1232
2157 9 959 1019 933
2158 7 960 1020 826
2159 8 964 1020 826
2160 9 960 1020 964
2161 1 1177 1021 1587
2162 1 1177 1021 1603
2163 1 1177 1021 1196
2164 1 1587 1021 1603
2165 1 1196 1021 1587
2166 1 1196 1021 1603
2167 1 364 1022 1178
2168 1 1178 1022 1193
2169 1 383 1022 1178
2170 1 364 1022 1193
2171 1 364 1022 383
2172 1 383 1022 1193
2173 1 371 1023 1181
2174 1 1181 1023 1190
2175 1 376 1023 1181
2176 1 371 1023 1190
2177 1 371 1023 376
2178 1 376 1023 1190
2179 1 982 1024 1182
2180 1 1182 1024 1197
2181 1 996 1024 1182
2182 1 982 1024 1197
2183 1 982 1024 996
2184 1 996 1024 1197
2185 1 979 1025 1185
2186 1 979 1025 1189
2187 1 979 1025 987
2188 1 1185 1025 1189
2189 1 987 1025 1185
2190 1 987 1025 1189
2191 1 1184 1026 1596
2192 1 1184 1026 1194
2193 1 1184 1026 1606
2194 1 1194 1026 1596
2195 1 1596 1026 1606
2196 1 1194 1026 1606
2197 1 387 1027 1201
2198 1 1201 1027 1219
2199 1 404 1027 1201
2200 1 387 1027 1219
2201 1 387 1027 404
2202 1 404 1027 1219
2203 1 1204 1028 1610
2204 1 1217 1028 1610
2205 1 1610 1028 1631
2206 1 1204 1028 1217
2207 1 1204 1028 1631
2208 1 1217 1028 1631
2209 1 1007 1029 1205
2210 1 1010 1029 1205
2211 1 1205 1029 1216
2212 1 1007 1029 1010
2213 1 1007 1029 1216
2214 1 1010 1029 1216
2215 1 1206 1030 1618
2216 1 1206 1030 1629
2217 1 1206 1030 1224
2218 1 1618 1030 1629
2219 1 1224 1030 1618
2220 1 1224 1030 1629
2221 1 393 1031 1207
2222 1 1207 1031 1213
2223 1 399 1031 1207
2224 1 393 1031 1213
2225 1 393 1031 399
2226 1 399 1031 1213
2227 1 1004 1032 1212
2228 1 1004 1032 1218
2229 1 1004 1032 1018
2230 1 1212 1032 1218
2231 1 1018 1032 1212
2232 1 1018 1032 1218
2233 2 1122 1105 1033
2234 3 1033 1105 1177
2235 4 1122 1105 1177
2236 2 1162 1106 1034
2237 3 1034 1106 1178
2238 4 1162 1106 1178
2239 2 1161 1107 1035
2240 3 1035 1107 1179
2241 4 1161 1107 1179
2242 2 1128 1108 1036
2243 3 1036 1108 1180
2244 4 1128 1108 1180
2245 2 1121 1109 1037
2246 3 1037 1109 1181
2247 4 1121 1109 1181
2248 2 1117 1110 1038
2249 3 1038 1110 1182
2250 4 1117 1110 1182
2251 2 1123 1111 1039
2252 3 1039 1111 1183
2253 4 1123 1111 1183
2254 2 1155 1112 1040
2255 3 1040 1112 1184
2256 4 1155 1112 1184
2257 2 1163 1113 1041
2258 3 1041 1113 1185
2259 4 1163 1113 1185
2260 2 1154 1114 1042
2261 3 1042 1114 1186
2262 4 1154 1114 1186
2263 2 1160 1115 1043
2264 3 1043 1115 1187
2265 4 1160 1115 1187
2266 2 1120 1116 1044
2267 3 1044 1116 1188
2268 4 1120 1116 1188
2269 2 1110 1117 1045
2270 3 1045 1117 1189
2271 4 1110 1117 1189
2272 2 1150 1118 1046
2273 3 1046 1118 1190
2274 4 1150 1118 1190
2275 2 1148 1119 1047
2276 3 1047 1119 1191
2277 4 1148 1119 1191
2278 2 1116 1120 1048
2279 3 1048 1120 1192
2280 4 1116 1120 1192
2281 2 1109 1121 1049
2282 3 1049 1121 1193
2283 4 1109 1121 1193
2284 2 1105 1122 1050
2285 3 1050 1122 1194
2286 4 1105 1122 1194
2287 2 1111 1123 1051
2288 3 1051 1123 1195
2289 4 1111 1123 1195
2290 2 1151 1124 1052
2291 3 1052 1124 1196
2292 4 1151 1124 1196
2293 2 1143 1125 1053
2294 3 1053 1125 1197
2295 4 1143 1125 1197
2296 2 1142 1126 1054
2297 3 1054 1126 1198
2298 4 1142 1126 1198
2299 2 1149 1127 1055
2300 3 1055 1127 1199
2301 4 1149 1127 1199
2302 2 1108 1128 1056
2303 3 1056 1128 1200
2304 4 1108 1128 1200
2305 5 1470 1129 1177
2306 5 1470 1129 1194
2307 6 1177 1129 1194
2308 5 1474 1130 1198
2309 5 1474 1130 1202
2310 6 1198 1130 1202
2311 5 1476 1131 1179
2312 5 1476 1131 1221
2313 6 1179 1131 1221
2314 5 1064 1132 1180
2315 5 1064 1132 1200
2316 6 1180 1132 1200
2317 5 241 1133 1181
2318 5 241 1133 1193
2319 6 1181 1133 1193
2320 5 857 1134 1182
2321 5 857 1134 1189
2322 6 1182 1134 1189
2323 5 1058 1135 1183
2324 5 1058 1135 1195
2325 6 1183 1135 1195
2326 5 1067 1136 1184
2327 5 1067 1136 1215
2328 6 1184 1136 1215
2329 5 1059 1137 1185
2330 5 1059 1137 1223
2331 6 1185 1137 1223
2332 5 1063 1138 1190
2333 5 1063 1138 1210
2334 6 1190 1138 1210
2335 5 1060 1139 1196
2336 5 1060 1139 1211
2337 6 1196 1139 1211
2338 5 1065 1140 1188
2339 5 1065 1140 1192
2340 6 1188 1140 1192
2341 2 1158 1141 1069
2342 3 1069 1141 1201
2343 4 1158 1141 1201
2344 2 1126 1142 1070
2345 3 1070 1142 1202
2346 4 1126 1142 1202
2347 2 1125 1143 1071
2348 3 1071 1143 1203
2349 4 1125 1143 1203
2350 2 1164 1144 1072
2351 3 1072 1144 1204
2352 4 1164 1144 1204
2353 2 1157 1145 1073
2354 3 1073 1145 1205
2355 4 1157 1145 1205
2356 2 1153 1146 1074
2357 3 1074 1146 1206
2358 4 1153 1146 1206
2359 2 1159 1147 1075
2360 3 1075 1147 1207
2361 4 1159 1147 1207
2362 2 1119 1148 1076
2363 3 1076 1148 1208
2364 4 1119 1148 1208
2365 2 1127 1149 1077
2366 3 1077 1149 1209
2367 4 1127 1149 1209
2368 2 1118 1150 1078
2369 3 1078 1150 1210
2370 4 1118 1150 1210
2371 2 1124 1151 1079
2372 3 1079 1151 1211
2373 4 1124 1151 1211
2374 2 1156 1152 1080
2375 3 1080 1152 1212
2376 4 1156 1152 1212
2377 2 1146 1153 1081
2378 3 1081 1153 1213
2379 4 1146 1153 1213
2380 2 1114 1154 1082
2381 3 1082 1154 1214
2382 4 1114 1154 1214
2383 2 1112 1155 1083
2384 3 1083 1155 1215
2385 4 1112 1155 1215
2386 2 1152 1156 1084
2387 3 1084 1156 1216
2388 4 1152 1156 1216
2389 2 1145 1157 1085
2390 3 1085 1157 1217
2391 4 1145 1157 1217
2392 2 1141 1158 1086
2393 3 1086 1158 1218
2394 4 1141 1158 1218
2395 2 1147 1159 1087
2396 3 1087 1159 1219
2397 4 1147 1159 1219
2398 2 1115 1160 1088
2399 3 1088 1160 1220
2400 4 1115 1160 1220
2401 2 1107 1161 1089
2402 3 1089 1161 1221
2403 4 1107 1161 1221
2404 2 1106 1162 1090
2405 3 1090 1162 1222
2406 4 1106 1162 1222
2407 2 1113 1163 1091
2408 3 1091 1163 1223
2409 4 1113 1163 1223
2410 2 1144 1164 1092
2411 3 1092 1164 1224
2412 4 1144 1164 1224
2413 5 1098 1165 1201
2414 5 1098 1165 1218
2415 6 1201 1165 1218
2416 5 1102 1166 1178
2417 5 1102 1166 1222
2418 6 1178 1166 1222
2419 5 1104 1167 1197
2420 5 1104 1167 1203
2421 6 1197 1167 1203
2422 5 1508 1168 1204
2423 5 1508 1168 1224
2424 6 1204 1168 1224
2425 5 1093 1169 1205
2426 5 1093 1169 1217
2427 6 1205 1169 1217
2428 5 1097 1170 1206
2429 5 1097 1170 1213
2430 6 1206 1170 1213
2431 5 278 1171 1207
2432 5 278 1171 1219
2433 6 1207 1171 1219
2434 5 899 1172 1191
2435 5 899 1172 1208
2436 6 1191 1172 1208
2437 5 279 1173 1199
2438 5 279 1173 1209
2439 6 1199 1173 1209
2440 5 895 1174 1186
2441 5 895 1174 1214
2442 6 1186 1174 1214
2443 5 280 1175 1187
2444 5 280 1175 1220
2445 6 1187 1175 1220
2446 5 897 1176 1212
2447 5 897 1176 1216
2448 6 1212 1176 1216
2449 7 1105 1177 1021
2450 8 1129 1177 1021
2451 9 1105 1177 1129
2452 7 1106 1178 1022
2453 8 1166 1178 1022
2454 9 1106 1178 1166
2455 7 1107 1179 1429
2456 8 1131 1179 1429
2457 9 1107 1179 1131
2458 7 1108 1180 206
2459 8 1132 1180 206
2460 9 1108 1180 1132
2461 7 1109 1181 1023
2462 8 1133 1181 1023
2463 9 1109 1181 1133
2464 7 1110 1182 1024
2465 8 1134 1182 1024
2466 9 1110 1182 1134
2467 7 1111 1183 821
2468 8 1135 1183 821
2469 9 1111 1183 1135
2470 7 1112 1184 1026
2471 8 1136 1184 1026
2472 9 1112 1184 1136
2473 7 1113 1185 1025
2474 8 1137 1185 1025
2475 9 1113 1185 1137
2476 7 1114 1186 820
2477 8 1174 1186 820
2478 9 1114 1186 1174
2479 7 1115 1187 207
2480 8 1175 1187 207
2481 9 1115 1187 1175
2482 7 1116 1188 1434
2483 8 1140 1188 1434
2484 9 1116 1188 1140
2485 7 1117 1189 1025
2486 8 1134 1189 1025
2487 9 1117 1189 1134
2488 7 1118 1190 1023
2489 8 1138 1190 1023
2490 9 1118 1190 1138
2491 7 1119 1191 821
2492 8 1172 1191 821
2493 9 1119 1191 1172
2494 7 1120 1192 207
2495 8 1140 1192 207
2496 9 1120 1192 1140
2497 7 1121 1193 1022
2498 8 1133 1193 1022
2499 9 1121 1193 1133
2500 7 1122 1194 1026
2501 8 1129 1194 1026
2502 9 1122 1194 1129
2503 7 1123 1195 1429
2504 8 1135 1195 1429
2505 9 1123 1195 1135
2506 7 1124 1196 1021
2507 8 1139 1196 1021
2508 9 1124 1196 1139
2509 7 1125 1197 1024
2510 8 1167 1197 1024
2511 9 1125 1197 1167
2512 7 1126 1198 1434
2513 8 1130 1198 1434
2514 9 1126 1198 1130
2515 7 1127 1199 206
2516 8 1173 1199 206
2517 9 1127 1199 1173
2518 7 1128 1200 820
2519 8 1132 1200 820
2520 9 1128 1200 1132
2521 7 1141 1201 1027
2522 8 1165 1201 1027
2523 9 1141 1201 1165
2524 8 1130 1202 1436
2525 7 1142 1202 1436
2526 9 1142 1202 1130
2527 7 1143 1203 211
2528 8 1167 1203 211
2529 9 1143 1203 1167
2530 7 1144 1204 1028
2531 8 1168 1204 1028
2532 9 1144 1204 1168
2533 7 1145 1205 1029
2534 8 1169 1205 1029
2535 9 1145 1205 1169
2536 7 1146 1206 1030
2537 8 1170 1206 1030
2538 9 1146 1206 1170
2539 7 1147 1207 1031
2540 8 1171 1207 1031
2541 9 1147 1207 1171
2542 7 1148 1208 828
2543 8 1172 1208 828
2544 9 1148 1208 1172
2545 7 1149 1209 215
2546 8 1173 1209 215
2547 9 1149 1209 1173
2548 8 1138 1210 1438
2549 7 1150 1210 1438
2550 9 1150 1210 1138
2551 8 1139 1211 825
2552 7 1151 1211 825
2553 9 1151 1211 1139
2554 7 1152 1212 1032
2555 8 1176 1212 1032
2556 9 1152 1212 1176
2557 7 1153 1213 1031
2558 8 1170 1213 1031
2559 9 1153 1213 1170
2560 7 1154 1214 825
2561 8 1174 1214 825
2562 9 1154 1214 1174
2563 8 1136 1215 215
2564 7 1155 1215 215
2565 9 1155 1215 1136
2566 7 1156 1216 1029
2567 8 1176 1216 1029
2568 9 1156 1216 1176
2569 7 1157 1217 1028
2570 8 1169 1217 1028
2571 9 1157 1217 1169
2572 7 1158 1218 1032
2573 8 1165 1218 1032
2574 9 1158 1218 1165
2575 7 1159 1219 1027
2576 8 1171 1219 1027
2577 9 1159 1219 1171
2578 7 1160 1220 211
2579 8 1175 1220 211
2580 9 1160 1220 1175
2581 8 1131 1221 1438
2582 7 1161 1221 1438
2583 9 1161 1221 1131
2584 7 1162 1222 828
2585 8 1166 1222 828
2586 9 1162 1222 1166
2587 8 1137 1223 1436
2588 7 1163 1223 1436
2589 9 1163 1223 1137
2590 7 1164 1224 1030
2591 8 1168 1224 1030
2592 9 1164 1224 1168
2593 1 975 1225 1381
2594 1 991 1225 1381
2595 1 1381 1225 1400
2596 1 975 1225 991
2597 1 975 1225 1400
2598 1 991 1225 1400
2599 1 568 1226 1382
2600 1 1382 1226 1397
2601 1 587 1226 1382
2602 1 568 1226 1397
2603 1 568 1226 587
2604 1 587 1226 1397
2605 1 575 1227 1385
2606 1 1385 1227 1394
2607 1 580 1227 1385
2608 1 575 1227 1394
2609 1 575 1227 580
2610 1 580 1227 1394
2611 1 1386 1228 1594
2612 1 1386 1228 1401
2613 1 1386 1228 1608
2614 1 1401 1228 1594
2615 1 1594 1228 1608
2616 1 1401 1228 1608
2617 1 1389 1229 1591
2618 1 1393 1229 1591
2619 1 1591 1229 1599
2620 1 1389 1229 1393
2621 1 1389 1229 1599
2622 1 1393 1229 1599
2623 1 984 1230 1388
2624 1 1388 1230 1398
2625 1 994 1230 1388
2626 1 984 1230 1398
2627 1 984 1230 994
2628 1 994 1230 1398
2629 1 591 1231 1405
2630 1 1405 1231 1423
2631 1 608 1231 1405
2632 1 591 1231 1423
2633 1 591 1231 608
2634 1 608 1231 1423
2635 1 998 1232 1408
2636 1 998 1232 1421
2637 1 998 1232 1019
2638 1 1408 1232 1421
2639 1 1019 1232 1408
2640 1 1019 1232 1421
2641 1 1409 1233 1619
2642 1 1409 1233 1622
2643 1 1409 1233 1420
2644 1 1619 1233 1622
2645 1 1420 1233 1619
2646 1 1420 1233 1622
2647 1 1006 1234 1410
2648 1 1017 1234 1410
2649 1 1410 1234 1428
2650 1 1006 1234 1017
2651 1 1006 1234 1428
2652 1 1017 1234 1428
2653 1 597 1235 1411
2654 1 1411 1235 1417
2655 1 603 1235 1411
2656 1 597 1235 1417
2657 1 597 1235 603
2658 1 603 1235 1417
2659 1 1416 1236 1616
2660 1 1422 1236 1616
2661 1 1616 1236 1630
2662 1 1416 1236 1422
2663 1 1416 1236 1630
2664 1 1422 1236 1630
2665 2 1326 1309 1237
2666 3 1237 1309 1381
2667 4 1326 1309 1381
2668 2 1366 1310 1238
2669 3 1238 1310 1382
2670 4 1366 1310 1382
2671 2 1365 1311 1239
2672 3 1239 1311 1383
2673 4 1365 1311 1383
2674 2 1332 1312 1240
2675 3 1240 1312 1384
2676 4 1332 1312 1384
2677 2 1325 1313 1241
2678 3 1241 1313 1385
2679 4 1325 1313 1385
2680 2 1321 1314 1242
2681 3 1242 1314 1386
2682 4 1321 1314 1386
2683 2 1327 1315 1243
2684 3 1243 1315 1387
2685 4 1327 1315 1387
2686 2 1359 1316 1244
2687 3 1244 1316 1388
2688 4 1359 1316 1388
2689 2 1367 1317 1245
2690 3 1245 1317 1389
2691 4 1367 1317 1389
2692 2 1358 1318 1246
2693 3 1246 1318 1390
2694 4 1358 1318 1390
2695 2 1364 1319 1247
2696 3 1247 1319 1391
2697 4 1364 1319 1391
2698 2 1324 1320 1248
2699 3 1248 1320 1392
2700 4 1324 1320 1392
2701 2 1314 1321 1249
2702 3 1249 1321 1393
2703 4 1314 1321 1393
2704 2 1354 1322 1250
2705 3 1250 1322 1394
2706 4 1354 1322 1394
2707 2 1352 1323 1251
2708 3 1251 1323 1395
2709 4 1352 1323 1395
2710 2 1320 1324 1252
2711 3 1252 1324 1396
2712 4 1320 1324 1396
2713 2 1313 1325 1253
2714 3 1253 1325 1397
2715 4 1313 1325 1397
2716 2 1309 1326 1254
2717 3 1254 1326 1398
2718 4 1309 1326 1398
2719 2 1315 1327 1255
2720 3 1255 1327 1399
2721 4 1315 1327 1399
2722 2 1355 1328 1256
2723 3 1256 1328 1400
2724 4 1355 1328 1400
2725 2 1347 1329 1257
2726 3 1257 1329 1401
2727 4 1347 1329 1401
2728 2 1346 1330 1258
2729 3 1258 1330 1402
2730 4 1346 1330 1402
2731 2 1353 1331 1259
2732 3 1259 1331 1403
2733 4 1353 1331 1403
2734 2 1312 1332 1260
2735 3 1260 1332 1404
2736 4 1312 1332 1404
2737 5 858 1333 1381
2738 5 858 1333 1398
2739 6 1381 1333 1398
2740 5 862 1334 1402
2741 5 862 1334 1406
2742 6 1402 1334 1406
2743 5 864 1335 1383
2744 5 864 1335 1425
2745 6 1383 1335 1425
2746 5 1268 1336 1384
2747 5 1268 1336 1404
2748 6 1384 1336 1404
2749 5 445 1337 1385
2750 5 445 1337 1397
2751 6 1385 1337 1397
2752 5 1469 1338 1386
2753 5 1469 1338 1393
2754 6 1386 1338 1393
2755 5 1262 1339 1387
2756 5 1262 1339 1399
2757 6 1387 1339 1399
2758 5 1271 1340 1388
2759 5 1271 1340 1419
2760 6 1388 1340 1419
2761 5 1263 1341 1389
2762 5 1263 1341 1427
2763 6 1389 1341 1427
2764 5 1267 1342 1394
2765 5 1267 1342 1414
2766 6 1394 1342 1414
2767 5 1264 1343 1400
2768 5 1264 1343 1415
2769 6 1400 1343 1415
2770 5 1269 1344 1392
2771 5 1269 1344 1396
2772 6 1392 1344 1396
2773 2 1362 1345 1273
2774 3 1273 1345 1405
2775 4 1362 1345 1405
2776 2 1330 1346 1274
2777 3 1274 1346 1406
2778 4 1330 1346 1406
2779 2 1329 1347 1275
2780 3 1275 1347 1407
2781 4 1329 1347 1407
2782 2 1368 1348 1276
2783 3 1276 1348 1408
2784 4 1368 1348 1408
2785 2 1361 1349 1277
2786 3 1277 1349 1409
2787 4 1361 1349 1409
2788 2 1357 1350 1278
2789 3 1278 1350 1410
2790 4 1357 1350 1410
2791 2 1363 1351 1279
2792 3 1279 1351 1411
2793 4 1363 1351 1411
2794 2 1323 1352 1280
2795 3 1280 1352 1412
2796 4 1323 1352 1412
2797 2 1331 1353 1281
2798 3 1281 1353 1413
2799 4 1331 1353 1413
2800 2 1322 1354 1282
2801 3 1282 1354 1414
2802 4 1322 1354 1414
2803 2 1328 1355 1283
2804 3 1283 1355 1415
2805 4 1328 1355 1415
2806 2 1360 1356 1284
2807 3 1284 1356 1416
2808 4 1360 1356 1416
2809 2 1350 1357 1285
2810 3 1285 1357 1417
2811 4 1350 1357 1417
2812 2 1318 1358 1286
2813 3 1286 1358 1418
2814 4 1318 1358 1418
2815 2 1316 1359 1287
2816 3 1287 1359 1419
2817 4 1316 1359 1419
2818 2 1356 1360 1288
2819 3 1288 1360 1420
2820 4 1356 1360 1420
2821 2 1349 1361 1289
2822 3 1289 1361 1421
2823 4 1349 1361 1421
2824 2 1345 1362 1290
2825 3 1290 1362 1422
2826 4 1345 1362 1422
2827 2 1351 1363 1291
2828 3 1291 1363 1423
2829 4 1351 1363 1423
2830 2 1319 1364 1292
2831 3 1292 1364 1424
2832 4 1319 1364 1424
2833 2 1311 1365 1293
2834 3 1293 1365 1425
2835 4 1311 1365 1425
2836 2 1310 1366 1294
2837 3 1294 1366 1426
2838 4 1310 1366 1426
2839 2 1317 1367 1295
2840 3 1295 1367 1427
2841 4 1317 1367 1427
2842 2 1348 1368 1296
2843 3 1296 1368 1428
2844 4 1348 1368 1428
2845 5 1302 1369 1405
2846 5 1302 1369 1422
2847 6 1405 1369 1422
2848 5 1306 1370 1382
2849 5 1306 1370 1426
2850 6 1382 1370 1426
2851 5 1308 1371 1401
2852 5 1308 1371 1407
2853 6 1401 1371 1407
2854 5 896 1372 1408
2855 5 896 1372 1428
2856 6 1408 1372 1428
2857 5 1297 1373 1409
2858 5 1297 1373 1421
2859 6 1409 1373 1421
2860 5 1301 1374 1410
2861 5 1301 1374 1417
2862 6 1410 1374 1417
2863 5 482 1375 1411
2864 5 482 1375 1423
2865 6 1411 1375 1423
2866 5 1511 1376 1395
2867 5 1511 1376 1412
2868 6 1395 1376 1412
2869 5 483 1377 1403
2870 5 483 1377 1413
2871 6 1403 1377 1413
2872 5 1507 1378 1390
2873 5 1507 1378 1418
2874 6 1390 1378 1418
2875 5 484 1379 1391
2876 5 484 1379 1424
2877 6 1391 1379 1424
2878 5 1509 1380 1416
2879 5 1509 1380 1420
2880 6 1416 1380 1420
2881 7 1309 1381 1225
2882 8 1333 1381 1225
2883 9 1309 1381 1333
2884 7 1310 1382 1226
2885 8 1370 1382 1226
2886 9 1310 1382 1370
2887 7 1311 1383 817
2888 8 1335 1383 817
2889 9 1311 1383 1335
2890 7 1312 1384 410
2891 8 1336 1384 410
2892 9 1312 1384 1336
2893 7 1313 1385 1227
2894 8 1337 1385 1227
2895 9 1313 1385 1337
2896 7 1314 1386 1228
2897 8 1338 1386 1228
2898 9 1314 1386 1338
2899 7 1315 1387 1433
2900 8 1339 1387 1433
2901 9 1315 1387 1339
2902 7 1316 1388 1230
2903 8 1340 1388 1230
2904 9 1316 1388 1340
2905 7 1317 1389 1229
2906 8 1341 1389 1229
2907 9 1317 1389 1341
2908 7 1318 1390 1432
2909 8 1378 1390 1432
2910 9 1318 1390 1378
2911 7 1319 1391 411
2912 8 1379 1391 411
2913 9 1319 1391 1379
2914 7 1320 1392 822
2915 8 1344 1392 822
2916 9 1320 1392 1344
2917 7 1321 1393 1229
2918 8 1338 1393 1229
2919 9 1321 1393 1338
2920 7 1322 1394 1227
2921 8 1342 1394 1227
2922 9 1322 1394 1342
2923 7 1323 1395 1433
2924 8 1376 1395 1433
2925 9 1323 1395 1376
2926 7 1324 1396 411
2927 8 1344 1396 411
2928 9 1324 1396 1344
2929 7 1325 1397 1226
2930 8 1337 1397 1226
2931 9 1325 1397 1337
2932 7 1326 1398 1230
2933 8 1333 1398 1230
2934 9 1326 1398 1333
2935 7 1327 1399 817
2936 8 1339 1399 817
2937 9 1327 1399 1339
2938 7 1328 1400 1225
2939 8 1343 1400 1225
2940 9 1328 1400 1343
2941 7 1329 1401 1228
2942 8 1371 1401 1228
2943 9 1329 1401 1371
2944 7 1330 1402 822
2945 8 1334 1402 822
2946 9 1330 1402 1334
2947 7 1331 1403 410
2948 8 1377 1403 410
2949 9 1331 1403 1377
2950 7 1332 1404 1432
2951 8 1336 1404 1432
2952 9 1332 1404 1336
2953 7 1345 1405 1231
2954 8 1369 1405 1231
2955 9 1345 1405 1369
2956 8 1334 1406 824
2957 7 1346 1406 824
2958 9 1346 1406 1334
2959 7 1347 1407 415
2960 8 1371 1407 415
2961 9 1347 1407 1371
2962 7 1348 1408 1232
2963 8 1372 1408 1232
2964 9 1348 1408 1372
2965 7 1349 1409 1233
2966 8 1373 1409 1233
2967 9 1349 1409 1373
2968 7 1350 1410 1234
2969 8 1374 1410 1234
2970 9 1350 1410 1374
2971 7 1351 1411 1235
2972 8 1375 1411 1235
2973 9 1351 1411 1375
2974 7 1352 1412 1440
2975 8 1376 1412 1440
2976 9 1352 1412 1376
2977 7 1353 1413 419
2978 8 1377 1413 419
2979 9 1353 1413 1377
2980 8 1342 1414 826
2981 7 1354 1414 826
2982 9 1354 1414 1342
2983 8 1343 1415 1437
2984 7 1355 1415 1437
2985 9 1355 1415 1343
2986 7 1356 1416 1236
2987 8 1380 1416 1236
2988 9 1356 1416 1380
2989 7 1357 1417 1235
2990 8 1374 1417 1235
2991 9 1357 1417 1374
2992 7 1358 1418 1437
2993 8 1378 1418 1437
2994 9 1358 1418 1378
2995 8 1340 1419 419
2996 7 1359 1419 419
2997 9 1359 1419 1340
2998 7 1360 1420 1233
2999 8 1380 1420 1233
3000 9 1360 1420 1380
3001 7 1361 1421 1232
3002 8 1373 1421 1232
3003 9 1361 1421 1373
3004 7 1362 1422 1236
3005 8 1369 1422 1236
3006 9 1362 1422 1369
3007 7 1363 1423 1231
3008 8 1375 1423 1231
3009 9 1363 1423 1375
3010 7 1364 1424 415
3011 8 1379 1424 415
3012 9 1364 1424 1379
3013 8 1335 1425 826
3014 7 1365 1425 826
3015 9 1365 1425 1335
3016 7 1366 1426 1440
3017 8 1370 1426 1440
3018 9 1366 1426 1370
3019 8 1341 1427 824
3020 7 1367 1427 824
3021 9 1367 1427 1341
3022 7 1368 1428 1234
3023 8 1372 1428 1234
3024 9 1368 1428 1372
3025 1 1179 1429 1585
3026 1 1195 1429 1585
3027 1 1585 1429 1604
3028 1 1179 1429 1195
3029 1 1179 1429 1604
3030 1 1195 1429 1604
3031 1 772 1430 1586
3032 1 1586 1430 1601
3033 1 791 1430 1586
3034 1 772 1430 1601
3035 1 772 1430 791
3036 1 791 1430 1601
3037 1 779 1431 1589
3038 1 1589 1431 1598
3039 1 784 1431 1589
3040 1 779 1431 1598
3041 1 779 1431 784
3042 1 784 1431 1598
3043 1 1390 1432 1590
3044 1 1590 1432 1605
3045 1 1404 1432 1590
3046 1 1390 1432 1605
3047 1 1390 1432 1404
3048 1 1404 1432 1605
3049 1 1387 1433 1593
3050 1 1387 1433 1597
3051 1 1387 1433 1395
3052 1 1593 1433 1597
3053 1 1395 1433 1593
3054 1 1395 1433 1597
3055 1 1188 1434 1592
3056 1 1592 1434 1602
3057 1 1198 1434 1592
3058 1 1188 1434 1602
3059 1 1188 1434 1198
3060 1 1198 1434 1602
3061 1 795 1435 1609
3062 1 1609 1435 1627
3063 1 812 1435 1609
3064 1 795 1435 1627
3065 1 795 1435 812
3066 1 812 1435 1627
3067 1 1202 1436 1612
3068 1 1202 1436 1625
3069 1 1202 1436 1223
3070 1 1612 1436 1625
3071 1 1223 1436 1612
3072 1 1223 1436 1625
3073 1 1415 1437 1613
3074 1 1418 1437 1613
3075 1 1613 1437 1624
3076 1 1415 1437 1418
3077 1 1415 1437 1624
3078 1 1418 1437 1624
3079 1 1210 1438 1614
3080 1 1221 1438 1614
3081 1 1614 1438 1632
3082 1 1210 1438 1221
3083 1 1210 1438 1632
3084 1 1221 1438 1632
3085 1 801 1439 1615
3086 1 1615 1439 1621
3087 1 807 1439 1615
3088 1 801 1439 1621
3089 1 801 1439 807
3090 1 807 1439 1621
3091 1 1412 1440 1620
3092 1 1412 1440 1626
3093 1 1412 1440 1426
3094 1 1620 1440 1626
3095 1 1426 1440 1620
3096 1 1426 1440 1626
3097 2 1530 1513 1441
3098 3 1441 1513 1585
3099 4 1530 1513 1585
3100 2 1570 1514 1442
3101 3 1442 1514 1586
3102 4 1570 1514 1586
3103 2 1569 1515 1443
3104 3 1443 1515 1587
3105 4 1569 1515 1587
3106 2 1536 1516 1444
3107 3 1444 1516 1588
3108 4 1536 1516 1588
3109 2 1529 1517 1445
3110 3 1445 1517 1589
3111 4 1529 1517 1589
3112 2 1525 1518 1446
3113 3 1446 1518 1590
3114 4 1525 1518 1590
3115 2 1531 1519 1447
3116 3 1447 1519 1591
3117 4 1531 1519 1591
3118 2 1563 1520 1448
3119 3 1448 1520 1592
3120 4 1563 1520 1592
3121 2 1571 1521 1449
3122 3 1449 1521 1593
3123 4 1571 1521 1593
3124 2 1562 1522 1450
3125 3 1450 1522 1594
3126 4 1562 1522 1594
3127 2 1568 1523 1451
3128 3 1451 1523 1595
3129 4 1568 1523 1595
3130 2 1528 1524 1452
3131 3 1452 1524 1596
3132 4 1528 1524 1596
3133 2 1518 1525 1453
3134 3 1453 1525 1597
3135 4 1518 1525 1597
3136 2 1558 1526 1454
3137 3 1454 1526 1598
3138 4 1558 1526 1598
3139 2 1556 1527 1455
3140 3 1455 1527 1599
3141 4 1556 1527 1599
3142 2 1524 1528 1456
3143 3 1456 1528 1600
3144 4 1524 1528 1600
3145 2 1517 1529 1457
3146 3 1457 1529 1601
3147 4 1517 1529 1601
3148 2 1513 1530 1458
3149 3 1458 1530 1602
3150 4 1513 1530 1602
3151 2 1519 1531 1459
3152 3 1459 1531 1603
3153 4 1519 1531 1603
3154 2 1559 1532 1460
3155 3 1460 1532 1604
3156 4 1559 1532 1604
3157 2 1551 1533 1461
3158 3 1461 1533 1605
3159 4 1551 1533 1605
3160 2 1550 1534 1462
3161 3 1462 1534 1606
3162 4 1550 1534 1606
3163 2 1557 1535 1463
3164 3 1463 1535 1607
3165 4 1557 1535 1607
3166 2 1516 1536 1464
3167 3 1464 1536 1608
3168 4 1516 1536 1608
3169 5 1062 1537 1585
3170 5 1062 1537 1602
3171 6 1585 1537 1602
3172 5 1066 1538 1606
3173 5 1066 1538 1610
3174 6 1606 1538 1610
3175 5 1068 1539 1587
3176 5 1068 1539 1629
3177 6 1587 1539 1629
3178 5 1472 1540 1588
3179 5 1472 1540 1608
3180 6 1588 1540 1608
3181 5 649 1541 1589
3182 5 649 1541 1601
3183 6 1589 1541 1601
3184 5 1265 1542 1590
3185 5 1265 1542 1597
3186 6 1590 1542 1597
3187 5 1466 1543 1591
3188 5 1466 1543 1603
3189 6 1591 1543 1603
3190 5 1475 1544 1592
3191 5 1475 1544 1623
3192 6 1592 1544 1623
3193 5 1467 1545 1593
3194 5 1467 1545 1631
3195 6 1593 1545 1631
3196 5 1471 1546 1598
3197 5 1471 1546 1618
3198 6 1598 1546 1618
3199 5 1468 1547 1604
3200 5 1468 1547 1619
3201 6 1604 1547 1619
3202 5 1473 1548 1596
3203 5 1473 1548 1600
3204 6 1596 1548 1600
3205 2 1566 1549 1477
3206 3 1477 1549 1609
3207 4 1566 1549 1609
3208 2 1534 1550 1478
3209 3 1478 1550 1610
3210 4 1534 1550 1610
3211 2 1533 1551 1479
3212 3 1479 1551 1611
3213 4 1533 1551 1611
3214 2 1572 1552 1480
3215 3 1480 1552 1612
3216 4 1572 1552 1612
3217 2 1565 1553 1481
3218 3 1481 1553 1613
3219 4 1565 1553 1613
3220 2 1561 1554 1482
3221 3 1482 1554 1614
3222 4 1561 1554 1614
3223 2 1567 1555 1483
3224 3 1483 1555 1615
3225 4 1567 1555 1615
3226 2 1527 1556 1484
3227 3 1484 1556 1616
3228 4 1527 1556 1616
3229 2 1535 1557 1485
3230 3 1485 1557 1617
3231 4 1535 1557 1617
3232 2 1526 1558 1486
3233 3 1486 1558 1618
3234 4 1526 1558 1618
3235 2 1532 1559 1487
3236 3 1487 1559 1619
3237 4 1532 1559 1619
3238 2 1564 1560 1488
3239 3 1488 1560 1620
3240 4 1564 1560 1620
3241 2 1554 1561 1489
3242 3 1489 1561 1621
3243 4 1554 1561 1621
3244 2 1522 1562 1490
3245 3 1490 1562 1622
3246 4 1522 1562 1622
3247 2 1520 1563 1491
3248 3 1491 1563 1623
3249 4 1520 1563 1623
3250 2 1560 1564 1492
3251 3 1492 1564 1624
3252 4 1560 1564 1624
3253 2 1553 1565 1493
3254 3 1493 1565 1625
3255 4 1553 1565 1625
3256 2 1549 1566 1494
3257 3 1494 1566 1626
3258 4 1549 1566 1626
3259 2 1555 1567 1495
3260 3 1495 1567 1627
3261 4 1555 1567 1627
3262 2 1523 1568 1496
3263 3 1496 1568 1628
3264 4 1523 1568 1628
3265 2 1515 1569 1497
3266 3 1497 1569 1629
3267 4 1515 1569 1629
3268 2 1514 1570 1498
3269 3 1498 1570 1630
3270 4 1514 1570 1630
3271 2 1521 1571 1499
3272 3 1499 1571 1631
3273 4 1521 1571 1631
3274 2 1552 1572 1500
3275 3 1500 1572 1632
3276 4 1552 1572 1632
3277 5 1506 1573 1609
3278 5 1506 1573 1626
3279 6 1609 1573 1626
3280 5 1510 1574 1586
3281 5 1510 1574 1630
3282 6 1586 1574 1630
3283 5 1512 1575 1605
3284 5 1512 1575 1611
3285 6 1605 1575 1611
3286 5 1100 1576 1612
3287 5 1100 1576 1632
3288 6 1612 1576 1632
3289 5 1501 1577 1613
3290 5 1501 1577 1625
3291 6 1613 1577 1625
3292 5 1505 1578 1614
3293 5 1505 1578 1621
3294 6 1614 1578 1621
3295 5 686 1579 1615
3296 5 686 1579 1627
3297 6 1615 1579 1627
3298 5 1307 1580 1599
3299 5 1307 1580 1616
3300 6 1599 1580 1616
3301 5 687 1581 1607
3302 5 687 1581 1617
3303 6 1607 1581 1617
3304 5 1303 1582 1594
3305 5 1303 1582 1622
3306 6 1594 1582 1622
3307 5 688 1583 1595
3308 5 688 1583 1628
3309 6 1595 1583 1628
3310 5 1305 1584 1620
3311 5 1305 1584 1624
3312 6 1620 1584 1624
3313 7 1513 1585 1429
3314 8 1537 1585 1429
3315 9 1513 1585 1537
3316 7 1514 1586 1430
3317 8 1574 1586 1430
3318 9 1514 1586 1574
3319 7 1515 1587 1021
3320 8 1539 1587 1021
3321 9 1515 1587 1539
3322 7 1516 1588 614
3323 8 1540 1588 614
3324 9 1516 1588 1540
3325 7 1517 1589 1431
3326 8 1541 1589 1431
3327 9 1517 1589 1541
3328 7 1518 1590 1432
3329 8 1542 1590 1432
3330 9 1518 1590 1542
3331 7 1519 1591 1229
3332 8 1543 1591 1229
3333 9 1519 1591 1543
3334 7 1520 1592 1434
3335 8 1544 1592 1434
3336 9 1520 1592 1544
3337 7 1521 1593 1433
3338 8 1545 1593 1433
3339 9 1521 1593 1545
3340 7 1522 1594 1228
3341 8 1582 1594 1228
3342 9 1522 1594 1582
3343 7 1523 1595 615
3344 8 1583 1595 615
3345 9 1523 1595 1583
3346 7 1524 1596 1026
3347 8 1548 1596 1026
3348 9 1524 1596 1548
3349 7 1525 1597 1433
3350 8 1542 1597 1433
3351 9 1525 1597 1542
3352 7 1526 1598 1431
3353 8 1546 1598 1431
3354 9 1526 1598 1546
3355 7 1527 1599 1229
3356 8 1580 1599 1229
3357 9 1527 1599 1580
3358 7 1528 1600 615
3359 8 1548 1600 615
3360 9 1528 1600 1548
3361 7 1529 1601 1430
3362 8 1541 1601 1430
3363 9 1529 1601 1541
3364 7 1530 1602 1434
3365 8 1537 1602 1434
3366 9 1530 1602 1537
3367 7 1531 1603 1021
3368 8 1543 1603 1021
3369 9 1531 1603 1543
3370 7 1532 1604 1429
3371 8 1547 1604 1429
3372 9 1532 1604 1547
3373 7 1533 1605 1432
3374 8 1575 1605 1432
3375 9 1533 1605 1575
3376 7 1534 1606 1026
3377 8 1538 1606 1026
3378 9 1534 1606 1538
3379 7 1535 1607 614
3380 8 1581 1607 614
3381 9 1535 1607 1581
3382 7 1536 1608 1228
3383 8 1540 1608 1228
3384 9 1536 1608 1540
3385 7 1549 1609 1435
3386 8 1573 1609 1435
3387 9 1549 1609 1573
3388 8 1538 1610 1028
3389 7 1550 1610 1028
3390 9 1550 1610 1538
3391 7 1551 1611 619
3392 8 1575 1611 619
3393 9 1551 1611 1575
3394 7 1552 1612 1436
3395 8 1576 1612 1436
3396 9 1552 1612 1576
3397 7 1553 1613 1437
3398 8 1577 1613 1437
3399 9 1553 1613 1577
3400 7 1554 1614 1438
3401 8 1578 1614 1438
3402 9 1554 1614 1578
3403 7 1555 1615 1439
3404 8 1579 1615 1439
3405 9 1555 1615 1579
3406 7 1556 1616 1236
3407 8 1580 1616 1236
3408 9 1556 1616 1580
3409 7 1557 1617 623
3410 8 1581 1617 623
3411 9 1557 1617 1581
3412 8 1546 1618 1030
3413 7 1558 1618 1030
3414 9 1558 1618 1546
3415 8 1547 1619 1233
3416 7 1559 1619 1233
3417 9 1559 1619 1547
3418 7 1560 1620 1440
3419 8 1584 1620 1440
3420 9 1560 1620 1584
3421 7 1561 1621 1439
3422 8 1578 1621 1439
3423 9 1561 1621 1578
3424 7 1562 1622 1233
3425 8 1582 1622 1233
3426 9 1562 1622 1582
3427 8 1544 1623 623
3428 7 1563 1623 623
3429 9 1563 1623 1544
3430 7 1564 1624 1437
3431 8 1584 1624 1437
3432 9 1564 1624 1584
3433 7 1565 1625 1436
3434 8 1577 1625 1436
3435 9 1565 1625 1577
3436 7 1566 1626 1440
3437 8 1573 1626 1440
3438 9 1566 1626 1573
3439 7 1567 1627 1435
3440 8 1579 1627 1435
3441 9 1567 1627 1579
3442 7 1568 1628 619
3443 8 1583 1628 619
3444 9 1568 1628 1583
3445 8 1539 1629 1030
3446 7 1569 1629 1030
3447 9 1569 1629 1539
3448 7 1570 1630 1236
3449 8 1574 1630 1236
3450 9 1570 1630 1574
3451 8 1545 1631 1028
3452 7 1571 1631 1028
3453 9 1571 1631 1545
3454 7 1572 1632 1438
3455 8 1576 1632 1438
3456 9 1572 1632 1576

Dihedrals

1 1 567 1 157 85
2 2 567 1 157 109
3 1 583 1 157 85
4 2 583 1 157 109
5 1 176 1 157 85
6 2 176 1 157 109
7 1 157 1 567 495
8 2 157 1 567 519
9 1 583 1 567 495
10 2 583 1 567 519
11 1 176 1 567 495
12 2 176 1 567 519
13 1 157 1 583 511
14 2 157 1 583 523
15 1 567 1 583 511
16 2 567 1 583 523
17 1 176 1 583 511
18 2 176 1 583 523
19 1 157 1 176 104
20 2 157 1 176 119
21 1 567 1 176 104
22 2 567 1 176 119
23 1 583 1 176 104
24 2 583 1 176 119
25 1 976 2 158 86
26 2 976 2 158 146
27 1 173 2 158 86
28 2 173 2 158 146
29 1 995 2 158 86
30 2 995 2 158 146
31 1 158 2 976 904
32 2 158 2 976 928
33 1 173 2 976 904
34 2 173 2 976 928
35 1 995 2 976 904
36 2 995 2 976 928
37 1 158 2 173 101
38 2 158 2 173 113
39 1 976 2 173 101
40 2 976 2 173 113
41 1 995 2 173 101
42 2 995 2 173 113
43 1 158 2 995 923
44 2 158 2 995 969
45 1 976 2 995 923
46 2 976 2 995 969
47 1 173 2 995 923
48 2 173 2 995 969
49 1 983 3 161 89
50 2 983 3 161 113
51 1 170 3 161 89
52 2 170 3 161 113
53 1 988 3 161 89
54 2 988 3 161 113
55 1 161 3 983 911
56 2 161 3 983 971
57 1 170 3 983 911
58 2 170 3 983 971
59 1 988 3 983 911
60 2 988 3 983 971
61 1 161 3 170 98
62 2 161 3 170 118
63 1 983 3 170 98
64 2 983 3 170 118
65 1 988 3 170 98
66 2 988 3 170 118
67 1 161 3 988 916
68 2 161 3 988 936
69 1 983 3 988 916
70 2 983 3 988 936
71 1 170 3 988 916
72 2 170 3 988 936
73 1 370 4 162 90
74 2 370 4 162 114
75 1 177 4 162 90
76 2 177 4 162 114
77 1 384 4 162 90
78 2 384 4 162 114
79 1 162 4 370 298
80 2 162 4 370 358
81 1 177 4 370 298
82 2 177 4 370 358
83 1 384 4 370 298
84 2 384 4 370 358
85 1 162 4 177 105
86 2 162 4 177 147
87 1 370 4 177 105
88 2 370 4 177 147
89 1 384 4 177 105
90 2 384 4 177 147
91 1 162 4 384 312
92 2 162 4 384 316
93 1 370 4 384 312
94 2 370 4 384 316
95 1 177 4 384 312
96 2 177 4 384 316
97 1 165 5 367 295
98 2 165 5 367 319
99 1 169 5 367 295
100 2 169 5 367 319
101 1 375 5 367 295
102 2 375 5 367 319
103 1 367 5 165 93
104 2 367 5 165 117
105 1 169 5 165 93
106 2 169 5 165 117
107 1 375 5 165 93
108 2 375 5 165 117
109 1 367 5 169 97
110 2 367 5 169 114
111 1 165 5 169 97
112 2 165 5 169 114
113 1 375 5 169 97
114 2 375 5 169 114
115 1 367 5 375 303
116 2 367 5 375 356
117 1 165 5 375 303
118 2 165 5 375 356
119 1 169 5 375 303
120 2 169 5 375 356
121 1 576 6 164 92
122 2 576 6 164 116
123 1 174 6 164 92
124 2 174 6 164 116
125 1 586 6 164 92
126 2 586 6 164 116
127 1 164 6 576 504
128 2 164 6 576 528
129 1 174 6 576 504
130 2 174 6 576 528
131 1 586 6 576 504
132 2 586 6 576 528
133 1 164 6 174 102
134 2 164 6 174 109
135 1 576 6 174 102
136 2 576 6 174 109
137 1 586 6 174 102
138 2 586 6 174 109
139 1 164 6 586 514
140 2 164 6 586 518
141 1 576 6 586 514
142 2 576 6 586 518
143 1 174 6 586 514
144 2 174 6 586 518
145 1 999 7 181 121
146 2 999 7 181 145
147 1 199 7 181 121
148 2 199 7 181 145
149 1 1016 7 181 121
150 2 1016 7 181 145
151 1 181 7 999 939
152 2 181 7 999 963
153 1 199 7 999 939
154 2 199 7 999 963
155 1 1016 7 999 939
156 2 1016 7 999 963
157 1 181 7 199 139
158 2 181 7 199 151
159 1 999 7 199 139
160 2 999 7 199 151
161 1 1016 7 199 139
162 2 1016 7 199 151
163 1 181 7 1016 956
164 2 181 7 1016 971
165 1 999 7 1016 956
166 2 999 7 1016 971
167 1 199 7 1016 956
168 2 199 7 1016 971
169 2 184 8 590 518
170 1 184 8 590 530
171 2 197 8 590 518
172 1 197 8 590 530
173 2 611 8 590 518
174 1 611 8 590 530
175 1 590 8 184 124
176 2 590 8 184 148
177 1 197 8 184 124
178 2 197 8 184 148
179 1 611 8 184 124
180 2 611 8 184 148
181 1 590 8 197 137
182 2 590 8 197 149
183 1 184 8 197 137
184 2 184 8 197 149
185 1 611 8 197 137
186 2 611 8 197 149
187 2 590 8 611 525
188 1 590 8 611 551
189 2 184 8 611 525
190 1 184 8 611 551
191 2 197 8 611 525
192 1 197 8 611 551
193 1 395 9 185 125
194 2 395 9 185 149
195 1 398 9 185 125
196 2 398 9 185 149
197 1 196 9 185 125
198 2 196 9 185 149
199 2 185 9 395 323
200 1 185 9 395 335
201 2 398 9 395 323
202 1 398 9 395 335
203 2 196 9 395 323
204 1 196 9 395 335
205 1 185 9 398 338
206 2 185 9 398 358
207 1 395 9 398 338
208 2 395 9 398 358
209 1 196 9 398 338
210 2 196 9 398 358
211 1 185 9 196 136
212 2 185 9 196 156
213 1 395 9 196 136
214 2 395 9 196 156
215 1 398 9 196 136
216 2 398 9 196 156
217 1 598 10 186 126
218 2 598 10 186 150
219 1 609 10 186 126
220 2 609 10 186 150
221 1 204 10 186 126
222 2 204 10 186 150
223 2 186 10 598 526
224 1 186 10 598 538
225 2 609 10 598 526
226 1 609 10 598 538
227 2 204 10 598 526
228 1 204 10 598 538
229 2 186 10 609 519
230 1 186 10 609 549
231 2 598 10 609 519
232 1 598 10 609 549
233 2 204 10 609 519
234 1 204 10 609 549
235 1 186 10 204 144
236 2 186 10 204 148
237 1 598 10 204 144
238 2 598 10 204 148
239 1 609 10 204 144
240 2 609 10 204 148
241 1 1005 11 187 127
242 2 1005 11 187 151
243 1 193 11 187 127
244 2 193 11 187 151
245 1 1011 11 187 127
246 2 1011 11 187 151
247 1 187 11 1005 945
248 2 187 11 1005 969
249 1 193 11 1005 945
250 2 193 11 1005 969
251 1 1011 11 1005 945
252 2 1011 11 1005 969
253 1 187 11 193 133
254 2 187 11 193 150
255 1 1005 11 193 133
256 2 1005 11 193 150
257 1 1011 11 193 133
258 2 1011 11 193 150
259 2 187 11 1011 932
260 1 187 11 1011 951
261 2 1005 11 1011 932
262 1 1005 11 1011 951
263 2 193 11 1011 932
264 1 193 11 1011 951
265 1 192 12 392 332
266 2 192 12 392 356
267 1 198 12 392 332
268 2 198 12 392 356
269 1 406 12 392 332
270 2 406 12 392 356
271 1 392 12 192 132
272 2 392 12 192 156
273 1 198 12 192 132
274 2 198 12 192 156
275 1 406 12 192 132
276 2 406 12 192 156
277 1 392 12 198 138
278 2 392 12 198 145
279 1 192 12 198 138
280 2 192 12 198 145
281 1 406 12 198 138
282 2 406 12 198 145
283 1 392 12 406 346
284 2 392 12 406 350
285 1 192 12 406 346
286 2 192 12 406 350
287 1 198 12 406 346
288 2 198 12 406 350
289 3 13 85 102 30
290 4 13 85 102 174
291 4 157 85 102 30
292 5 157 85 102 174
293 6 13 85 157 1
294 7 13 85 157 109
295 8 102 85 157 1
296 9 102 85 157 109
297 3 14 86 142 70
298 4 14 86 142 202
299 4 158 86 142 70
300 5 158 86 142 202
301 6 14 86 158 2
302 7 14 86 158 146
303 8 142 86 158 2
304 9 142 86 158 146
305 3 15 87 141 69
306 4 15 87 141 201
307 4 159 87 141 69
308 5 159 87 141 201
309 6 15 87 159 409
310 7 15 87 159 111
311 8 141 87 159 409
312 9 141 87 159 111
313 3 16 88 108 36
314 4 16 88 108 180
315 4 160 88 108 36
316 5 160 88 108 180
317 6 16 88 160 818
318 7 16 88 160 112
319 8 108 88 160 818
320 9 108 88 160 112
321 3 17 89 101 29
322 4 17 89 101 173
323 4 161 89 101 29
324 5 161 89 101 173
325 6 17 89 161 3
326 7 17 89 161 113
327 8 101 89 161 3
328 9 101 89 161 113
329 3 18 90 97 25
330 4 18 90 97 169
331 4 162 90 97 25
332 5 162 90 97 169
333 6 18 90 162 4
334 7 18 90 162 114
335 8 97 90 162 4
336 9 97 90 162 114
337 3 19 91 103 31
338 4 19 91 103 175
339 4 163 91 103 31
340 5 163 91 103 175
341 6 19 91 163 209
342 7 19 91 163 115
343 8 103 91 163 209
344 9 103 91 163 115
345 3 20 92 135 63
346 4 20 92 135 195
347 4 164 92 135 63
348 5 164 92 135 195
349 6 20 92 164 6
350 7 20 92 164 116
351 8 135 92 164 6
352 9 135 92 164 116
353 3 21 93 143 71
354 4 21 93 143 203
355 4 165 93 143 71
356 5 165 93 143 203
357 6 21 93 165 5
358 7 21 93 165 117
359 8 143 93 165 5
360 9 143 93 165 117
361 3 22 94 134 62
362 4 22 94 134 194
363 4 166 94 134 62
364 5 166 94 134 194
365 6 22 94 166 208
366 7 22 94 166 154
367 8 134 94 166 208
368 9 134 94 166 154
369 3 23 95 140 68
370 4 23 95 140 200
371 4 167 95 140 68
372 5 167 95 140 200
373 6 23 95 167 819
374 7 23 95 167 155
375 8 140 95 167 819
376 9 140 95 167 155
377 3 24 96 100 28
378 4 24 96 100 172
379 4 168 96 100 28
380 5 168 96 100 172
381 6 24 96 168 414
382 7 24 96 168 120
383 8 100 96 168 414
384 9 100 96 168 120
385 6 25 97 169 5
386 7 25 97 169 114
387 8 90 97 169 5
388 9 90 97 169 114
389 3 26 98 130 58
390 4 26 98 130 190
391 4 170 98 130 58
392 5 170 98 130 190
393 6 26 98 170 3
394 7 26 98 170 118
395 8 130 98 170 3
396 9 130 98 170 118
397 3 27 99 128 56
398 4 27 99 128 188
399 4 171 99 128 56
400 5 171 99 128 188
401 6 27 99 171 209
402 7 27 99 171 152
403 8 128 99 171 209
404 9 128 99 171 152
405 6 28 100 172 819
406 7 28 100 172 120
407 8 96 100 172 819
408 9 96 100 172 120
409 6 29 101 173 2
410 7 29 101 173 113
411 8 89 101 173 2
412 9 89 101 173 113
413 6 30 102 174 6
414 7 30 102 174 109
415 8 85 102 174 6
416 9 85 102 174 109
417 6 31 103 175 409
418 7 31 103 175 115
419 8 91 103 175 409
420 9 91 103 175 115
421 3 32 104 131 59
422 4 32 104 131 191
423 4 176 104 131 59
424 5 176 104 131 191
425 6 32 104 176 1
426 7 32 104 176 119
427 8 131 104 176 1
428 9 131 104 176 119
429 3 33 105 123 51
430 4 33 105 123 183
431 4 177 105 123 51
432 5 177 105 123 183
433 6 33 105 177 4
434 7 33 105 177 147
435 8 123 105 177 4
436 9 123 105 177 147
437 3 34 106 122 50
438 4 34 106 122 182
439 4 178 106 122 50
440 5 178 106 122 182
441 6 34 106 178 414
442 7 34 106 178 110
443 8 122 106 178 414
444 9 122 106 178 110
445 3 35 107 129 57
446 4 35 107 129 189
447 4 179 107 129 57
448 5 179 107 129 189
449 6 35 107 179 818
450 7 35 107 179 153
451 8 129 107 179 818
452 9 129 107 179 153
453 6 36 108 180 208
454 7 36 108 180 112
455 8 88 108 180 208
456 9 88 108 180 112
457 10 450 109 157 1
458 11 450 109 157 85
459 12 174 109 157 1
460 13 174 109 157 85
461 10 450 109 174 6
462 11 450 109 174 102
463 12 157 109 174 6
464 13 157 109 174 102
465 10 454 110 178 414
466 11 454 110 178 106
467 12 182 110 178 414
468 13 182 110 178 106
469 10 454 110 182 416
470 11 454 110 182 122
471 12 178 110 182 416
472 13 178 110 182 122
473 10 456 111 159 409
474 11 456 111 159 87
475 12 201 111 159 409
476 13 201 111 159 87
477 10 456 111 201 418
478 11 456 111 201 141
479 12 159 111 201 418
480 13 159 111 201 141
481 10 44 112 160 818
482 11 44 112 160 88
483 12 180 112 160 818
484 13 180 112 160 88
485 10 44 112 180 208
486 11 44 112 180 108
487 12 160 112 180 208
488 13 160 112 180 108
489 10 853 113 161 3
490 11 853 113 161 89
491 12 173 113 161 3
492 13 173 113 161 89
493 10 853 113 173 2
494 11 853 113 173 101
495 12 161 113 173 2
496 13 161 113 173 101
497 10 245 114 162 4
498 11 245 114 162 90
499 12 169 114 162 4
500 13 169 114 162 90
501 10 245 114 169 5
502 11 245 114 169 97
503 12 162 114 169 5
504 13 162 114 169 97
505 10 38 115 163 209
506 11 38 115 163 91
507 12 175 115 163 209
508 13 175 115 163 91
509 10 38 115 175 409
510 11 38 115 175 103
511 12 163 115 175 409
512 13 163 115 175 103
513 10 47 116 164 6
514 11 47 116 164 92
515 12 195 116 164 6
516 13 195 116 164 92
517 10 47 116 195 827
518 11 47 116 195 135
519 12 164 116 195 827
520 13 164 116 195 135
521 10 39 117 165 5
522 11 39 117 165 93
523 12 203 117 165 5
524 13 203 117 165 93
525 10 39 117 203 416
526 11 39 117 203 143
527 12 165 117 203 416
528 13 165 117 203 143
529 10 43 118 170 3
530 11 43 118 170 98
531 12 190 118 170 3
532 13 190 118 170 98
533 10 43 118 190 418
534 11 43 118 190 130
535 12 170 118 190 418
536 13 170 118 190 130
537 10 40 119 176 1
538 11 40 119 176 104
539 12 191 119 176 1
540 13 191 119 176 104
541 10 40 119 191 213
542 11 40 119 191 131
543 12 176 119 191 213
544 13 176 119 191 131
545 10 45 120 168 414
546 11 45 120 168 96
547 12 172 120 168 414
548 13 172 120 168 96
549 10 45 120 172 819
550 11 45 120 172 100
551 12 168 120 172 819
552 13 168 120 172 100
553 3 49 121 138 66
554 4 49 121 138 198
555 4 181 121 138 66
556 5 181 121 138 198
557 6 49 121 181 7
558 7 49 121 181 145
559 8 138 121 181 7
560 9 138 121 181 145
561 6 50 122 182 416
562 7 50 122 182 110
563 8 106 122 182 416
564 9 106 122 182 110
565 6 51 123 183 823
566 7 51 123 183 147
567 8 105 123 183 823
568 9 105 123 183 147
569 3 52 124 144 72
570 4 52 124 144 204
571 4 184 124 144 72
572 5 184 124 144 204
573 6 52 124 184 8
574 7 52 124 184 148
575 8 144 124 184 8
576 9 144 124 184 148
577 3 53 125 137 65
578 4 53 125 137 197
579 4 185 125 137 65
580 5 185 125 137 197
581 6 53 125 185 9
582 7 53 125 185 149
583 8 137 125 185 9
584 9 137 125 185 149
585 3 54 126 133 61
586 4 54 126 133 193
587 4 186 126 133 61
588 5 186 126 133 193
589 6 54 126 186 10
590 7 54 126 186 150
591 8 133 126 186 10
592 9 133 126 186 150
593 3 55 127 139 67
594 4 55 127 139 199
595 4 187 127 139 67
596 5 187 127 139 199
597 6 55 127 187 11
598 7 55 127 187 151
599 8 139 127 187 11
600 9 139 127 187 151
601 6 56 128 188 216
602 7 56 128 188 152
603 8 99 128 188 216
604 9 99 128 188 152
605 6 57 129 189 827
606 7 57 129 189 153
607 8 107 129 189 827
608 9 107 129 189 153
609 6 58 130 190 418
610 7 58 130 190 118
611 8 98 130 190 418
612 9 98 130 190 118
613 6 59 131 191 213
614 7 59 131 191 119
615 8 104 131 191 213
616 9 104 131 191 119
617 3 60 132 136 64
618 4 60 132 136 196
619 4 192 132 136 64
620 5 192 132 136 196
621 6 60 132 192 12
622 7 60 132 192 156
623 8 136 132 192 12
624 9 136 132 192 156
625 6 61 133 193 11
626 7 61 133 193 150
627 8 126 133 193 11
628 9 126 133 193 150
629 6 62 134 194 213
630 7 62 134 194 154
631 8 94 134 194 213
632 9 94 134 194 154
633 6 63 135 195 827
634 7 63 135 195 116
635 8 92 135 195 827
636 9 92 135 195 116
637 6 64 136 196 9
638 7 64 136 196 156
639 8 132 136 196 9
640 9 132 136 196 156
641 6 65 137 197 8
642 7 65 137 197 149
643 8 125 137 197 8
644 9 125 137 197 149
645 6 66 138 198 12
646 7 66 138 198 145
647 8 121 138 198 12
648 9 121 138 198 145
649 6 67 139 199 7
650 7 67 139 199 151
651 8 127 139 199 7
652 9 127 139 199 151
653 6 68 140 200 823
654 7 68 140 200 155
655 8 95 140 200 823
656 9 95 140 200 155
657 6 69 141 201 418
658 7 69 141 201 111
659 8 87 141 201 418
660 9 87 141 201 111
661 6 70 142 202 216
662 7 70 142 202 146
663 8 86 142 202 216
664 9 86 142 202 146
665 6 71 143 203 416
666 7 71 143 203 117
667 8 93 143 203 416
668 9 93 143 203 117
669 6 72 144 204 10
670 7 72 144 204 148
671 8 124 144 204 10
672 9 124 144 204 148
673 10 78 145 181 7
674 11 78 145 181 121
675 12 198 145 181 7
676 13 198 145 181 121
677 10 78 145 198 12
678 11 78 145 198 138
679 12 181 145 198 12
680 13 181 145 198 138
681 10 82 146 158 2
682 11 82 146 158 86
683 12 202 146 158 2
684 13 202 146 158 86
685 10 82 146 202 216
686 11 82 146 202 142
687 12 158 146 202 216
688 13 158 146 202 142
689 10 84 147 177 4
690 11 84 147 177 105
691 12 183 147 177 4
692 13 183 147 177 105
693 10 84 147 183 823
694 11 84 147 183 123
695 12 177 147 183 823
696 13 177 147 183 123
697 10 488 148 184 8
698 11 488 148 184 124
699 12 204 148 184 8
700 13 204 148 184 124
701 10 488 148 204 10
702 11 488 148 204 144
703 12 184 148 204 10
704 13 184 148 204 144
705 10 73 149 185 9
706 11 73 149 185 125
707 12 197 149 185 9
708 13 197 149 185 125
709 10 73 149 197 8
710 11 73 149 197 137
711 12 185 149 197 8
712 13 185 149 197 137
713 10 77 150 186 10
714 11 77 150 186 126
715 12 193 150 186 10
716 13 193 150 186 126
717 10 77 150 193 11
718 11 77 150 193 133
719 12 186 150 193 11
720 13 186 150 193 133
721 10 890 151 187 11
722 11 890 151 187 127
723 12 199 151 187 11
724 13 199 151 187 127
725 10 890 151 199 7
726 11 890 151 199 139
727 12 187 151 199 7
728 13 187 151 199 139
729 10 287 152 171 209
730 11 287 152 171 99
731 12 188 152 171 209
732 13 188 152 171 99
733 10 287 152 188 216
734 11 287 152 188 128
735 12 171 152 188 216
736 13 171 152 188 128
737 10 891 153 179 818
738 11 891 153 179 107
739 12 189 153 179 818
740 13 189 153 179 107
741 10 891 153 189 827
742 11 891 153 189 129
743 12 179 153 189 827
744 13 179 153 189 129
745 10 283 154 166 208
746 11 283 154 166 94
747 12 194 154 166 208
748 13 194 154 166 94
749 10 283 154 194 213
750 11 283 154 194 134
751 12 166 154 194 213
752 13 166 154 194 134
753 10 892 155 167 819
754 11 892 155 167 95
755 12 200 155 167 819
756 13 200 155 167 95
757 10 892 155 200 823
758 11 892 155 200 140
759 12 167 155 200 823
760 13 167 155 200 140
761 10 285 156 192 12
762 11 285 156 192 132
763 12 196 156 192 12
764 13 196 156 192 132
765 10 285 156 196 9
766 11 285 156 196 136
767 12 192 156 196 9
768 13 192 156 196 136
769 1 87 159 409 565
770 1 87 159 409 175
771 1 87 159 409 584
772 2 111 159 409 565
773 2 111 159 409 175
774 2 111 159 409 584
775 1 88 160 818 974
776 1 88 160 818 989
777 1 88 160 818 179
778 2 112 160 818 974
779 2 112 160 818 989
780 2 112 160 818 179
781 1 91 163 209 369
782 1 91 163 209 373
783 1 91 163 209 171
784 2 115 163 209 369
785 2 115 163 209 373
786 2 115 163 209 171
787 1 94 166 208 366
788 1 94 166 208 381
789 1 94 166 208 180
790 2 154 166 208 366
791 2 154 166 208 381
792 2 154 166 208 180
793 1 95 167 819 977
794 1 95 167 819 986
795 1 95 167 819 172
796 2 155 167 819 977
797 2 155 167 819 986
798 2 155 167 819 172
799 1 96 168 414 572
800 1 96 168 414 582
801 1 96 168 414 178
802 2 120 168 414 572
803 2 120 168 414 582
804 2 120 168 414 178
805 1 99 171 209 163
806 1 99 171 209 369
807 1 99 171 209 373
808 2 152 171 209 163
809 2 152 171 209 369
810 2 152 171 209 373
811 1 100 172 819 977
812 1 100 172 819 167
813 1 100 172 819 986
814 2 120 172 819 977
815 2 120 172 819 167
816 2 120 172 819 986
817 1 103 175 409 565
818 1 103 175 409 159
819 1 103 175 409 584
820 2 115 175 409 565
821 2 115 175 409 159
822 2 115 175 409 584
823 1 106 178 414 572
824 1 106 178 414 168
825 1 106 178 414 582
826 2 110 178 414 572
827 2 110 178 414 168
828 2 110 178 414 582
829 1 107 179 818 974
830 1 107 179 818 160
831 1 107 179 818 989
832 2 153 179 818 974
833 2 153 179 818 160
834 2 153 179 818 989
835 1 108 180 208 366
836 1 108 180 208 166
837 1 108 180 208 381
838 2 112 180 208 366
839 2 112 180 208 166
840 2 112 180 208 381
841 2 110 182 416 592
842 2 110 182 416 605
843 2 110 182 416 203
844 1 122 182 416 592
845 1 122 182 416 605
846 1 122 182 416 203
847 1 123 183 823 997
848 1 123 183 823 1015
849 1 123 183 823 200
850 2 147 183 823 997
851 2 147 183 823 1015
852 2 147 183 823 200
853 1 128 188 216 396
854 1 128 188 216 402
855 1 128 188 216 202
856 2 152 188 216 396
857 2 152 188 216 402
858 2 152 188 216 202
859 1 129 189 827 1003
860 1 129 189 827 1009
861 1 129 189 827 195
862 2 153 189 827 1003
863 2 153 189 827 1009
864 2 153 189 827 195
865 2 118 190 418 594
866 2 118 190 418 201
867 2 118 190 418 612
868 1 130 190 418 594
869 1 130 190 418 201
870 1 130 190 418 612
871 2 119 191 213 389
872 2 119 191 213 194
873 2 119 191 213 400
874 1 131 191 213 389
875 1 131 191 213 194
876 1 131 191 213 400
877 1 134 194 213 389
878 1 134 194 213 191
879 1 134 194 213 400
880 2 154 194 213 389
881 2 154 194 213 191
882 2 154 194 213 400
883 2 116 195 827 1003
884 2 116 195 827 189
885 2 116 195 827 1009
886 1 135 195 827 1003
887 1 135 195 827 189
888 1 135 195 827 1009
889 1 140 200 823 997
890 1 140 200 823 183
891 1 140 200 823 1015
892 2 155 200 823 997
893 2 155 200 823 183
894 2 155 200 823 1015
895 2 111 201 418 594
896 2 111 201 418 190
897 2 111 201 418 612
898 1 141 201 418 594
899 1 141 201 418 190
900 1 141 201 418 612
901 1 142 202 216 188
902 1 142 202 216 396
903 1 142 202 216 402
904 2 146 202 216 188
905 2 146 202 216 396
906 2 146 202 216 402
907 2 117 203 416 182
908 2 117 203 416 592
909 2 117 203 416 605
910 1 143 203 416 182
911 1 143 203 416 592
912 1 143 203 416 605
913 1 771 205 361 289
914 2 771 205 361 313
915 1 787 205 361 289
916 2 787 205 361 313
917 1 380 205 361 289
918 2 380 205 361 313
919 1 361 205 771 699
920 2 361 205 771 723
921 1 787 205 771 699
922 2 787 205 771 723
923 1 380 205 771 699
924 2 380 205 771 723
925 1 361 205 787 715
926 2 361 205 787 727
927 1 771 205 787 715
928 2 771 205 787 727
929 1 380 205 787 715
930 2 380 205 787 727
931 1 361 205 380 308
932 2 361 205 380 323
933 1 771 205 380 308
934 2 771 205 380 323
935 1 787 205 380 308
936 2 787 205 380 323
937 1 1180 206 362 290
938 2 1180 206 362 350
939 1 377 206 362 290
940 2 377 206 362 350
941 1 1199 206 362 290
942 2 1199 206 362 350
943 1 362 206 1180 1108
944 2 362 206 1180 1132
945 1 377 206 1180 1108
946 2 377 206 1180 1132
947 1 1199 206 1180 1108
948 2 1199 206 1180 1132
949 1 362 206 377 305
950 2 362 206 377 317
951 1 1180 206 377 305
952 2 1180 206 377 317
953 1 1199 206 377 305
954 2 1199 206 377 317
955 1 362 206 1199 1127
956 2 362 206 1199 1173
957 1 1180 206 1199 1127
958 2 1180 206 1199 1173
959 1 377 206 1199 1127
960 2 377 206 1199 1173
961 1 1187 207 365 293
962 2 1187 207 365 317
963 1 374 207 365 293
964 2 374 207 365 317
965 1 1192 207 365 293
966 2 1192 207 365 317
967 1 365 207 1187 1115
968 2 365 207 1187 1175
969 1 374 207 1187 1115
970 2 374 207 1187 1175
971 1 1192 207 1187 1115
972 2 1192 207 1187 1175
973 1 365 207 374 302
974 2 365 207 374 322
975 1 1187 207 374 302
976 2 1187 207 374 322
977 1 1192 207 374 302
978 2 1192 207 374 322
979 1 365 207 1192 1120
980 2 365 207 1192 1140
981 1 1187 207 1192 1120
982 2 1187 207 1192 1140
983 1 374 207 1192 1120
984 2 374 207 1192 1140
985 1 166 208 366 294
986 2 166 208 366 318
987 1 381 208 366 294
988 2 381 208 366 318
989 1 180 208 366 294
990 2 180 208 366 318
991 1 366 208 381 309
992 2 366 208 381 351
993 1 166 208 381 309
994 2 166 208 381 351
995 1 180 208 381 309
996 2 180 208 381 351
997 1 163 209 369 297
998 2 163 209 369 321
999 1 373 209 369 297
1000 2 373 209 369 321
1001 1 171 209 369 297
1002 2 171 209 369 321
1003 1 163 209 373 301
1004 2 163 209 373 318
1005 1 369 209 373 301
1006 2 369 209 373 318
1007 1 171 209 373 301
1008 2 171 209 373 318
1009 1 780 210 368 296
1010 2 780 210 368 320
1011 1 378 210 368 296
1012 2 378 210 368 320
1013 1 790 210 368 296
1014 2 790 210 368 320
1015 1 368 210 780 708
1016 2 368 210 780 732
1017 1 378 210 780 708
1018 2 378 210 780 732
1019 1 790 210 780 708
1020 2 790 210 780 732
1021 1 368 210 378 306
1022 2 368 210 378 313
1023 1 780 210 378 306
1024 2 780 210 378 313
1025 1 790 210 378 306
1026 2 790 210 378 313
1027 1 368 210 790 718
1028 2 368 210 790 722
1029 1 780 210 790 718
1030 2 780 210 790 722
1031 1 378 210 790 718
1032 2 378 210 790 722
1033 1 1203 211 385 325
1034 2 1203 211 385 349
1035 1 403 211 385 325
1036 2 403 211 385 349
1037 1 1220 211 385 325
1038 2 1220 211 385 349
1039 1 385 211 1203 1143
1040 2 385 211 1203 1167
1041 1 403 211 1203 1143
1042 2 403 211 1203 1167
1043 1 1220 211 1203 1143
1044 2 1220 211 1203 1167
1045 1 385 211 403 343
1046 2 385 211 403 355
1047 1 1203 211 403 343
1048 2 1203 211 403 355
1049 1 1220 211 403 343
1050 2 1220 211 403 355
1051 1 385 211 1220 1160
1052 2 385 211 1220 1175
1053 1 1203 211 1220 1160
1054 2 1203 211 1220 1175
1055 1 403 211 1220 1160
1056 2 403 211 1220 1175
1057 2 388 212 794 722
1058 1 388 212 794 734
1059 2 401 212 794 722
1060 1 401 212 794 734
1061 2 815 212 794 722
1062 1 815 212 794 734
1063 1 794 212 388 328
1064 2 794 212 388 352
1065 1 401 212 388 328
1066 2 401 212 388 352
1067 1 815 212 388 328
1068 2 815 212 388 352
1069 1 794 212 401 341
1070 2 794 212 401 353
1071 1 388 212 401 341
1072 2 388 212 401 353
1073 1 815 212 401 341
1074 2 815 212 401 353
1075 2 794 212 815 729
1076 1 794 212 815 755
1077 2 388 212 815 729
1078 1 388 212 815 755
1079 2 401 212 815 729
1080 1 401 212 815 755
1081 1 191 213 389 329
1082 2 191 213 389 353
1083 1 194 213 389 329
1084 2 194 213 389 353
1085 1 400 213 389 329
1086 2 400 213 389 353
1087 1 389 213 400 340
1088 2 389 213 400 360
1089 1 191 213 400 340
1090 2 191 213 400 360
1091 1 194 213 400 340
1092 2 194 213 400 360
1093 1 802 214 390 330
1094 2 802 214 390 354
1095 1 813 214 390 330
1096 2 813 214 390 354
1097 1 408 214 390 330
1098 2 408 214 390 354
1099 2 390 214 802 730
1100 1 390 214 802 742
1101 2 813 214 802 730
1102 1 813 214 802 742
1103 2 408 214 802 730
1104 1 408 214 802 742
1105 2 390 214 813 723
1106 1 390 214 813 753
1107 2 802 214 813 723
1108 1 802 214 813 753
1109 2 408 214 813 723
1110 1 408 214 813 753
1111 1 390 214 408 348
1112 2 390 214 408 352
1113 1 802 214 408 348
1114 2 802 214 408 352
1115 1 813 214 408 348
1116 2 813 214 408 352
1117 1 1209 215 391 331
1118 2 1209 215 391 355
1119 1 397 215 391 331
1120 2 397 215 391 355
1121 1 1215 215 391 331
1122 2 1215 215 391 355
1123 1 391 215 1209 1149
1124 2 391 215 1209 1173
1125 1 397 215 1209 1149
1126 2 397 215 1209 1173
1127 1 1215 215 1209 1149
1128 2 1215 215 1209 1173
1129 1 391 215 397 337
1130 2 391 215 397 354
1131 1 1209 215 397 337
1132 2 1209 215 397 354
1133 1 1215 215 397 337
1134 2 1215 215 397 354
1135 2 391 215 1215 1136
1136 1 391 215 1215 1155
1137 2 1209 215 1215 1136
1138 1 1209 215 1215 1155
1139 2 397 215 1215 1136
1140 1 397 215 1215 1155
1141 1 188 216 396 336
1142 2 188 216 396 360
1143 1 402 216 396 336
1144 2 402 216 396 360
1145 1 202 216 396 336
1146 2 202 216 396 360
1147 1 188 216 402 342
1148 2 188 216 402 349
1149 1 396 216 402 342
1150 2 396 216 402 349
1151 1 202 216 402 342
1152 2 202 216 402 349
1153 3 217 289 306 234
1154 4 217 289 306 378
1155 4 361 289 306 234
1156 5 361 289 306 378
1157 6 217 289 361 205
1158 7 217 289 361 313
1159 8 306 289 361 205
1160 9 306 289 361 313
1161 3 218 290 346 274
1162 4 218 290 346 406
1163 4 362 290 346 274
1164 5 362 290 346 406
1165 6 218 290 362 206
1166 7 218 290 362 350
1167 8 346 290 362 206
1168 9 346 290 362 350
1169 3 219 291 345 273
1170 4 219 291 345 405
1171 4 363 291 345 273
1172 5 363 291 345 405
1173 6 219 291 363 613
1174 7 219 291 363 315
1175 8 345 291 363 613
1176 9 345 291 363 315
1177 3 220 292 312 240
1178 4 220 292 312 384
1179 4 364 292 312 240
1180 5 364 292 312 384
1181 6 220 292 364 1022
1182 7 220 292 364 316
1183 8 312 292 364 1022
1184 9 312 292 364 316
1185 3 221 293 305 233
1186 4 221 293 305 377
1187 4 365 293 305 233
1188 5 365 293 305 377
1189 6 221 293 365 207
1190 7 221 293 365 317
1191 8 305 293 365 207
1192 9 305 293 365 317
1193 3 222 294 301 229
1194 4 222 294 301 373
1195 4 366 294 301 229
1196 5 366 294 301 373
1197 6 222 294 366 208
1198 7 222 294 366 318
1199 8 301 294 366 208
1200 9 301 294 366 318
1201 3 223 295 307 235
1202 4 223 295 307 379
1203 4 367 295 307 235
1204 5 367 295 307 379
1205 6 223 295 367 5
1206 7 223 295 367 319
1207 8 307 295 367 5
1208 9 307 295 367 319
1209 3 224 296 339 267
1210 4 224 296 339 399
1211 4 368 296 339 267
1212 5 368 296 339 399
1213 6 224 296 368 210
1214 7 224 296 368 320
1215 8 339 296 368 210
1216 9 339 296 368 320
1217 3 225 297 347 275
1218 4 225 297 347 407
1219 4 369 297 347 275
1220 5 369 297 347 407
1221 6 225 297 369 209
1222 7 225 297 369 321
1223 8 347 297 369 209
1224 9 347 297 369 321
1225 3 226 298 338 266
1226 4 226 298 338 398
1227 4 370 298 338 266
1228 5 370 298 338 398
1229 6 226 298 370 4
1230 7 226 298 370 358
1231 8 338 298 370 4
1232 9 338 298 370 358
1233 3 227 299 344 272
1234 4 227 299 344 404
1235 4 371 299 344 272
1236 5 371 299 344 404
1237 6 227 299 371 1023
1238 7 227 299 371 359
1239 8 344 299 371 1023
1240 9 344 299 371 359
1241 3 228 300 304 232
1242 4 228 300 304 376
1243 4 372 300 304 232
1244 5 372 300 304 376
1245 6 228 300 372 618
1246 7 228 300 372 324
1247 8 304 300 372 618
1248 9 304 300 372 324
1249 6 229 301 373 209
1250 7 229 301 373 318
1251 8 294 301 373 209
1252 9 294 301 373 318
1253 3 230 302 334 262
1254 4 230 302 334 394
1255 4 374 302 334 262
1256 5 374 302 334 394
1257 6 230 302 374 207
1258 7 230 302 374 322
1259 8 334 302 374 207
1260 9 334 302 374 322
1261 3 231 303 332 260
1262 4 231 303 332 392
1263 4 375 303 332 260
1264 5 375 303 332 392
1265 6 231 303 375 5
1266 7 231 303 375 356
1267 8 332 303 375 5
1268 9 332 303 375 356
1269 6 232 304 376 1023
1270 7 232 304 376 324
1271 8 300 304 376 1023
1272 9 300 304 376 324
1273 6 233 305 377 206
1274 7 233 305 377 317
1275 8 293 305 377 206
1276 9 293 305 377 317
1277 6 234 306 378 210
1278 7 234 306 378 313
1279 8 289 306 378 210
1280 9 289 306 378 313
1281 6 235 307 379 613
1282 7 235 307 379 319
1283 8 295 307 379 613
1284 9 295 307 379 319
1285 3 236 308 335 263
1286 4 236 308 335 395
1287 4 380 308 335 263
1288 5 380 308 335 395
1289 6 236 308 380 205
1290 7 236 308 380 323
1291 8 335 308 380 205
1292 9 335 308 380 323
1293 3 237 309 327 255
1294 4 237 309 327 387
1295 4 381 309 327 255
1296 5 381 309 327 387
1297 6 237 309 381 208
1298 7 237 309 381 351
1299 8 327 309 381 208
1300 9 327 309 381 351
1301 3 238 310 326 254
1302 4 238 310 326 386
1303 4 382 310 326 254
1304 5 382 310 326 386
1305 6 238 310 382 618
1306 7 238 310 382 314
1307 8 326 310 382 618
1308 9 326 310 382 314
1309 3 239 311 333 261
1310 4 239 311 333 393
1311 4 383 311 333 261
1312 5 383 311 333 393
1313 6 239 311 383 1022
1314 7 239 311 383 357
1315 8 333 311 383 1022
1316 9 333 311 383 357
1317 6 240 312 384 4
1318 7 240 312 384 316
1319 8 292 312 384 4
1320 9 292 312 384 316
1321 10 654 313 361 205
1322 11 654 313 361 289
1323 12 378 313 361 205
1324 13 378 313 361 289
1325 10 654 313 378 210
1326 11 654 313 378 306
1327 12 361 313 378 210
1328 13 361 313 378 306
1329 10 658 314 382 618
1330 11 658 314 382 310
1331 12 386 314 382 618
1332 13 386 314 382 310
1333 10 658 314 386 620
1334 11 658 314 386 326
1335 12 382 314 386 620
1336 13 382 314 386 326
1337 10 660 315 363 613
1338 11 660 315 363 291
1339 12 405 315 363 613
1340 13 405 315 363 291
1341 10 660 315 405 622
1342 11 660 315 405 345
1343 12 363 315 405 622
1344 13 363 315 405 345
1345 10 248 316 364 1022
1346 11 248 316 364 292
1347 12 384 316 364 1022
1348 13 384 316 364 292
1349 10 248 316 384 4
1350 11 248 316 384 312
1351 12 364 316 384 4
1352 13 364 316 384 312
1353 10 1057 317 365 207
1354 11 1057 317 365 293
1355 12 377 317 365 207
1356 13 377 317 365 293
1357 10 1057 317 377 206
1358 11 1057 317 377 305
1359 12 365 317 377 206
1360 13 365 317 377 305
1361 10 41 318 366 208
1362 11 41 318 366 294
1363 12 373 318 366 208
1364 13 373 318 366 294
1365 10 41 318 373 209
1366 11 41 318 373 301
1367 12 366 318 373 209
1368 13 366 318 373 301
1369 10 242 319 367 5
1370 11 242 319 367 295
1371 12 379 319 367 5
1372 13 379 319 367 295
1373 10 242 319 379 613
1374 11 242 319 379 307
1375 12 367 319 379 613
1376 13 367 319 379 307
1377 10 251 320 368 210
1378 11 251 320 368 296
1379 12 399 320 368 210
1380 13 399 320 368 296
1381 10 251 320 399 1031
1382 11 251 320 399 339
1383 12 368 320 399 1031
1384 13 368 320 399 339
1385 10 243 321 369 209
1386 11 243 321 369 297
1387 12 407 321 369 209
1388 13 407 321 369 297
1389 10 243 321 407 620
1390 11 243 321 407 347
1391 12 369 321 407 620
1392 13 369 321 407 347
1393 10 247 322 374 207
1394 11 247 322 374 302
1395 12 394 322 374 207
1396 13 394 322 374 302
1397 10 247 322 394 622
1398 11 247 322 394 334
1399 12 374 322 394 622
1400 13 374 322 394 334
1401 10 244 323 380 205
1402 11 244 323 380 308
1403 12 395 323 380 205
1404 13 395 323 380 308
1405 10 244 323 395 9
1406 11 244 323 395 335
1407 12 380 323 395 9
1408 13 380 323 395 335
1409 10 249 324 372 618
1410 11 249 324 372 300
1411 12 376 324 372 618
1412 13 376 324 372 300
1413 10 249 324 376 1023
1414 11 249 324 376 304
1415 12 372 324 376 1023
1416 13 372 324 376 304
1417 3 253 325 342 270
1418 4 253 325 342 402
1419 4 385 325 342 270
1420 5 385 325 342 402
1421 6 253 325 385 211
1422 7 253 325 385 349
1423 8 342 325 385 211
1424 9 342 325 385 349
1425 6 254 326 386 620
1426 7 254 326 386 314
1427 8 310 326 386 620
1428 9 310 326 386 314
1429 6 255 327 387 1027
1430 7 255 327 387 351
1431 8 309 327 387 1027
1432 9 309 327 387 351
1433 3 256 328 348 276
1434 4 256 328 348 408
1435 4 388 328 348 276
1436 5 388 328 348 408
1437 6 256 328 388 212
1438 7 256 328 388 352
1439 8 348 328 388 212
1440 9 348 328 388 352
1441 3 257 329 341 269
1442 4 257 329 341 401
1443 4 389 329 341 269
1444 5 389 329 341 401
1445 6 257 329 389 213
1446 7 257 329 389 353
1447 8 341 329 389 213
1448 9 341 329 389 353
1449 3 258 330 337 265
1450 4 258 330 337 397
1451 4 390 330 337 265
1452 5 390 330 337 397
1453 6 258 330 390 214
1454 7 258 330 390 354
1455 8 337 330 390 214
1456 9 337 330 390 354
1457 3 259 331 343 271
1458 4 259 331 343 403
1459 4 391 331 343 271
1460 5 391 331 343 403
1461 6 259 331 391 215
1462 7 259 331 391 355
1463 8 343 331 391 215
1464 9 343 331 391 355
1465 6 260 332 392 12
1466 7 260 332 392 356
1467 8 303 332 392 12
1468 9 303 332 392 356
1469 6 261 333 393 1031
1470 7 261 333 393 357
1471 8 311 333 393 1031
1472 9 311 333 393 357
1473 6 262 334 394 622
1474 7 262 334 394 322
1475 8 302 334 394 622
1476 9 302 334 394 322
1477 6 263 335 395 9
1478 7 263 335 395 323
1479 8 308 335 395 9
1480 9 308 335 395 323
1481 3 264 336 340 268
1482 4 264 336 340 400
1483 4 396 336 340 268
1484 5 396 336 340 400
1485 6 264 336 396 216
1486 7 264 336 396 360
1487 8 340 336 396 216
1488 9 340 336 396 360
1489 6 265 337 397 215
1490 7 265 337 397 354
1491 8 330 337 397 215
1492 9 330 337 397 354
1493 6 266 338 398 9
1494 7 266 338 398 358
1495 8 298 338 398 9
1496 9 298 338 398 358
1497 6 267 339 399 1031
1498 7 267 339 399 320
1499 8 296 339 399 1031
1500 9 296 339 399 320
1501 6 268 340 400 213
1502 7 268 340 400 360
1503 8 336 340 400 213
1504 9 336 340 400 360
1505 6 269 341 401 212
1506 7 269 341 401 353
1507 8 329 341 401 212
1508 9 329 341 401 353
1509 6 270 342 402 216
1510 7 270 342 402 349
1511 8 325 342 402 216
1512 9 325 342 402 349
1513 6 271 343 403 211
1514 7 271 343 403 355
1515 8 331 343 403 211
1516 9 331 343 403 355
1517 6 272 344 404 1027
1518 7 272 344 404 359
1519 8 299 344 404 1027
1520 9 299 344 404 359
1521 6 273 345 405 622
1522 7 273 345 405 315
1523 8 291 345 405 622
1524 9 291 345 405 315
1525 6 274 346 406 12
1526 7 274 346 406 350
1527 8 290 346 406 12
1528 9 290 346 406 350
1529 6 275 347 407 620
1530 7 275 347 407 321
1531 8 297 347 407 620
1532 9 297 347 407 321
1533 6 276 348 408 214
1534 7 276 348 408 352
1535 8 328 348 408 214
1536 9 328 348 408 352
1537 10 282 349 385 211
1538 11 282 349 385 325
1539 12 402 349 385 211
1540 13 402 349 385 325
1541 10 282 349 402 216
1542 11 282 349 402 342
1543 12 385 349 402 216
1544 13 385 349 402 342
1545 10 286 350 362 206
1546 11 286 350 362 290
1547 12 406 350 362 206
1548 13 406 350 362 290
1549 10 286 350 406 12
1550 11 286 350 406 346
1551 12 362 350 406 12
1552 13 362 350 406 346
1553 10 288 351 381 208
1554 11 288 351 381 309
1555 12 387 351 381 208
1556 13 387 351 381 309
1557 10 288 351 387 1027
1558 11 288 351 387 327
1559 12 381 351 387 1027
1560 13 381 351 387 327
1561 10 692 352 388 212
1562 11 692 352 388 328
1563 12 408 352 388 212
1564 13 408 352 388 328
1565 10 692 352 408 214
1566 11 692 352 408 348
1567 12 388 352 408 214
1568 13 388 352 408 348
1569 10 277 353 389 213
1570 11 277 353 389 329
1571 12 401 353 389 213
1572 13 401 353 389 329
1573 10 277 353 401 212
1574 11 277 353 401 341
1575 12 389 353 401 212
1576 13 389 353 401 341
1577 10 281 354 390 214
1578 11 281 354 390 330
1579 12 397 354 390 214
1580 13 397 354 390 330
1581 10 281 354 397 215
1582 11 281 354 397 337
1583 12 390 354 397 215
1584 13 390 354 397 337
1585 10 1094 355 391 215
1586 11 1094 355 391 331
1587 12 403 355 391 215
1588 13 403 355 391 331
1589 10 1094 355 403 211
1590 11 1094 355 403 343
1591 12 391 355 403 211
1592 13 391 355 403 343
1593 10 83 356 375 5
1594 11 83 356 375 303
1595 12 392 356 375 5
1596 13 392 356 375 303
1597 10 83 356 392 12
1598 11 83 356 392 332
1599 12 375 356 392 12
1600 13 375 356 392 332
1601 10 1095 357 383 1022
1602 11 1095 357 383 311
1603 12 393 357 383 1022
1604 13 393 357 383 311
1605 10 1095 357 393 1031
1606 11 1095 357 393 333
1607 12 383 357 393 1031
1608 13 383 357 393 333
1609 10 79 358 370 4
1610 11 79 358 370 298
1611 12 398 358 370 4
1612 13 398 358 370 298
1613 10 79 358 398 9
1614 11 79 358 398 338
1615 12 370 358 398 9
1616 13 370 358 398 338
1617 10 1096 359 371 1023
1618 11 1096 359 371 299
1619 12 404 359 371 1023
1620 13 404 359 371 299
1621 10 1096 359 404 1027
1622 11 1096 359 404 344
1623 12 371 359 404 1027
1624 13 371 359 404 344
1625 10 81 360 396 216
1626 11 81 360 396 336
1627 12 400 360 396 216
1628 13 400 360 396 336
1629 10 81 360 400 213
1630 11 81 360 400 340
1631 12 396 360 400 213
1632 13 396 360 400 340
1633 1 291 363 613 769
1634 1 291 363 613 379
1635 1 291 363 613 788
1636 2 315 363 613 769
1637 2 315 363 613 379
1638 2 315 363 613 788
1639 1 292 364 1022 1178
1640 1 292 364 1022 1193
1641 1 292 364 1022 383
1642 2 316 364 1022 1178
1643 2 316 364 1022 1193
1644 2 316 364 1022 383
1645 1 299 371 1023 1181
1646 1 299 371 1023 1190
1647 1 299 371 1023 376
1648 2 359 371 1023 1181
1649 2 359 371 1023 1190
1650 2 359 371 1023 376
1651 1 300 372 618 776
1652 1 300 372 618 786
1653 1 300 372 618 382
1654 2 324 372 618 776
1655 2 324 372 618 786
1656 2 324 372 618 382
1657 1 304 376 1023 1181
1658 1 304 376 1023 371
1659 1 304 376 1023 1190
1660 2 324 376 1023 1181
1661 2 324 376 1023 371
1662 2 324 376 1023 1190
1663 1 307 379 613 769
1664 1 307 379 613 363
1665 1 307 379 613 788
1666 2 319 379 613 769
1667 2 319 379 613 363
1668 2 319 379 613 788
1669 1 310 382 618 776
1670 1 310 382 618 372
1671 1 310 382 618 786
1672 2 314 382 618 776
1673 2 314 382 618 372
1674 2 314 382 618 786
1675 1 311 383 1022 1178
1676 1 311 383 1022 364
1677 1 311 383 1022 1193
1678 2 357 383 1022 1178
1679 2 357 383 1022 364
1680 2 357 383 1022 1193
1681 2 314 386 620 796
1682 2 314 386 620 809
1683 2 314 386 620 407
1684 1 326 386 620 796
1685 1 326 386 620 809
1686 1 326 386 620 407
1687 1 327 387 1027 1201
1688 1 327 387 1027 1219
1689 1 327 387 1027 404
1690 2 351 387 1027 1201
1691 2 351 387 1027 1219
1692 2 351 387 1027 404
1693 1 333 393 1031 1207
1694 1 333 393 1031 1213
1695 1 333 393 1031 399
1696 2 357 393 1031 1207
1697 2 357 393 1031 1213
1698 2 357 393 1031 399
1699 2 322 394 622 798
1700 2 322 394 622 405
1701 2 322 394 622 816
1702 1 334 394 622 798
1703 1 334 394 622 405
1704 1 334 394 622 816
1705 2 320 399 1031 1207
1706 2 320 399 1031 393
1707 2 320 399 1031 1213
1708 1 339 399 1031 1207
1709 1 339 399 1031 393
1710 1 339 399 1031 1213
1711 1 344 404 1027 1201
1712 1 344 404 1027 387
1713 1 344 404 1027 1219
1714 2 359 404 1027 1201
1715 2 359 404 1027 387
1716 2 359 404 1027 1219
1717 2 315 405 622 798
1718 2 315 405 622 394
1719 2 315 405 622 816
1720 1 345 405 622 798
1721 1 345 405 622 394
1722 1 345 405 622 816
1723 2 321 407 620 386
1724 2 321 407 620 796
1725 2 321 407 620 809
1726 1 347 407 620 386
1727 1 347 407 620 796
1728 1 347 407 620 809
1729 1 159 409 565 493
1730 2 159 409 565 517
1731 1 175 409 565 493
1732 2 175 409 565 517
1733 1 584 409 565 493
1734 2 584 409 565 517
1735 1 565 409 584 512
1736 2 565 409 584 527
1737 1 159 409 584 512
1738 2 159 409 584 527
1739 1 175 409 584 512
1740 2 175 409 584 527
1741 1 1384 410 566 494
1742 2 1384 410 566 554
1743 1 581 410 566 494
1744 2 581 410 566 554
1745 1 1403 410 566 494
1746 2 1403 410 566 554
1747 1 566 410 1384 1312
1748 2 566 410 1384 1336
1749 1 581 410 1384 1312
1750 2 581 410 1384 1336
1751 1 1403 410 1384 1312
1752 2 1403 410 1384 1336
1753 1 566 410 581 509
1754 2 566 410 581 521
1755 1 1384 410 581 509
1756 2 1384 410 581 521
1757 1 1403 410 581 509
1758 2 1403 410 581 521
1759 1 566 410 1403 1331
1760 2 566 410 1403 1377
1761 1 1384 410 1403 1331
1762 2 1384 410 1403 1377
1763 1 581 410 1403 1331
1764 2 581 410 1403 1377
1765 1 1391 411 569 497
1766 2 1391 411 569 521
1767 1 578 411 569 497
1768 2 578 411 569 521
1769 1 1396 411 569 497
1770 2 1396 411 569 521
1771 1 569 411 1391 1319
1772 2 569 411 1391 1379
1773 1 578 411 1391 1319
1774 2 578 411 1391 1379
1775 1 1396 411 1391 1319
1776 2 1396 411 1391 1379
1777 1 569 411 578 506
1778 2 569 411 578 526
1779 1 1391 411 578 506
1780 2 1391 411 578 526
1781 1 1396 411 578 506
1782 2 1396 411 578 526
1783 1 569 411 1396 1324
1784 2 569 411 1396 1344
1785 1 1391 411 1396 1324
1786 2 1391 411 1396 1344
1787 1 578 411 1396 1324
1788 2 578 411 1396 1344
1789 1 778 412 570 498
1790 2 778 412 570 522
1791 1 585 412 570 498
1792 2 585 412 570 522
1793 1 792 412 570 498
1794 2 792 412 570 522
1795 1 570 412 778 706
1796 2 570 412 778 766
1797 1 585 412 778 706
1798 2 585 412 778 766
1799 1 792 412 778 706
1800 2 792 412 778 766
1801 1 570 412 585 513
1802 2 570 412 585 555
1803 1 778 412 585 513
1804 2 778 412 585 555
1805 1 792 412 585 513
1806 2 792 412 585 555
1807 1 570 412 792 720
1808 2 570 412 792 724
1809 1 778 412 792 720
1810 2 778 412 792 724
1811 1 585 412 792 720
1812 2 585 412 792 724
1813 1 573 413 775 703
1814 2 573 413 775 727
1815 1 577 413 775 703
1816 2 577 413 775 727
1817 1 783 413 775 703
1818 2 783 413 775 727
1819 1 775 413 573 501
1820 2 775 413 573 525
1821 1 577 413 573 501
1822 2 577 413 573 525
1823 1 783 413 573 501
1824 2 783 413 573 525
1825 1 775 413 577 505
1826 2 775 413 577 522
1827 1 573 413 577 505
1828 2 573 413 577 522
1829 1 783 413 577 505
1830 2 783 413 577 522
1831 1 775 413 783 711
1832 2 775 413 783 764
1833 1 573 413 783 711
1834 2 573 413 783 764
1835 1 577 413 783 711
1836 2 577 413 783 764
1837 1 168 414 572 500
1838 2 168 414 572 524
1839 1 582 414 572 500
1840 2 582 414 572 524
1841 1 178 414 572 500
1842 2 178 414 572 524
1843 1 572 414 582 510
1844 2 572 414 582 517
1845 1 168 414 582 510
1846 2 168 414 582 517
1847 1 178 414 582 510
1848 2 178 414 582 517
1849 1 1407 415 589 529
1850 2 1407 415 589 553
1851 1 607 415 589 529
1852 2 607 415 589 553
1853 1 1424 415 589 529
1854 2 1424 415 589 553
1855 1 589 415 1407 1347
1856 2 589 415 1407 1371
1857 1 607 415 1407 1347
1858 2 607 415 1407 1371
1859 1 1424 415 1407 1347
1860 2 1424 415 1407 1371
1861 1 589 415 607 547
1862 2 589 415 607 559
1863 1 1407 415 607 547
1864 2 1407 415 607 559
1865 1 1424 415 607 547
1866 2 1424 415 607 559
1867 1 589 415 1424 1364
1868 2 589 415 1424 1379
1869 1 1407 415 1424 1364
1870 2 1407 415 1424 1379
1871 1 607 415 1424 1364
1872 2 607 415 1424 1379
1873 1 182 416 592 532
1874 2 182 416 592 556
1875 1 605 416 592 532
1876 2 605 416 592 556
1877 1 203 416 592 532
1878 2 203 416 592 556
1879 1 182 416 605 545
1880 2 182 416 605 557
1881 1 592 416 605 545
1882 2 592 416 605 557
1883 1 203 416 605 545
1884 2 203 416 605 557
1885 1 803 417 593 533
1886 2 803 417 593 557
1887 1 806 417 593 533
1888 2 806 417 593 557
1889 1 604 417 593 533
1890 2 604 417 593 557
1891 2 593 417 803 731
1892 1 593 417 803 743
1893 2 806 417 803 731
1894 1 806 417 803 743
1895 2 604 417 803 731
1896 1 604 417 803 743
1897 1 593 417 806 746
1898 2 593 417 806 766
1899 1 803 417 806 746
1900 2 803 417 806 766
1901 1 604 417 806 746
1902 2 604 417 806 766
1903 1 593 417 604 544
1904 2 593 417 604 564
1905 1 803 417 604 544
1906 2 803 417 604 564
1907 1 806 417 604 544
1908 2 806 417 604 564
1909 1 190 418 594 534
1910 2 190 418 594 558
1911 1 201 418 594 534
1912 2 201 418 594 558
1913 1 612 418 594 534
1914 2 612 418 594 558
1915 1 594 418 612 552
1916 2 594 418 612 556
1917 1 190 418 612 552
1918 2 190 418 612 556
1919 1 201 418 612 552
1920 2 201 418 612 556
1921 1 1413 419 595 535
1922 2 1413 419 595 559
1923 1 601 419 595 535
1924 2 601 419 595 559
1925 1 1419 419 595 535
1926 2 1419 419 595 559
1927 1 595 419 1413 1353
1928 2 595 419 1413 1377
1929 1 601 419 1413 1353
1930 2 601 419 1413 1377
1931 1 1419 419 1413 1353
1932 2 1419 419 1413 1377
1933 1 595 419 601 541
1934 2 595 419 601 558
1935 1 1413 419 601 541
1936 2 1413 419 601 558
1937 1 1419 419 601 541
1938 2 1419 419 601 558
1939 2 595 419 1419 1340
1940 1 595 419 1419 1359
1941 2 1413 419 1419 1340
1942 1 1413 419 1419 1359
1943 2 601 419 1419 1340
1944 1 601 419 1419 1359
1945 1 600 420 800 740
1946 2 600 420 800 764
1947 1 606 420 800 740
1948 2 606 420 800 764
1949 1 814 420 800 740
1950 2 814 420 800 764
1951 1 800 420 600 540
1952 2 800 420 600 564
1953 1 606 420 600 540
1954 2 606 420 600 564
1955 1 814 420 600 540
1956 2 814 420 600 564
1957 1 800 420 606 546
1958 2 800 420 606 553
1959 1 600 420 606 546
1960 2 600 420 606 553
1961 1 814 420 606 546
1962 2 814 420 606 553
1963 1 800 420 814 754
1964 2 800 420 814 758
1965 1 600 420 814 754
1966 2 600 420 814 758
1967 1 606 420 814 754
1968 2 606 420 814 758
1969 3 421 493 510 438
1970 4 421 493 510 582
1971 4 565 493 510 438
1972 5 565 493 510 582
1973 6 421 493 565 409
1974 7 421 493 565 517
1975 8 510 493 565 409
1976 9 510 493 565 517
1977 3 422 494 550 478
1978 4 422 494 550 610
1979 4 566 494 550 478
1980 5 566 494 550 610
1981 6 422 494 566 410
1982 7 422 494 566 554
1983 8 550 494 566 410
1984 9 550 494 566 554
1985 3 423 495 549 477
1986 4 423 495 549 609
1987 4 567 495 549 477
1988 5 567 495 549 609
1989 6 423 495 567 1
1990 7 423 495 567 519
1991 8 549 495 567 1
1992 9 549 495 567 519
1993 3 424 496 516 444
1994 4 424 496 516 588
1995 4 568 496 516 444
1996 5 568 496 516 588
1997 6 424 496 568 1226
1998 7 424 496 568 520
1999 8 516 496 568 1226
2000 9 516 496 568 520
2001 3 425 497 509 437
2002 4 425 497 509 581
2003 4 569 497 509 437
2004 5 569 497 509 581
2005 6 425 497 569 411
2006 7 425 497 569 521
2007 8 509 497 569 411
2008 9 509 497 569 521
2009 3 426 498 505 433
2010 4 426 498 505 577
2011 4 570 498 505 433
2012 5 570 498 505 577
2013 6 426 498 570 412
2014 7 426 498 570 522
2015 8 505 498 570 412
2016 9 505 498 570 522
2017 3 427 499 511 439
2018 4 427 499 511 583
2019 4 571 499 511 439
2020 5 571 499 511 583
2021 6 427 499 571 617
2022 7 427 499 571 523
2023 8 511 499 571 617
2024 9 511 499 571 523
2025 3 428 500 543 471
2026 4 428 500 543 603
2027 4 572 500 543 471
2028 5 572 500 543 603
2029 6 428 500 572 414
2030 7 428 500 572 524
2031 8 543 500 572 414
2032 9 543 500 572 524
2033 3 429 501 551 479
2034 4 429 501 551 611
2035 4 573 501 551 479
2036 5 573 501 551 611
2037 6 429 501 573 413
2038 7 429 501 573 525
2039 8 551 501 573 413
2040 9 551 501 573 525
2041 3 430 502 542 470
2042 4 430 502 542 602
2043 4 574 502 542 470
2044 5 574 502 542 602
2045 6 430 502 574 616
2046 7 430 502 574 562
2047 8 542 502 574 616
2048 9 542 502 574 562
2049 3 431 503 548 476
2050 4 431 503 548 608
2051 4 575 503 548 476
2052 5 575 503 548 608
2053 6 431 503 575 1227
2054 7 431 503 575 563
2055 8 548 503 575 1227
2056 9 548 503 575 563
2057 3 432 504 508 436
2058 4 432 504 508 580
2059 4 576 504 508 436
2060 5 576 504 508 580
2061 6 432 504 576 6
2062 7 432 504 576 528
2063 8 508 504 576 6
2064 9 508 504 576 528
2065 6 433 505 577 413
2066 7 433 505 577 522
2067 8 498 505 577 413
2068 9 498 505 577 522
2069 3 434 506 538 466
2070 4 434 506 538 598
2071 4 578 506 538 466
2072 5 578 506 538 598
2073 6 434 506 578 411
2074 7 434 506 578 526
2075 8 538 506 578 411
2076 9 538 506 578 526
2077 3 435 507 536 464
2078 4 435 507 536 596
2079 4 579 507 536 464
2080 5 579 507 536 596
2081 6 435 507 579 617
2082 7 435 507 579 560
2083 8 536 507 579 617
2084 9 536 507 579 560
2085 6 436 508 580 1227
2086 7 436 508 580 528
2087 8 504 508 580 1227
2088 9 504 508 580 528
2089 6 437 509 581 410
2090 7 437 509 581 521
2091 8 497 509 581 410
2092 9 497 509 581 521
2093 6 438 510 582 414
2094 7 438 510 582 517
2095 8 493 510 582 414
2096 9 493 510 582 517
2097 6 439 511 583 1
2098 7 439 511 583 523
2099 8 499 511 583 1
2100 9 499 511 583 523
2101 3 440 512 539 467
2102 4 440 512 539 599
2103 4 584 512 539 467
2104 5 584 512 539 599
2105 6 440 512 584 409
2106 7 440 512 584 527
2107 8 539 512 584 409
2108 9 539 512 584 527
2109 3 441 513 531 459
2110 4 441 513 531 591
2111 4 585 513 531 459
2112 5 585 513 531 591
2113 6 441 513 585 412
2114 7 441 513 585 555
2115 8 531 513 585 412
2116 9 531 513 585 555
2117 3 442 514 530 458
2118 4 442 514 530 590
2119 4 586 514 530 458
2120 5 586 514 530 590
2121 6 442 514 586 6
2122 7 442 514 586 518
2123 8 530 514 586 6
2124 9 530 514 586 518
2125 3 443 515 537 465
2126 4 443 515 537 597
2127 4 587 515 537 465
2128 5 587 515 537 597
2129 6 443 515 587 1226
2130 7 443 515 587 561
2131 8 537 515 587 1226
2132 9 537 515 587 561
2133 6 444 516 588 616
2134 7 444 516 588 520
2135 8 496 516 588 616
2136 9 496 516 588 520
2137 10 42 517 565 409
2138 11 42 517 565 493
2139 12 582 517 565 409
2140 13 582 517 565 493
2141 10 42 517 582 414
2142 11 42 517 582 510
2143 12 565 517 582 414
2144 13 565 517 582 510
2145 10 46 518 586 6
2146 11 46 518 586 514
2147 12 590 518 586 6
2148 13 590 518 586 514
2149 10 46 518 590 8
2150 11 46 518 590 530
2151 12 586 518 590 8
2152 13 586 518 590 530
2153 10 48 519 567 1
2154 11 48 519 567 495
2155 12 609 519 567 1
2156 13 609 519 567 495
2157 10 48 519 609 10
2158 11 48 519 609 549
2159 12 567 519 609 10
2160 13 567 519 609 549
2161 10 452 520 568 1226
2162 11 452 520 568 496
2163 12 588 520 568 1226
2164 13 588 520 568 496
2165 10 452 520 588 616
2166 11 452 520 588 516
2167 12 568 520 588 616
2168 13 568 520 588 516
2169 10 1261 521 569 411
2170 11 1261 521 569 497
2171 12 581 521 569 411
2172 13 581 521 569 497
2173 10 1261 521 581 410
2174 11 1261 521 581 509
2175 12 569 521 581 410
2176 13 569 521 581 509
2177 10 653 522 570 412
2178 11 653 522 570 498
2179 12 577 522 570 412
2180 13 577 522 570 498
2181 10 653 522 577 413
2182 11 653 522 577 505
2183 12 570 522 577 413
2184 13 570 522 577 505
2185 10 446 523 571 617
2186 11 446 523 571 499
2187 12 583 523 571 617
2188 13 583 523 571 499
2189 10 446 523 583 1
2190 11 446 523 583 511
2191 12 571 523 583 1
2192 13 571 523 583 511
2193 10 455 524 572 414
2194 11 455 524 572 500
2195 12 603 524 572 414
2196 13 603 524 572 500
2197 10 455 524 603 1235
2198 11 455 524 603 543
2199 12 572 524 603 1235
2200 13 572 524 603 543
2201 10 447 525 573 413
2202 11 447 525 573 501
2203 12 611 525 573 413
2204 13 611 525 573 501
2205 10 447 525 611 8
2206 11 447 525 611 551
2207 12 573 525 611 8
2208 13 573 525 611 551
2209 10 451 526 578 411
2210 11 451 526 578 506
2211 12 598 526 578 411
2212 13 598 526 578 506
2213 10 451 526 598 10
2214 11 451 526 598 538
2215 12 578 526 598 10
2216 13 578 526 598 538
2217 10 448 527 584 409
2218 11 448 527 584 512
2219 12 599 527 584 409
2220 13 599 527 584 512
2221 10 448 527 599 621
2222 11 448 527 599 539
2223 12 584 527 599 621
2224 13 584 527 599 539
2225 10 453 528 576 6
2226 11 453 528 576 504
2227 12 580 528 576 6
2228 13 580 528 576 504
2229 10 453 528 580 1227
2230 11 453 528 580 508
2231 12 576 528 580 1227
2232 13 576 528 580 508
2233 3 457 529 546 474
2234 4 457 529 546 606
2235 4 589 529 546 474
2236 5 589 529 546 606
2237 6 457 529 589 415
2238 7 457 529 589 553
2239 8 546 529 589 415
2240 9 546 529 589 553
2241 6 458 530 590 8
2242 7 458 530 590 518
2243 8 514 530 590 8
2244 9 514 530 590 518
2245 6 459 531 591 1231
2246 7 459 531 591 555
2247 8 513 531 591 1231
2248 9 513 531 591 555
2249 3 460 532 552 480
2250 4 460 532 552 612
2251 4 592 532 552 480
2252 5 592 532 552 612
2253 6 460 532 592 416
2254 7 460 532 592 556
2255 8 552 532 592 416
2256 9 552 532 592 556
2257 3 461 533 545 473
2258 4 461 533 545 605
2259 4 593 533 545 473
2260 5 593 533 545 605
2261 6 461 533 593 417
2262 7 461 533 593 557
2263 8 545 533 593 417
2264 9 545 533 593 557
2265 3 462 534 541 469
2266 4 462 534 541 601
2267 4 594 534 541 469
2268 5 594 534 541 601
2269 6 462 534 594 418
2270 7 462 534 594 558
2271 8 541 534 594 418
2272 9 541 534 594 558
2273 3 463 535 547 475
2274 4 463 535 547 607
2275 4 595 535 547 475
2276 5 595 535 547 607
2277 6 463 535 595 419
2278 7 463 535 595 559
2279 8 547 535 595 419
2280 9 547 535 595 559
2281 6 464 536 596 624
2282 7 464 536 596 560
2283 8 507 536 596 624
2284 9 507 536 596 560
2285 6 465 537 597 1235
2286 7 465 537 597 561
2287 8 515 537 597 1235
2288 9 515 537 597 561
2289 6 466 538 598 10
2290 7 466 538 598 526
2291 8 506 538 598 10
2292 9 506 538 598 526
2293 6 467 539 599 621
2294 7 467 539 599 527
2295 8 512 539 599 621
2296 9 512 539 599 527
2297 3 468 540 544 472
2298 4 468 540 544 604
2299 4 600 540 544 472
2300 5 600 540 544 604
2301 6 468 540 600 420
2302 7 468 540 600 564
2303 8 544 540 600 420
2304 9 544 540 600 564
2305 6 469 541 601 419
2306 7 469 541 601 558
2307 8 534 541 601 419
2308 9 534 541 601 558
2309 6 470 542 602 621
2310 7 470 542 602 562
2311 8 502 542 602 621
2312 9 502 542 602 562
2313 6 471 543 603 1235
2314 7 471 543 603 524
2315 8 500 543 603 1235
2316 9 500 543 603 524
2317 6 472 544 604 417
2318 7 472 544 604 564
2319 8 540 544 604 417
2320 9 540 544 604 564
2321 6 473 545 605 416
2322 7 473 545 605 557
2323 8 533 545 605 416
2324 9 533 545 605 557
2325 6 474 546 606 420
2326 7 474 546 606 553
2327 8 529 546 606 420
2328 9 529 546 606 553
2329 6 475 547 607 415
2330 7 475 547 607 559
2331 8 535 547 607 415
2332 9 535 547 607 559
2333 6 476 548 608 1231
2334 7 476 548 608 563
2335 8 503 548 608 1231
2336 9 503 548 608 563
2337 6 477 549 609 10
2338 7 477 549 609 519
2339 8 495 549 609 10
2340 9 495 549 609 519
2341 6 478 550 610 624
2342 7 478 550 610 554
2343 8 494 550 610 624
2344 9 494 550 610 554
2345 6 479 551 611 8
2346 7 479 551 611 525
2347 8 501 551 611 8
2348 9 501 551 611 525
2349 6 480 552 612 418
2350 7 480 552 612 556
2351 8 532 552 612 418
2352 9 532 552 612 556
2353 10 486 553 589 415
2354 11 486 553 589 529
2355 12 606 553 589 415
2356 13 606 553 589 529
2357 10 486 553 606 420
2358 11 486 553 606 546
2359 12 589 553 606 420
2360 13 589 553 606 546
2361 10 490 554 566 410
2362 11 490 554 566 494
2363 12 610 554 566 410
2364 13 610 554 566 494
2365 10 490 554 610 624
2366 11 490 554 610 550
2367 12 566 554 610 624
2368 13 566 554 610 550
2369 10 492 555 585 412
2370 11 492 555 585 513
2371 12 591 555 585 412
2372 13 591 555 585 513
2373 10 492 555 591 1231
2374 11 492 555 591 531
2375 12 585 555 591 1231
2376 13 585 555 591 531
2377 10 80 556 592 416
2378 11 80 556 592 532
2379 12 612 556 592 416
2380 13 612 556 592 532
2381 10 80 556 612 418
2382 11 80 556 612 552
2383 12 592 556 612 418
2384 13 592 556 612 552
2385 10 481 557 593 417
2386 11 481 557 593 533
2387 12 605 557 593 417
2388 13 605 557 593 533
2389 10 481 557 605 416
2390 11 481 557 605 545
2391 12 593 557 605 416
2392 13 593 557 605 545
2393 10 485 558 594 418
2394 11 485 558 594 534
2395 12 601 558 594 418
2396 13 601 558 594 534
2397 10 485 558 601 419
2398 11 485 558 601 541
2399 12 594 558 601 419
2400 13 594 558 601 541
2401 10 1298 559 595 419
2402 11 1298 559 595 535
2403 12 607 559 595 419
2404 13 607 559 595 535
2405 10 1298 559 607 415
2406 11 1298 559 607 547
2407 12 595 559 607 415
2408 13 595 559 607 547
2409 10 695 560 579 617
2410 11 695 560 579 507
2411 12 596 560 579 617
2412 13 596 560 579 507
2413 10 695 560 596 624
2414 11 695 560 596 536
2415 12 579 560 596 624
2416 13 579 560 596 536
2417 10 1299 561 587 1226
2418 11 1299 561 587 515
2419 12 597 561 587 1226
2420 13 597 561 587 515
2421 10 1299 561 597 1235
2422 11 1299 561 597 537
2423 12 587 561 597 1235
2424 13 587 561 597 537
2425 10 691 562 574 616
2426 11 691 562 574 502
2427 12 602 562 574 616
2428 13 602 562 574 502
2429 10 691 562 602 621
2430 11 691 562 602 542
2431 12 574 562 602 621
2432 13 574 562 602 542
2433 10 1300 563 575 1227
2434 11 1300 563 575 503
2435 12 608 563 575 1227
2436 13 608 563 575 503
2437 10 1300 563 608 1231
2438 11 1300 563 608 548
2439 12 575 563 608 1231
2440 13 575 563 608 548
2441 10 693 564 600 420
2442 11 693 564 600 540
2443 12 604 564 600 420
2444 13 604 564 600 540
2445 10 693 564 604 417
2446 11 693 564 604 544
2447 12 600 564 604 417
2448 13 600 564 604 544
2449 1 496 568 1226 1382
2450 1 496 568 1226 1397
2451 1 496 568 1226 587
2452 2 520 568 1226 1382
2453 2 520 568 1226 1397
2454 2 520 568 1226 587
2455 1 499 571 617 777
2456 1 499 571 617 781
2457 1 499 571 617 579
2458 2 523 571 617 777
2459 2 523 571 617 781
2460 2 523 571 617 579
2461 1 502 574 616 774
2462 1 502 574 616 789
2463 1 502 574 616 588
2464 2 562 574 616 774
2465 2 562 574 616 789
2466 2 562 574 616 588
2467 1 503 575 1227 1385
2468 1 503 575 1227 1394
2469 1 503 575 1227 580
2470 2 563 575 1227 1385
2471 2 563 575 1227 1394
2472 2 563 575 1227 580
2473 1 507 579 617 571
2474 1 507 579 617 777
2475 1 507 579 617 781
2476 2 560 579 617 571
2477 2 560 579 617 777
2478 2 560 579 617 781
2479 1 508 580 1227 1385
2480 1 508 580 1227 575
2481 1 508 580 1227 1394
2482 2 528 580 1227 1385
2483 2 528 580 1227 575
2484 2 528 580 1227 1394
2485 1 515 587 1226 1382
2486 1 515 587 1226 568
2487 1 515 587 1226 1397
2488 2 561 587 1226 1382
2489 2 561 587 1226 568
2490 2 561 587 1226 1397
2491 1 516 588 616 774
2492 1 516 588 616 574
2493 1 516 588 616 789
2494 2 520 588 616 774
2495 2 520 588 616 574
2496 2 520 588 616 789
2497 1 531 591 1231 1405
2498 1 531 591 1231 1423
2499 1 531 591 1231 608
2500 2 555 591 1231 1405
2501 2 555 591 1231 1423
2502 2 555 591 1231 608
2503 1 536 596 624 804
2504 1 536 596 624 810
2505 1 536 596 624 610
2506 2 560 596 624 804
2507 2 560 596 624 810
2508 2 560 596 624 610
2509 1 537 597 1235 1411
2510 1 537 597 1235 1417
2511 1 537 597 1235 603
2512 2 561 597 1235 1411
2513 2 561 597 1235 1417
2514 2 561 597 1235 603
2515 2 527 599 621 797
2516 2 527 599 621 602
2517 2 527 599 621 808
2518 1 539 599 621 797
2519 1 539 599 621 602
2520 1 539 599 621 808
2521 1 542 602 621 797
2522 1 542 602 621 599
2523 1 542 602 621 808
2524 2 562 602 621 797
2525 2 562 602 621 599
2526 2 562 602 621 808
2527 2 524 603 1235 1411
2528 2 524 603 1235 597
2529 2 524 603 1235 1417
2530 1 543 603 1235 1411
2531 1 543 603 1235 597
2532 1 543 603 1235 1417
2533 1 548 608 1231 1405
2534 1 548 608 1231 591
2535 1 548 608 1231 1423
2536 2 563 608 1231 1405
2537 2 563 608 1231 591
2538 2 563 608 1231 1423
2539 1 550 610 624 596
2540 1 550 610 624 804
2541 1 550 610 624 810
2542 2 554 610 624 596
2543 2 554 610 624 804
2544 2 554 610 624 810
2545 1 363 613 769 697
2546 2 363 613 769 721
2547 1 379 613 769 697
2548 2 379 613 769 721
2549 1 788 613 769 697
2550 2 788 613 769 721
2551 1 769 613 788 716
2552 2 769 613 788 731
2553 1 363 613 788 716
2554 2 363 613 788 731
2555 1 379 613 788 716
2556 2 379 613 788 731
2557 1 1588 614 770 698
2558 2 1588 614 770 758
2559 1 785 614 770 698
2560 2 785 614 770 758
2561 1 1607 614 770 698
2562 2 1607 614 770 758
2563 1 770 614 1588 1516
2564 2 770 614 1588 1540
2565 1 785 614 1588 1516
2566 2 785 614 1588 1540
2567 1 1607 614 1588 1516
2568 2 1607 614 1588 1540
2569 1 770 614 785 713
2570 2 770 614 785 725
2571 1 1588 614 785 713
2572 2 1588 614 785 725
2573 1 1607 614 785 713
2574 2 1607 614 785 725
2575 1 770 614 1607 1535
2576 2 770 614 1607 1581
2577 1 1588 614 1607 1535
2578 2 1588 614 1607 1581
2579 1 785 614 1607 1535
2580 2 785 614 1607 1581
2581 1 1595 615 773 701
2582 2 1595 615 773 725
2583 1 782 615 773 701
2584 2 782 615 773 725
2585 1 1600 615 773 701
2586 2 1600 615 773 725
2587 1 773 615 1595 1523
2588 2 773 615 1595 1583
2589 1 782 615 1595 1523
2590 2 782 615 1595 1583
2591 1 1600 615 1595 1523
2592 2 1600 615 1595 1583
2593 1 773 615 782 710
2594 2 773 615 782 730
2595 1 1595 615 782 710
2596 2 1595 615 782 730
2597 1 1600 615 782 710
2598 2 1600 615 782 730
2599 1 773 615 1600 1528
2600 2 773 615 1600 1548
2601 1 1595 615 1600 1528
2602 2 1595 615 1600 1548
2603 1 782 615 1600 1528
2604 2 782 615 1600 1548
2605 1 574 616 774 702
2606 2 574 616 774 726
2607 1 789 616 774 702
2608 2 789 616 774 726
2609 1 588 616 774 702
2610 2 588 616 774 726
2611 1 774 616 789 717
2612 2 774 616 789 759
2613 1 574 616 789 717
2614 2 574 616 789 759
2615 1 588 616 789 717
2616 2 588 616 789 759
2617 1 571 617 777 705
2618 2 571 617 777 729
2619 1 781 617 777 705
2620 2 781 617 777 729
2621 1 579 617 777 705
2622 2 579 617 777 729
2623 1 571 617 781 709
2624 2 571 617 781 726
2625 1 777 617 781 709
2626 2 777 617 781 726
2627 1 579 617 781 709
2628 2 579 617 781 726
2629 1 372 618 776 704
2630 2 372 618 776 728
2631 1 786 618 776 704
2632 2 786 618 776 728
2633 1 382 618 776 704
2634 2 382 618 776 728
2635 1 776 618 786 714
2636 2 776 618 786 721
2637 1 372 618 786 714
2638 2 372 618 786 721
2639 1 382 618 786 714
2640 2 382 618 786 721
2641 1 1611 619 793 733
2642 2 1611 619 793 757
2643 1 811 619 793 733
2644 2 811 619 793 757
2645 1 1628 619 793 733
2646 2 1628 619 793 757
2647 1 793 619 1611 1551
2648 2 793 619 1611 1575
2649 1 811 619 1611 1551
2650 2 811 619 1611 1575
2651 1 1628 619 1611 1551
2652 2 1628 619 1611 1575
2653 1 793 619 811 751
2654 2 793 619 811 763
2655 1 1611 619 811 751
2656 2 1611 619 811 763
2657 1 1628 619 811 751
2658 2 1628 619 811 763
2659 1 793 619 1628 1568
2660 2 793 619 1628 1583
2661 1 1611 619 1628 1568
2662 2 1611 619 1628 1583
2663 1 811 619 1628 1568
2664 2 811 619 1628 1583
2665 1 386 620 796 736
2666 2 386 620 796 760
2667 1 809 620 796 736
2668 2 809 620 796 760
2669 1 407 620 796 736
2670 2 407 620 796 760
2671 1 386 620 809 749
2672 2 386 620 809 761
2673 1 796 620 809 749
2674 2 796 620 809 761
2675 1 407 620 809 749
2676 2 407 620 809 761
2677 1 599 621 797 737
2678 2 599 621 797 761
2679 1 602 621 797 737
2680 2 602 621 797 761
2681 1 808 621 797 737
2682 2 808 621 797 761
2683 1 797 621 808 748
2684 2 797 621 808 768
2685 1 599 621 808 748
2686 2 599 621 808 768
2687 1 602 621 808 748
2688 2 602 621 808 768
2689 1 394 622 798 738
2690 2 394 622 798 762
2691 1 405 622 798 738
2692 2 405 622 798 762
2693 1 816 622 798 738
2694 2 816 622 798 762
2695 1 798 622 816 756
2696 2 798 622 816 760
2697 1 394 622 816 756
2698 2 394 622 816 760
2699 1 405 622 816 756
2700 2 405 622 816 760
2701 1 1617 623 799 739
2702 2 1617 623 799 763
2703 1 805 623 799 739
2704 2 805 623 799 763
2705 1 1623 623 799 739
2706 2 1623 623 799 763
2707 1 799 623 1617 1557
2708 2 799 623 1617 1581
2709 1 805 623 1617 1557
2710 2 805 623 1617 1581
2711 1 1623 623 1617 1557
2712 2 1623 623 1617 1581
2713 1 799 623 805 745
2714 2 799 623 805 762
2715 1 1617 623 805 745
2716 2 1617 623 805 762
2717 1 1623 623 805 745
2718 2 1623 623 805 762
2719 2 799 623 1623 1544
2720 1 799 623 1623 1563
2721 2 1617 623 1623 1544
2722 1 1617 623 1623 1563
2723 2 805 623 1623 1544
2724 1 805 623 1623 1563
2725 1 596 624 804 744
2726 2 596 624 804 768
2727 1 810 624 804 744
2728 2 810 624 804 768
2729 1 610 624 804 744
2730 2 610 624 804 768
2731 1 596 624 810 750
2732 2 596 624 810 757
2733 1 804 624 810 750
2734 2 804 624 810 757
2735 1 610 624 810 750
2736 2 610 624 810 757
2737 3 625 697 714 642
2738 4 625 697 714 786
2739 4 769 697 714 642
2740 5 769 697 714 786
2741 6 625 697 769 613
2742 7 625 697 769 721
2743 8 714 697 769 613
2744 9 714 697 769 721
2745 3 626 698 754 682
2746 4 626 698 754 814
2747 4 770 698 754 682
2748 5 770 698 754 814
2749 6 626 698 770 614
2750 7 626 698 770 758
2751 8 754 698 770 614
2752 9 754 698 770 758
2753 3 627 699 753 681
2754 4 627 699 753 813
2755 4 771 699 753 681
2756 5 771 699 753 813
2757 6 627 699 771 205
2758 7 627 699 771 723
2759 8 753 699 771 205
2760 9 753 699 771 723
2761 3 628 700 720 648
2762 4 628 700 720 792
2763 4 772 700 720 648
2764 5 772 700 720 792
2765 6 628 700 772 1430
2766 7 628 700 772 724
2767 8 720 700 772 1430
2768 9 720 700 772 724
2769 3 629 701 713 641
2770 4 629 701 713 785
2771 4 773 701 713 641
2772 5 773 701 713 785
2773 6 629 701 773 615
2774 7 629 701 773 725
2775 8 713 701 773 615
2776 9 713 701 773 725
2777 3 630 702 709 637
2778 4 630 702 709 781
2779 4 774 702 709 637
2780 5 774 702 709 781
2781 6 630 702 774 616
2782 7 630 702 774 726
2783 8 709 702 774 616
2784 9 709 702 774 726
2785 3 631 703 715 643
2786 4 631 703 715 787
2787 4 775 703 715 643
2788 5 775 703 715 787
2789 6 631 703 775 413
2790 7 631 703 775 727
2791 8 715 703 775 413
2792 9 715 703 775 727
2793 3 632 704 747 675
2794 4 632 704 747 807
2795 4 776 704 747 675
2796 5 776 704 747 807
2797 6 632 704 776 618
2798 7 632 704 776 728
2799 8 747 704 776 618
2800 9 747 704 776 728
2801 3 633 705 755 683
2802 4 633 705 755 815
2803 4 777 705 755 683
2804 5 777 705 755 815
2805 6 633 705 777 617
2806 7 633 705 777 729
2807 8 755 705 777 617
2808 9 755 705 777 729
2809 3 634 706 746 674
2810 4 634 706 746 806
2811 4 778 706 746 674
2812 5 778 706 746 806
2813 6 634 706 778 412
2814 7 634 706 778 766
2815 8 746 706 778 412
2816 9 746 706 778 766
2817 3 635 707 752 680
2818 4 635 707 752 812
2819 4 779 707 752 680
2820 5 779 707 752 812
2821 6 635 707 779 1431
2822 7 635 707 779 767
2823 8 752 707 779 1431
2824 9 752 707 779 767
2825 3 636 708 712 640
2826 4 636 708 712 784
2827 4 780 708 712 640
2828 5 780 708 712 784
2829 6 636 708 780 210
2830 7 636 708 780 732
2831 8 712 708 780 210
2832 9 712 708 780 732
2833 6 637 709 781 617
2834 7 637 709 781 726
2835 8 702 709 781 617
2836 9 702 709 781 726
2837 3 638 710 742 670
2838 4 638 710 742 802
2839 4 782 710 742 670
2840 5 782 710 742 802
2841 6 638 710 782 615
2842 7 638 710 782 730
2843 8 742 710 782 615
2844 9 742 710 782 730
2845 3 639 711 740 668
2846 4 639 711 740 800
2847 4 783 711 740 668
2848 5 783 711 740 800
2849 6 639 711 783 413
2850 7 639 711 783 764
2851 8 740 711 783 413
2852 9 740 711 783 764
2853 6 640 712 784 1431
2854 7 640 712 784 732
2855 8 708 712 784 1431
2856 9 708 712 784 732
2857 6 641 713 785 614
2858 7 641 713 785 725
2859 8 701 713 785 614
2860 9 701 713 785 725
2861 6 642 714 786 618
2862 7 642 714 786 721
2863 8 697 714 786 618
2864 9 697 714 786 721
2865 6 643 715 787 205
2866 7 643 715 787 727
2867 8 703 715 787 205
2868 9 703 715 787 727
2869 3 644 716 743 671
2870 4 644 716 743 803
2871 4 788 716 743 671
2872 5 788 716 743 803
2873 6 644 716 788 613
2874 7 644 716 788 731
2875 8 743 716 788 613
2876 9 743 716 788 731
2877 3 645 717 735 663
2878 4 645 717 735 795
2879 4 789 717 735 663
2880 5 789 717 735 795
2881 6 645 717 789 616
2882 7 645 717 789 759
2883 8 735 717 789 616
2884 9 735 717 789 759
2885 3 646 718 734 662
2886 4 646 718 734 794
2887 4 790 718 734 662
2888 5 790 718 734 794
2889 6 646 718 790 210
2890 7 646 718 790 722
2891 8 734 718 790 210
2892 9 734 718 790 722
2893 3 647 719 741 669
2894 4 647 719 741 801
2895 4 791 719 741 669
2896 5 791 719 741 801
2897 6 647 719 791 1430
2898 7 647 719 791 765
2899 8 741 719 791 1430
2900 9 741 719 791 765
2901 6 648 720 792 412
2902 7 648 720 792 724
2903 8 700 720 792 412
2904 9 700 720 792 724
2905 10 246 721 769 613
2906 11 246 721 769 697
2907 12 786 721 769 613
2908 13 786 721 769 697
2909 10 246 721 786 618
2910 11 246 721 786 714
2911 12 769 721 786 618
2912 13 769 721 786 714
2913 10 250 722 790 210
2914 11 250 722 790 718
2915 12 794 722 790 210
2916 13 794 722 790 718
2917 10 250 722 794 212
2918 11 250 722 794 734
2919 12 790 722 794 212
2920 13 790 722 794 734
2921 10 252 723 771 205
2922 11 252 723 771 699
2923 12 813 723 771 205
2924 13 813 723 771 699
2925 10 252 723 813 214
2926 11 252 723 813 753
2927 12 771 723 813 214
2928 13 771 723 813 753
2929 10 656 724 772 1430
2930 11 656 724 772 700
2931 12 792 724 772 1430
2932 13 792 724 772 700
2933 10 656 724 792 412
2934 11 656 724 792 720
2935 12 772 724 792 412
2936 13 772 724 792 720
2937 10 1465 725 773 615
2938 11 1465 725 773 701
2939 12 785 725 773 615
2940 13 785 725 773 701
2941 10 1465 725 785 614
2942 11 1465 725 785 713
2943 12 773 725 785 614
2944 13 773 725 785 713
2945 10 449 726 774 616
2946 11 449 726 774 702
2947 12 781 726 774 616
2948 13 781 726 774 702
2949 10 449 726 781 617
2950 11 449 726 781 709
2951 12 774 726 781 617
2952 13 774 726 781 709
2953 10 650 727 775 413
2954 11 650 727 775 703
2955 12 787 727 775 413
2956 13 787 727 775 703
2957 10 650 727 787 205
2958 11 650 727 787 715
2959 12 775 727 787 205
2960 13 775 727 787 715
2961 10 659 728 776 618
2962 11 659 728 776 704
2963 12 807 728 776 618
2964 13 807 728 776 704
2965 10 659 728 807 1439
2966 11 659 728 807 747
2967 12 776 728 807 1439
2968 13 776 728 807 747
2969 10 651 729 777 617
2970 11 651 729 777 705
2971 12 815 729 777 617
2972 13 815 729 777 705
2973 10 651 729 815 212
2974 11 651 729 815 755
2975 12 777 729 815 212
2976 13 777 729 815 755
2977 10 655 730 782 615
2978 11 655 730 782 710
2979 12 802 730 782 615
2980 13 802 730 782 710
2981 10 655 730 802 214
2982 11 655 730 802 742
2983 12 782 730 802 214
2984 13 782 730 802 742
2985 10 652 731 788 613
2986 11 652 731 788 716
2987 12 803 731 788 613
2988 13 803 731 788 716
2989 10 652 731 803 417
2990 11 652 731 803 743
2991 12 788 731 803 417
2992 13 788 731 803 743
2993 10 657 732 780 210
2994 11 657 732 780 708
2995 12 784 732 780 210
2996 13 784 732 780 708
2997 10 657 732 784 1431
2998 11 657 732 784 712
2999 12 780 732 784 1431
3000 13 780 732 784 712
3001 3 661 733 750 678
3002 4 661 733 750 810
3003 4 793 733 750 678
3004 5 793 733 750 810
3005 6 661 733 793 619
3006 7 661 733 793 757
3007 8 750 733 793 619
3008 9 750 733 793 757
3009 6 662 734 794 212
3010 7 662 734 794 722
3011 8 718 734 794 212
3012 9 718 734 794 722
3013 6 663 735 795 1435
3014 7 663 735 795 759
3015 8 717 735 795 1435
3016 9 717 735 795 759
3017 3 664 736 756 684
3018 4 664 736 756 816
3019 4 796 736 756 684
3020 5 796 736 756 816
3021 6 664 736 796 620
3022 7 664 736 796 760
3023 8 756 736 796 620
3024 9 756 736 796 760
3025 3 665 737 749 677
3026 4 665 737 749 809
3027 4 797 737 749 677
3028 5 797 737 749 809
3029 6 665 737 797 621
3030 7 665 737 797 761
3031 8 749 737 797 621
3032 9 749 737 797 761
3033 3 666 738 745 673
3034 4 666 738 745 805
3035 4 798 738 745 673
3036 5 798 738 745 805
3037 6 666 738 798 622
3038 7 666 738 798 762
3039 8 745 738 798 622
3040 9 745 738 798 762
3041 3 667 739 751 679
3042 4 667 739 751 811
3043 4 799 739 751 679
3044 5 799 739 751 811
3045 6 667 739 799 623
3046 7 667 739 799 763
3047 8 751 739 799 623
3048 9 751 739 799 763
3049 6 668 740 800 420
3050 7 668 740 800 764
3051 8 711 740 800 420
3052 9 711 740 800 764
3053 6 669 741 801 1439
3054 7 669 741 801 765
3055 8 719 741 801 1439
3056 9 719 741 801 765
3057 6 670 742 802 214
3058 7 670 742 802 730
3059 8 710 742 802 214
3060 9 710 742 802 730
3061 6 671 743 803 417
3062 7 671 743 803 731
3063 8 716 743 803 417
3064 9 716 743 803 731
3065 3 672 744 748 676
3066 4 672 744 748 808
3067 4 804 744 748 676
3068 5 804 744 748 808
3069 6 672 744 804 624
3070 7 672 744 804 768
3071 8 748 744 804 624
3072 9 748 744 804 768
3073 6 673 745 805 623
3074 7 673 745 805 762
3075 8 738 745 805 623
3076 9 738 745 805 762
3077 6 674 746 806 417
3078 7 674 746 806 766
3079 8 706 746 806 417
3080 9 706 746 806 766
3081 6 675 747 807 1439
3082 7 675 747 807 728
3083 8 704 747 807 1439
3084 9 704 747 807 728
3085 6 676 748 808 621
3086 7 676 748 808 768
3087 8 744 748 808 621
3088 9 744 748 808 768
3089 6 677 749 809 620
3090 7 677 749 809 761
3091 8 737 749 809 620
3092 9 737 749 809 761
3093 6 678 750 810 624
3094 7 678 750 810 757
3095 8 733 750 810 624
3096 9 733 750 810 757
3097 6 679 751 811 619
3098 7 679 751 811 763
3099 8 739 751 811 619
3100 9 739 751 811 763
3101 6 680 752 812 1435
3102 7 680 752 812 767
3103 8 707 752 812 1435
3104 9 707 752 812 767
3105 6 681 753 813 214
3106 7 681 753 813 723
3107 8 699 753 813 214
3108 9 699 753 813 723
3109 6 682 754 814 420
3110 7 682 754 814 758
3111 8 698 754 814 420
3112 9 698 754 814 758
3113 6 683 755 815 212
3114 7 683 755 815 729
3115 8 705 755 815 212
3116 9 705 755 815 729
3117 6 684 756 816 622
3118 7 684 756 816 760
3119 8 736 756 816 622
3120 9 736 756 816 760
3121 10 690 757 793 619
3122 11 690 757 793 733
3123 12 810 757 793 619
3124 13 810 757 793 733
3125 10 690 757 810 624
3126 11 690 757 810 750
3127 12 793 757 810 624
3128 13 793 757 810 750
3129 10 694 758 770 614
3130 11 694 758 770 698
3131 12 814 758 770 614
3132 13 814 758 770 698
3133 10 694 758 814 420
3134 11 694 758 814 754
3135 12 770 758 814 420
3136 13 770 758 814 754
3137 10 696 759 789 616
3138 11 696 759 789 717
3139 12 795 759 789 616
3140 13 795 759 789 717
3141 10 696 759 795 1435
3142 11 696 759 795 735
3143 12 789 759 795 1435
3144 13 789 759 795 735
3145 10 284 760 796 620
3146 11 284 760 796 736
3147 12 816 760 796 620
3148 13 816 760 796 736
3149 10 284 760 816 622
3150 11 284 760 816 756
3151 12 796 760 816 622
3152 13 796 760 816 756
3153 10 685 761 797 621
3154 11 685 761 797 737
3155 12 809 761 797 621
3156 13 809 761 797 737
3157 10 685 761 809 620
3158 11 685 761 809 749
3159 12 797 761 809 620
3160 13 797 761 809 749
3161 10 689 762 798 622
3162 11 689 762 798 738
3163 12 805 762 798 622
3164 13 805 762 798 738
3165 10 689 762 805 623
3166 11 689 762 805 745
3167 12 798 762 805 623
3168 13 798 762 805 745
3169 10 1502 763 799 623
3170 11 1502 763 799 739
3171 12 811 763 799 623
3172 13 811 763 799 739
3173 10 1502 763 811 619
3174 11 1502 763 811 751
3175 12 799 763 811 619
3176 13 799 763 811 751
3177 10 491 764 783 413
3178 11 491 764 783 711
3179 12 800 764 783 413
3180 13 800 764 783 711
3181 10 491 764 800 420
3182 11 491 764 800 740
3183 12 783 764 800 420
3184 13 783 764 800 740
3185 10 1503 765 791 1430
3186 11 1503 765 791 719
3187 12 801 765 791 1430
3188 13 801 765 791 719
3189 10 1503 765 801 1439
3190 11 1503 765 801 741
3191 12 791 765 801 1439
3192 13 791 765 801 741
3193 10 487 766 778 412
3194 11 487 766 778 706
3195 12 806 766 778 412
3196 13 806 766 778 706
3197 10 487 766 806 417
3198 11 487 766 806 746
3199 12 778 766 806 417
3200 13 778 766 806 746
3201 10 1504 767 779 1431
3202 11 1504 767 779 707
3203 12 812 767 779 1431
3204 13 812 767 779 707
3205 10 1504 767 812 1435
3206 11 1504 767 812 752
3207 12 779 767 812 1435
3208 13 779 767 812 752
3209 10 489 768 804 624
3210 11 489 768 804 744
3211 12 808 768 804 624
3212 13 808 768 804 744
3213 10 489 768 808 621
3214 11 489 768 808 748
3215 12 804 768 808 621
3216 13 804 768 808 748
3217 1 700 772 1430 1586
3218 1 700 772 1430 1601
3219 1 700 772 1430 791
3220 2 724 772 1430 1586
3221 2 724 772 1430 1601
3222 2 724 772 1430 791
3223 1 707 779 1431 1589
3224 1 707 779 1431 1598
3225 1 707 779 1431 784
3226 2 767 779 1431 1589
3227 2 767 779 1431 1598
3228 2 767 779 1431 784
3229 1 712 784 1431 1589
3230 1 712 784 1431 779
3231 1 712 784 1431 1598
3232 2 732 784 1431 1589
3233 2 732 784 1431 779
3234 2 732 784 1431 1598
3235 1 719 791 1430 1586
3236 1 719 791 1430 772
3237 1 719 791 1430 1601
3238 2 765 791 1430 1586
3239 2 765 791 1430 772
3240 2 765 791 1430 1601
3241 1 735 795 1435 1609
3242 1 735 795 1435 1627
3243 1 735 795 1435 812
3244 2 759 795 1435 1609
3245 2 759 795 1435 1627
3246 2 759 795 1435 812
3247 1 741 801 1439 1615
3248 1 741 801 1439 1621
3249 1 741 801 1439 807
3250 2 765 801 1439 1615
3251 2 765 801 1439 1621
3252 2 765 801 1439 807
3253 2 728 807 1439 1615
3254 2 728 807 1439 801
3255 2 728 807 1439 1621
3256 1 747 807 1439 1615
3257 1 747 807 1439 801
3258 1 747 807 1439 1621
3259 1 752 812 1435 1609
3260 1 752 812 1435 795
3261 1 752 812 1435 1627
3262 2 767 812 1435 1609
3263 2 767 812 1435 795
3264 2 767 812 1435 1627
3265 1 1383 817 973 901
3266 2 1383 817 973 925
3267 1 1399 817 973 901
3268 2 1399 817 973 925
3269 1 992 817 973 901
3270 2 992 817 973 925
3271 1 973 817 1383 1311
3272 2 973 817 1383 1335
3273 1 1399 817 1383 1311
3274 2 1399 817 1383 1335
3275 1 992 817 1383 1311
3276 2 992 817 1383 1335
3277 1 973 817 1399 1327
3278 2 973 817 1399 1339
3279 1 1383 817 1399 1327
3280 2 1383 817 1399 1339
3281 1 992 817 1399 1327
3282 2 992 817 1399 1339
3283 1 973 817 992 920
3284 2 973 817 992 935
3285 1 1383 817 992 920
3286 2 1383 817 992 935
3287 1 1399 817 992 920
3288 2 1399 817 992 935
3289 1 160 818 974 902
3290 2 160 818 974 962
3291 1 989 818 974 902
3292 2 989 818 974 962
3293 1 179 818 974 902
3294 2 179 818 974 962
3295 1 974 818 989 917
3296 2 974 818 989 929
3297 1 160 818 989 917
3298 2 160 818 989 929
3299 1 179 818 989 917
3300 2 179 818 989 929
3301 1 167 819 977 905
3302 2 167 819 977 929
3303 1 986 819 977 905
3304 2 986 819 977 929
3305 1 172 819 977 905
3306 2 172 819 977 929
3307 1 977 819 986 914
3308 2 977 819 986 934
3309 1 167 819 986 914
3310 2 167 819 986 934
3311 1 172 819 986 914
3312 2 172 819 986 934
3313 1 1186 820 978 906
3314 2 1186 820 978 930
3315 1 993 820 978 906
3316 2 993 820 978 930
3317 1 1200 820 978 906
3318 2 1200 820 978 930
3319 1 978 820 1186 1114
3320 2 978 820 1186 1174
3321 1 993 820 1186 1114
3322 2 993 820 1186 1174
3323 1 1200 820 1186 1114
3324 2 1200 820 1186 1174
3325 1 978 820 993 921
3326 2 978 820 993 963
3327 1 1186 820 993 921
3328 2 1186 820 993 963
3329 1 1200 820 993 921
3330 2 1200 820 993 963
3331 1 978 820 1200 1128
3332 2 978 820 1200 1132
3333 1 1186 820 1200 1128
3334 2 1186 820 1200 1132
3335 1 993 820 1200 1128
3336 2 993 820 1200 1132
3337 1 981 821 1183 1111
3338 2 981 821 1183 1135
3339 1 985 821 1183 1111
3340 2 985 821 1183 1135
3341 1 1191 821 1183 1111
3342 2 1191 821 1183 1135
3343 1 1183 821 981 909
3344 2 1183 821 981 933
3345 1 985 821 981 909
3346 2 985 821 981 933
3347 1 1191 821 981 909
3348 2 1191 821 981 933
3349 1 1183 821 985 913
3350 2 1183 821 985 930
3351 1 981 821 985 913
3352 2 981 821 985 930
3353 1 1191 821 985 913
3354 2 1191 821 985 930
3355 1 1183 821 1191 1119
3356 2 1183 821 1191 1172
3357 1 981 821 1191 1119
3358 2 981 821 1191 1172
3359 1 985 821 1191 1119
3360 2 985 821 1191 1172
3361 1 1392 822 980 908
3362 2 1392 822 980 932
3363 1 990 822 980 908
3364 2 990 822 980 932
3365 1 1402 822 980 908
3366 2 1402 822 980 932
3367 1 980 822 1392 1320
3368 2 980 822 1392 1344
3369 1 990 822 1392 1320
3370 2 990 822 1392 1344
3371 1 1402 822 1392 1320
3372 2 1402 822 1392 1344
3373 1 980 822 990 918
3374 2 980 822 990 925
3375 1 1392 822 990 918
3376 2 1392 822 990 925
3377 1 1402 822 990 918
3378 2 1402 822 990 925
3379 1 980 822 1402 1330
3380 2 980 822 1402 1334
3381 1 1392 822 1402 1330
3382 2 1392 822 1402 1334
3383 1 990 822 1402 1330
3384 2 990 822 1402 1334
3385 1 183 823 997 937
3386 2 183 823 997 961
3387 1 1015 823 997 937
3388 2 1015 823 997 961
3389 1 200 823 997 937
3390 2 200 823 997 961
3391 1 997 823 1015 955
3392 2 997 823 1015 967
3393 1 183 823 1015 955
3394 2 183 823 1015 967
3395 1 200 823 1015 955
3396 2 200 823 1015 967
3397 2 1000 824 1406 1334
3398 1 1000 824 1406 1346
3399 2 1013 824 1406 1334
3400 1 1013 824 1406 1346
3401 2 1427 824 1406 1334
3402 1 1427 824 1406 1346
3403 1 1406 824 1000 940
3404 2 1406 824 1000 964
3405 1 1013 824 1000 940
3406 2 1013 824 1000 964
3407 1 1427 824 1000 940
3408 2 1427 824 1000 964
3409 1 1406 824 1013 953
3410 2 1406 824 1013 965
3411 1 1000 824 1013 953
3412 2 1000 824 1013 965
3413 1 1427 824 1013 953
3414 2 1427 824 1013 965
3415 2 1406 824 1427 1341
3416 1 1406 824 1427 1367
3417 2 1000 824 1427 1341
3418 1 1000 824 1427 1367
3419 2 1013 824 1427 1341
3420 1 1013 824 1427 1367
3421 1 1211 825 1001 941
3422 2 1211 825 1001 965
3423 1 1214 825 1001 941
3424 2 1214 825 1001 965
3425 1 1012 825 1001 941
3426 2 1012 825 1001 965
3427 2 1001 825 1211 1139
3428 1 1001 825 1211 1151
3429 2 1214 825 1211 1139
3430 1 1214 825 1211 1151
3431 2 1012 825 1211 1139
3432 1 1012 825 1211 1151
3433 1 1001 825 1214 1154
3434 2 1001 825 1214 1174
3435 1 1211 825 1214 1154
3436 2 1211 825 1214 1174
3437 1 1012 825 1214 1154
3438 2 1012 825 1214 1174
3439 1 1001 825 1012 952
3440 2 1001 825 1012 972
3441 1 1211 825 1012 952
3442 2 1211 825 1012 972
3443 1 1214 825 1012 952
3444 2 1214 825 1012 972
3445 1 1414 826 1002 942
3446 2 1414 826 1002 966
3447 1 1425 826 1002 942
3448 2 1425 826 1002 966
3449 1 1020 826 1002 942
3450 2 1020 826 1002 966
3451 2 1002 826 1414 1342
3452 1 1002 826 1414 1354
3453 2 1425 826 1414 1342
3454 1 1425 826 1414 1354
3455 2 1020 826 1414 1342
3456 1 1020 826 1414 1354
3457 2 1002 826 1425 1335
3458 1 1002 826 1425 1365
3459 2 1414 826 1425 1335
3460 1 1414 826 1425 1365
3461 2 1020 826 1425 1335
3462 1 1020 826 1425 1365
3463 1 1002 826 1020 960
3464 2 1002 826 1020 964
3465 1 1414 826 1020 960
3466 2 1414 826 1020 964
3467 1 1425 826 1020 960
3468 2 1425 826 1020 964
3469 1 189 827 1003 943
3470 2 189 827 1003 967
3471 1 1009 827 1003 943
3472 2 1009 827 1003 967
3473 1 195 827 1003 943
3474 2 195 827 1003 967
3475 1 1003 827 1009 949
3476 2 1003 827 1009 966
3477 1 189 827 1009 949
3478 2 189 827 1009 966
3479 1 195 827 1009 949
3480 2 195 827 1009 966
3481 1 1008 828 1208 1148
3482 2 1008 828 1208 1172
3483 1 1014 828 1208 1148
3484 2 1014 828 1208 1172
3485 1 1222 828 1208 1148
3486 2 1222 828 1208 1172
3487 1 1208 828 1008 948
3488 2 1208 828 1008 972
3489 1 1014 828 1008 948
3490 2 1014 828 1008 972
3491 1 1222 828 1008 948
3492 2 1222 828 1008 972
3493 1 1208 828 1014 954
3494 2 1208 828 1014 961
3495 1 1008 828 1014 954
3496 2 1008 828 1014 961
3497 1 1222 828 1014 954
3498 2 1222 828 1014 961
3499 1 1208 828 1222 1162
3500 2 1208 828 1222 1166
3501 1 1008 828 1222 1162
3502 2 1008 828 1222 1166
3503 1 1014 828 1222 1162
3504 2 1014 828 1222 1166
3505 3 829 901 918 846
3506 4 829 901 918 990
3507 4 973 901 918 846
3508 5 973 901 918 990
3509 6 829 901 973 817
3510 7 829 901 973 925
3511 8 918 901 973 817
3512 9 918 901 973 925
3513 3 830 902 958 886
3514 4 830 902 958 1018
3515 4 974 902 958 886
3516 5 974 902 958 1018
3517 6 830 902 974 818
3518 7 830 902 974 962
3519 8 958 902 974 818
3520 9 958 902 974 962
3521 3 831 903 957 885
3522 4 831 903 957 1017
3523 4 975 903 957 885
3524 5 975 903 957 1017
3525 6 831 903 975 1225
3526 7 831 903 975 927
3527 8 957 903 975 1225
3528 9 957 903 975 927
3529 3 832 904 924 852
3530 4 832 904 924 996
3531 4 976 904 924 852
3532 5 976 904 924 996
3533 6 832 904 976 2
3534 7 832 904 976 928
3535 8 924 904 976 2
3536 9 924 904 976 928
3537 3 833 905 917 845
3538 4 833 905 917 989
3539 4 977 905 917 845
3540 5 977 905 917 989
3541 6 833 905 977 819
3542 7 833 905 977 929
3543 8 917 905 977 819
3544 9 917 905 977 929
3545 3 834 906 913 841
3546 4 834 906 913 985
3547 4 978 906 913 841
3548 5 978 906 913 985
3549 6 834 906 978 820
3550 7 834 906 978 930
3551 8 913 906 978 820
3552 9 913 906 978 930
3553 3 835 907 919 847
3554 4 835 907 919 991
3555 4 979 907 919 847
3556 5 979 907 919 991
3557 6 835 907 979 1025
3558 7 835 907 979 931
3559 8 919 907 979 1025
3560 9 919 907 979 931
3561 3 836 908 951 879
3562 4 836 908 951 1011
3563 4 980 908 951 879
3564 5 980 908 951 1011
3565 6 836 908 980 822
3566 7 836 908 980 932
3567 8 951 908 980 822
3568 9 951 908 980 932
3569 3 837 909 959 887
3570 4 837 909 959 1019
3571 4 981 909 959 887
3572 5 981 909 959 1019
3573 6 837 909 981 821
3574 7 837 909 981 933
3575 8 959 909 981 821
3576 9 959 909 981 933
3577 3 838 910 950 878
3578 4 838 910 950 1010
3579 4 982 910 950 878
3580 5 982 910 950 1010
3581 6 838 910 982 1024
3582 7 838 910 982 970
3583 8 950 910 982 1024
3584 9 950 910 982 970
3585 3 839 911 956 884
3586 4 839 911 956 1016
3587 4 983 911 956 884
3588 5 983 911 956 1016
3589 6 839 911 983 3
3590 7 839 911 983 971
3591 8 956 911 983 3
3592 9 956 911 983 971
3593 3 840 912 916 844
3594 4 840 912 916 988
3595 4 984 912 916 844
3596 5 984 912 916 988
3597 6 840 912 984 1230
3598 7 840 912 984 936
3599 8 916 912 984 1230
3600 9 916 912 984 936
3601 6 841 913 985 821
3602 7 841 913 985 930
3603 8 906 913 985 821
3604 9 906 913 985 930
3605 3 842 914 946 874
3606 4 842 914 946 1006
3607 4 986 914 946 874
3608 5 986 914 946 1006
3609 6 842 914 986 819
3610 7 842 914 986 934
3611 8 946 914 986 819
3612 9 946 914 986 934
3613 3 843 915 944 872
3614 4 843 915 944 1004
3615 4 987 915 944 872
3616 5 987 915 944 1004
3617 6 843 915 987 1025
3618 7 843 915 987 968
3619 8 944 915 987 1025
3620 9 944 915 987 968
3621 6 844 916 988 3
3622 7 844 916 988 936
3623 8 912 916 988 3
3624 9 912 916 988 936
3625 6 845 917 989 818
3626 7 845 917 989 929
3627 8 905 917 989 818
3628 9 905 917 989 929
3629 6 846 918 990 822
3630 7 846 918 990 925
3631 8 901 918 990 822
3632 9 901 918 990 925
3633 6 847 919 991 1225
3634 7 847 919 991 931
3635 8 907 919 991 1225
3636 9 907 919 991 931
3637 3 848 920 947 875
3638 4 848 920 947 1007
3639 4 992 920 947 875
3640 5 992 920 947 1007
3641 6 848 920 992 817
3642 7 848 920 992 935
3643 8 947 920 992 817
3644 9 947 920 992 935
3645 3 849 921 939 867
3646 4 849 921 939 999
3647 4 993 921 939 867
3648 5 993 921 939 999
3649 6 849 921 993 820
3650 7 849 921 993 963
3651 8 939 921 993 820
3652 9 939 921 993 963
3653 3 850 922 938 866
3654 4 850 922 938 998
3655 4 994 922 938 866
3656 5 994 922 938 998
3657 6 850 922 994 1230
3658 7 850 922 994 926
3659 8 938 922 994 1230
3660 9 938 922 994 926
3661 3 851 923 945 873
3662 4 851 923 945 1005
3663 4 995 923 945 873
3664 5 995 923 945 1005
3665 6 851 923 995 2
3666 7 851 923 995 969
3667 8 945 923 995 2
3668 9 945 923 995 969
3669 6 852 924 996 1024
3670 7 852 924 996 928
3671 8 904 924 996 1024
3672 9 904 924 996 928
3673 10 1266 925 973 817
3674 11 1266 925 973 901
3675 12 990 925 973 817
3676 13 990 925 973 901
3677 10 1266 925 990 822
3678 11 1266 925 990 918
3679 12 973 925 990 822
3680 13 973 925 990 918
3681 10 1270 926 994 1230
3682 11 1270 926 994 922
3683 12 998 926 994 1230
3684 13 998 926 994 922
3685 10 1270 926 998 1232
3686 11 1270 926 998 938
3687 12 994 926 998 1232
3688 13 994 926 998 938
3689 10 1272 927 975 1225
3690 11 1272 927 975 903
3691 12 1017 927 975 1225
3692 13 1017 927 975 903
3693 10 1272 927 1017 1234
3694 11 1272 927 1017 957
3695 12 975 927 1017 1234
3696 13 975 927 1017 957
3697 10 860 928 976 2
3698 11 860 928 976 904
3699 12 996 928 976 2
3700 13 996 928 976 904
3701 10 860 928 996 1024
3702 11 860 928 996 924
3703 12 976 928 996 1024
3704 13 976 928 996 924
3705 10 37 929 977 819
3706 11 37 929 977 905
3707 12 989 929 977 819
3708 13 989 929 977 905
3709 10 37 929 989 818
3710 11 37 929 989 917
3711 12 977 929 989 818
3712 13 977 929 989 917
3713 10 1061 930 978 820
3714 11 1061 930 978 906
3715 12 985 930 978 820
3716 13 985 930 978 906
3717 10 1061 930 985 821
3718 11 1061 930 985 913
3719 12 978 930 985 821
3720 13 978 930 985 913
3721 10 854 931 979 1025
3722 11 854 931 979 907
3723 12 991 931 979 1025
3724 13 991 931 979 907
3725 10 854 931 991 1225
3726 11 854 931 991 919
3727 12 979 931 991 1225
3728 13 979 931 991 919
3729 10 863 932 980 822
3730 11 863 932 980 908
3731 12 1011 932 980 822
3732 13 1011 932 980 908
3733 10 863 932 1011 11
3734 11 863 932 1011 951
3735 12 980 932 1011 11
3736 13 980 932 1011 951
3737 10 855 933 981 821
3738 11 855 933 981 909
3739 12 1019 933 981 821
3740 13 1019 933 981 909
3741 10 855 933 1019 1232
3742 11 855 933 1019 959
3743 12 981 933 1019 1232
3744 13 981 933 1019 959
3745 10 859 934 986 819
3746 11 859 934 986 914
3747 12 1006 934 986 819
3748 13 1006 934 986 914
3749 10 859 934 1006 1234
3750 11 859 934 1006 946
3751 12 986 934 1006 1234
3752 13 986 934 1006 946
3753 10 856 935 992 817
3754 11 856 935 992 920
3755 12 1007 935 992 817
3756 13 1007 935 992 920
3757 10 856 935 1007 1029
3758 11 856 935 1007 947
3759 12 992 935 1007 1029
3760 13 992 935 1007 947
3761 10 861 936 984 1230
3762 11 861 936 984 912
3763 12 988 936 984 1230
3764 13 988 936 984 912
3765 10 861 936 988 3
3766 11 861 936 988 916
3767 12 984 936 988 3
3768 13 984 936 988 916
3769 3 865 937 954 882
3770 4 865 937 954 1014
3771 4 997 937 954 882
3772 5 997 937 954 1014
3773 6 865 937 997 823
3774 7 865 937 997 961
3775 8 954 937 997 823
3776 9 954 937 997 961
3777 6 866 938 998 1232
3778 7 866 938 998 926
3779 8 922 938 998 1232
3780 9 922 938 998 926
3781 6 867 939 999 7
3782 7 867 939 999 963
3783 8 921 939 999 7
3784 9 921 939 999 963
3785 3 868 940 960 888
3786 4 868 940 960 1020
3787 4 1000 940 960 888
3788 5 1000 940 960 1020
3789 6 868 940 1000 824
3790 7 868 940 1000 964
3791 8 960 940 1000 824
3792 9 960 940 1000 964
3793 3 869 941 953 881
3794 4 869 941 953 1013
3795 4 1001 941 953 881
3796 5 1001 941 953 1013
3797 6 869 941 1001 825
3798 7 869 941 1001 965
3799 8 953 941 1001 825
3800 9 953 941 1001 965
3801 3 870 942 949 877
3802 4 870 942 949 1009
3803 4 1002 942 949 877
3804 5 1002 942 949 1009
3805 6 870 942 1002 826
3806 7 870 942 1002 966
3807 8 949 942 1002 826
3808 9 949 942 1002 966
3809 3 871 943 955 883
3810 4 871 943 955 1015
3811 4 1003 943 955 883
3812 5 1003 943 955 1015
3813 6 871 943 1003 827
3814 7 871 943 1003 967
3815 8 955 943 1003 827
3816 9 955 943 1003 967
3817 6 872 944 1004 1032
3818 7 872 944 1004 968
3819 8 915 944 1004 1032
3820 9 915 944 1004 968
3821 6 873 945 1005 11
3822 7 873 945 1005 969
3823 8 923 945 1005 11
3824 9 923 945 1005 969
3825 6 874 946 1006 1234
3826 7 874 946 1006 934
3827 8 914 946 1006 1234
3828 9 914 946 1006 934
3829 6 875 947 1007 1029
3830 7 875 947 1007 935
3831 8 920 947 1007 1029
3832 9 920 947 1007 935
3833 3 876 948 952 880
3834 4 876 948 952 1012
3835 4 1008 948 952 880
3836 5 1008 948 952 1012
3837 6 876 948 1008 828
3838 7 876 948 1008 972
3839 8 952 948 1008 828
3840 9 952 948 1008 972
3841 6 877 949 1009 827
3842 7 877 949 1009 966
3843 8 942 949 1009 827
3844 9 942 949 1009 966
3845 6 878 950 1010 1029
3846 7 878 950 1010 970
3847 8 910 950 1010 1029
3848 9 910 950 1010 970
3849 6 879 951 1011 11
3850 7 879 951 1011 932
3851 8 908 951 1011 11
3852 9 908 951 1011 932
3853 6 880 952 1012 825
3854 7 880 952 1012 972
3855 8 948 952 1012 825
3856 9 948 952 1012 972
3857 6 881 953 1013 824
3858 7 881 953 1013 965
3859 8 941 953 1013 824
3860 9 941 953 1013 965
3861 6 882 954 1014 828
3862 7 882 954 1014 961
3863 8 937 954 1014 828
3864 9 937 954 1014 961
3865 6 883 955 1015 823
3866 7 883 955 1015 967
3867 8 943 955 1015 823
3868 9 943 955 1015 967
3869 6 884 956 1016 7
3870 7 884 956 1016 971
3871 8 911 956 1016 7
3872 9 911 956 1016 971
3873 6 885 957 1017 1234
3874 7 885 957 1017 927
3875 8 903 957 1017 1234
3876 9 903 957 1017 927
3877 6 886 958 1018 1032
3878 7 886 958 1018 962
3879 8 902 958 1018 1032
3880 9 902 958 1018 962
3881 6 887 959 1019 1232
3882 7 887 959 1019 933
3883 8 909 959 1019 1232
3884 9 909 959 1019 933
3885 6 888 960 1020 826
3886 7 888 960 1020 964
3887 8 940 960 1020 826
3888 9 940 960 1020 964
3889 10 894 961 997 823
3890 11 894 961 997 937
3891 12 1014 961 997 823
3892 13 1014 961 997 937
3893 10 894 961 1014 828
3894 11 894 961 1014 954
3895 12 997 961 1014 828
3896 13 997 961 1014 954
3897 10 898 962 974 818
3898 11 898 962 974 902
3899 12 1018 962 974 818
3900 13 1018 962 974 902
3901 10 898 962 1018 1032
3902 11 898 962 1018 958
3903 12 974 962 1018 1032
3904 13 974 962 1018 958
3905 10 900 963 993 820
3906 11 900 963 993 921
3907 12 999 963 993 820
3908 13 999 963 993 921
3909 10 900 963 999 7
3910 11 900 963 999 939
3911 12 993 963 999 7
3912 13 993 963 999 939
3913 10 1304 964 1000 824
3914 11 1304 964 1000 940
3915 12 1020 964 1000 824
3916 13 1020 964 1000 940
3917 10 1304 964 1020 826
3918 11 1304 964 1020 960
3919 12 1000 964 1020 826
3920 13 1000 964 1020 960
3921 10 889 965 1001 825
3922 11 889 965 1001 941
3923 12 1013 965 1001 825
3924 13 1013 965 1001 941
3925 10 889 965 1013 824
3926 11 889 965 1013 953
3927 12 1001 965 1013 824
3928 13 1001 965 1013 953
3929 10 893 966 1002 826
3930 11 893 966 1002 942
3931 12 1009 966 1002 826
3932 13 1009 966 1002 942
3933 10 893 966 1009 827
3934 11 893 966 1009 949
3935 12 1002 966 1009 827
3936 13 1002 966 1009 949
3937 10 74 967 1003 827
3938 11 74 967 1003 943
3939 12 1015 967 1003 827
3940 13 1015 967 1003 943
3941 10 74 967 1015 823
3942 11 74 967 1015 955
3943 12 1003 967 1015 823
3944 13 1003 967 1015 955
3945 10 1103 968 987 1025
3946 11 1103 968 987 915
3947 12 1004 968 987 1025
3948 13 1004 968 987 915
3949 10 1103 968 1004 1032
3950 11 1103 968 1004 944
3951 12 987 968 1004 1032
3952 13 987 968 1004 944
3953 10 75 969 995 2
3954 11 75 969 995 923
3955 12 1005 969 995 2
3956 13 1005 969 995 923
3957 10 75 969 1005 11
3958 11 75 969 1005 945
3959 12 995 969 1005 11
3960 13 995 969 1005 945
3961 10 1099 970 982 1024
3962 11 1099 970 982 910
3963 12 1010 970 982 1024
3964 13 1010 970 982 910
3965 10 1099 970 1010 1029
3966 11 1099 970 1010 950
3967 12 982 970 1010 1029
3968 13 982 970 1010 950
3969 10 76 971 983 3
3970 11 76 971 983 911
3971 12 1016 971 983 3
3972 13 1016 971 983 911
3973 10 76 971 1016 7
3974 11 76 971 1016 956
3975 12 983 971 1016 7
3976 13 983 971 1016 956
3977 10 1101 972 1008 828
3978 11 1101 972 1008 948
3979 12 1012 972 1008 828
3980 13 1012 972 1008 948
3981 10 1101 972 1012 825
3982 11 1101 972 1012 952
3983 12 1008 972 1012 825
3984 13 1008 972 1012 952
3985 1 903 975 1225 1381
3986 1 903 975 1225 991
3987 1 903 975 1225 1400
3988 2 927 975 1225 1381
3989 2 927 975 1225 991
3990 2 927 975 1225 1400
3991 1 907 979 1025 1185
3992 1 907 979 1025 1189
3993 1 907 979 1025 987
3994 2 931 979 1025 1185
3995 2 931 979 1025 1189
3996 2 931 979 1025 987
3997 1 910 982 1024 1182
3998 1 910 982 1024 1197
3999 1 910 982 1024 996
4000 2 970 982 1024 1182
4001 2 970 982 1024 1197
4002 2 970 982 1024 996
4003 1 912 984 1230 1388
4004 1 912 984 1230 1398
4005 1 912 984 1230 994
4006 2 936 984 1230 1388
4007 2 936 984 1230 1398
4008 2 936 984 1230 994
4009 1 915 987 1025 979
4010 1 915 987 1025 1185
4011 1 915 987 1025 1189
4012 2 968 987 1025 979
4013 2 968 987 1025 1185
4014 2 968 987 1025 1189
4015 1 919 991 1225 1381
4016 1 919 991 1225 975
4017 1 919 991 1225 1400
4018 2 931 991 1225 1381
4019 2 931 991 1225 975
4020 2 931 991 1225 1400
4021 1 922 994 1230 1388
4022 1 922 994 1230 984
4023 1 922 994 1230 1398
4024 2 926 994 1230 1388
4025 2 926 994 1230 984
4026 2 926 994 1230 1398
4027 1 924 996 1024 1182
4028 1 924 996 1024 982
4029 1 924 996 1024 1197
4030 2 928 996 1024 1182
4031 2 928 996 1024 982
4032 2 928 996 1024 1197
4033 2 926 998 1232 1408
4034 2 926 998 1232 1421
4035 2 926 998 1232 1019
4036 1 938 998 1232 1408
4037 1 938 998 1232 1421
4038 1 938 998 1232 1019
4039 1 944 1004 1032 1212
4040 1 944 1004 1032 1218
4041 1 944 1004 1032 1018
4042 2 968 1004 1032 1212
4043 2 968 1004 1032 1218
4044 2 968 1004 1032 1018
4045 2 934 1006 1234 1410
4046 2 934 1006 1234 1017
4047 2 934 1006 1234 1428
4048 1 946 1006 1234 1410
4049 1 946 1006 1234 1017
4050 1 946 1006 1234 1428
4051 2 935 1007 1029 1205
4052 2 935 1007 1029 1010
4053 2 935 1007 1029 1216
4054 1 947 1007 1029 1205
4055 1 947 1007 1029 1010
4056 1 947 1007 1029 1216
4057 1 950 1010 1029 1205
4058 1 950 1010 1029 1007
4059 1 950 1010 1029 1216
4060 2 970 1010 1029 1205
4061 2 970 1010 1029 1007
4062 2 970 1010 1029 1216
4063 2 927 1017 1234 1410
4064 2 927 1017 1234 1006
4065 2 927 1017 1234 1428
4066 1 957 1017 1234 1410
4067 1 957 1017 1234 1006
4068 1 957 1017 1234 1428
4069 1 958 1018 1032 1004
4070 1 958 1018 1032 1212
4071 1 958 1018 1032 1218
4072 2 962 1018 1032 1004
4073 2 962 1018 1032 1212
4074 2 962 1018 1032 1218
4075 2 933 1019 1232 998
4076 2 933 1019 1232 1408
4077 2 933 1019 1232 1421
4078 1 959 1019 1232 998
4079 1 959 1019 1232 1408
4080 1 959 1019 1232 1421
4081 1 1587 1021 1177 1105
4082 2 1587 1021 1177 1129
4083 1 1603 1021 1177 1105
4084 2 1603 1021 1177 1129
4085 1 1196 1021 1177 1105
4086 2 1196 1021 1177 1129
4087 1 1177 1021 1587 1515
4088 2 1177 1021 1587 1539
4089 1 1603 1021 1587 1515
4090 2 1603 1021 1587 1539
4091 1 1196 1021 1587 1515
4092 2 1196 1021 1587 1539
4093 1 1177 1021 1603 1531
4094 2 1177 1021 1603 1543
4095 1 1587 1021 1603 1531
4096 2 1587 1021 1603 1543
4097 1 1196 1021 1603 1531
4098 2 1196 1021 1603 1543
4099 1 1177 1021 1196 1124
4100 2 1177 1021 1196 1139
4101 1 1587 1021 1196 1124
4102 2 1587 1021 1196 1139
4103 1 1603 1021 1196 1124
4104 2 1603 1021 1196 1139
4105 1 364 1022 1178 1106
4106 2 364 1022 1178 1166
4107 1 1193 1022 1178 1106
4108 2 1193 1022 1178 1166
4109 1 383 1022 1178 1106
4110 2 383 1022 1178 1166
4111 1 1178 1022 1193 1121
4112 2 1178 1022 1193 1133
4113 1 364 1022 1193 1121
4114 2 364 1022 1193 1133
4115 1 383 1022 1193 1121
4116 2 383 1022 1193 1133
4117 1 371 1023 1181 1109
4118 2 371 1023 1181 1133
4119 1 1190 1023 1181 1109
4120 2 1190 1023 1181 1133
4121 1 376 1023 1181 1109
4122 2 376 1023 1181 1133
4123 1 1181 1023 1190 1118
4124 2 1181 1023 1190 1138
4125 1 371 1023 1190 1118
4126 2 371 1023 1190 1138
4127 1 376 1023 1190 1118
4128 2 376 1023 1190 1138
4129 1 982 1024 1182 1110
4130 2 982 1024 1182 1134
4131 1 1197 1024 1182 1110
4132 2 1197 1024 1182 1134
4133 1 996 1024 1182 1110
4134 2 996 1024 1182 1134
4135 1 1182 1024 1197 1125
4136 2 1182 1024 1197 1167
4137 1 982 1024 1197 1125
4138 2 982 1024 1197 1167
4139 1 996 1024 1197 1125
4140 2 996 1024 1197 1167
4141 1 979 1025 1185 1113
4142 2 979 1025 1185 1137
4143 1 1189 1025 1185 1113
4144 2 1189 1025 1185 1137
4145 1 987 1025 1185 1113
4146 2 987 1025 1185 1137
4147 1 979 1025 1189 1117
4148 2 979 1025 1189 1134
4149 1 1185 1025 1189 1117
4150 2 1185 1025 1189 1134
4151 1 987 1025 1189 1117
4152 2 987 1025 1189 1134
4153 1 1596 1026 1184 1112
4154 2 1596 1026 1184 1136
4155 1 1194 1026 1184 1112
4156 2 1194 1026 1184 1136
4157 1 1606 1026 1184 1112
4158 2 1606 1026 1184 1136
4159 1 1184 1026 1596 1524
4160 2 1184 1026 1596 1548
4161 1 1194 1026 1596 1524
4162 2 1194 1026 1596 1548
4163 1 1606 1026 1596 1524
4164 2 1606 1026 1596 1548
4165 1 1184 1026 1194 1122
4166 2 1184 1026 1194 1129
4167 1 1596 1026 1194 1122
4168 2 1596 1026 1194 1129
4169 1 1606 1026 1194 1122
4170 2 1606 1026 1194 1129
4171 1 1184 1026 1606 1534
4172 2 1184 1026 1606 1538
4173 1 1596 1026 1606 1534
4174 2 1596 1026 1606 1538
4175 1 1194 1026 1606 1534
4176 2 1194 1026 1606 1538
4177 1 387 1027 1201 1141
4178 2 387 1027 1201 1165
4179 1 1219 1027 1201 1141
4180 2 1219 1027 1201 1165
4181 1 404 1027 1201 1141
4182 2 404 1027 1201 1165
4183 1 1201 1027 1219 1159
4184 2 1201 1027 1219 1171
4185 1 387 1027 1219 1159
4186 2 387 1027 1219 1171
4187 1 404 1027 1219 1159
4188 2 404 1027 1219 1171
4189 2 1204 1028 1610 1538
4190 1 1204 1028 1610 1550
4191 2 1217 1028 1610 1538
4192 1 1217 1028 1610 1550
4193 2 1631 1028 1610 1538
4194 1 1631 1028 1610 1550
4195 1 1610 1028 1204 1144
4196 2 1610 1028 1204 1168
4197 1 1217 1028 1204 1144
4198 2 1217 1028 1204 1168
4199 1 1631 1028 1204 1144
4200 2 1631 1028 1204 1168
4201 1 1610 1028 1217 1157
4202 2 1610 1028 1217 1169
4203 1 1204 1028 1217 1157
4204 2 1204 1028 1217 1169
4205 1 1631 1028 1217 1157
4206 2 1631 1028 1217 1169
4207 2 1610 1028 1631 1545
4208 1 1610 1028 1631 1571
4209 2 1204 1028 1631 1545
4210 1 1204 1028 1631 1571
4211 2 1217 1028 1631 1545
4212 1 1217 1028 1631 1571
4213 1 1007 1029 1205 1145
4214 2 1007 1029 1205 1169
4215 1 1010 1029 1205 1145
4216 2 1010 1029 1205 1169
4217 1 1216 1029 1205 1145
4218 2 1216 1029 1205 1169
4219 1 1205 1029 1216 1156
4220 2 1205 1029 1216 1176
4221 1 1007 1029 1216 1156
4222 2 1007 1029 1216 1176
4223 1 1010 1029 1216 1156
4224 2 1010 1029 1216 1176
4225 1 1618 1030 1206 1146
4226 2 1618 1030 1206 1170
4227 1 1629 1030 1206 1146
4228 2 1629 1030 1206 1170
4229 1 1224 1030 1206 1146
4230 2 1224 1030 1206 1170
4231 2 1206 1030 1618 1546
4232 1 1206 1030 1618 1558
4233 2 1629 1030 1618 1546
4234 1 1629 1030 1618 1558
4235 2 1224 1030 1618 1546
4236 1 1224 1030 1618 1558
4237 2 1206 1030 1629 1539
4238 1 1206 1030 1629 1569
4239 2 1618 1030 1629 1539
4240 1 1618 1030 1629 1569
4241 2 1224 1030 1629 1539
4242 1 1224 1030 1629 1569
4243 1 1206 1030 1224 1164
4244 2 1206 1030 1224 1168
4245 1 1618 1030 1224 1164
4246 2 1618 1030 1224 1168
4247 1 1629 1030 1224 1164
4248 2 1629 1030 1224 1168
4249 1 393 1031 1207 1147
4250 2 393 1031 1207 1171
4251 1 1213 1031 1207 1147
4252 2 1213 1031 1207 1171
4253 1 399 1031 1207 1147
4254 2 399 1031 1207 1171
4255 1 1207 1031 1213 1153
4256 2 1207 1031 1213 1170
4257 1 393 1031 1213 1153
4258 2 393 1031 1213 1170
4259 1 399 1031 1213 1153
4260 2 399 1031 1213 1170
4261 1 1004 1032 1212 1152
4262 2 1004 1032 1212 1176
4263 1 1218 1032 1212 1152
4264 2 1218 1032 1212 1176
4265 1 1018 1032 1212 1152
4266 2 1018 1032 1212 1176
4267 1 1004 1032 1218 1158
4268 2 1004 1032 1218 1165
4269 1 1212 1032 1218 1158
4270 2 1212 1032 1218 1165
4271 1 1018 1032 1218 1158
4272 2 1018 1032 1218 1165
4273 3 1033 1105 1122 1050
4274 4 1033 1105 1122 1194
4275 4 1177 1105 1122 1050
4276 5 1177 1105 1122 1194
4277 6 1033 1105 1177 1021
4278 7 1033 1105 1177 1129
4279 8 1122 1105 1177 1021
4280 9 1122 1105 1177 1129
4281 3 1034 1106 1162 1090
4282 4 1034 1106 1162 1222
4283 4 1178 1106 1162 1090
4284 5 1178 1106 1162 1222
4285 6 1034 1106 1178 1022
4286 7 1034 1106 1178 1166
4287 8 1162 1106 1178 1022
4288 9 1162 1106 1178 1166
4289 3 1035 1107 1161 1089
4290 4 1035 1107 1161 1221
4291 4 1179 1107 1161 1089
4292 5 1179 1107 1161 1221
4293 6 1035 1107 1179 1429
4294 7 1035 1107 1179 1131
4295 8 1161 1107 1179 1429
4296 9 1161 1107 1179 1131
4297 3 1036 1108 1128 1056
4298 4 1036 1108 1128 1200
4299 4 1180 1108 1128 1056
4300 5 1180 1108 1128 1200
4301 6 1036 1108 1180 206
4302 7 1036 1108 1180 1132
4303 8 1128 1108 1180 206
4304 9 1128 1108 1180 1132
4305 3 1037 1109 1121 1049
4306 4 1037 1109 1121 1193
4307 4 1181 1109 1121 1049
4308 5 1181 1109 1121 1193
4309 6 1037 1109 1181 1023
4310 7 1037 1109 1181 1133
4311 8 1121 1109 1181 1023
4312 9 1121 1109 1181 1133
4313 3 1038 1110 1117 1045
4314 4 1038 1110 1117 1189
4315 4 1182 1110 1117 1045
4316 5 1182 1110 1117 1189
4317 6 1038 1110 1182 1024
4318 7 1038 1110 1182 1134
4319 8 1117 1110 1182 1024
4320 9 1117 1110 1182 1134
4321 3 1039 1111 1123 1051
4322 4 1039 1111 1123 1195
4323 4 1183 1111 1123 1051
4324 5 1183 1111 1123 1195
4325 6 1039 1111 1183 821
4326 7 1039 1111 1183 1135
4327 8 1123 1111 1183 821
4328 9 1123 1111 1183 1135
4329 3 1040 1112 1155 1083
4330 4 1040 1112 1155 1215
4331 4 1184 1112 1155 1083
4332 5 1184 1112 1155 1215
4333 6 1040 1112 1184 1026
4334 7 1040 1112 1184 1136
4335 8 1155 1112 1184 1026
4336 9 1155 1112 1184 1136
4337 3 1041 1113 1163 1091
4338 4 1041 1113 1163 1223
4339 4 1185 1113 1163 1091
4340 5 1185 1113 1163 1223
4341 6 1041 1113 1185 1025
4342 7 1041 1113 1185 1137
4343 8 1163 1113 1185 1025
4344 9 1163 1113 1185 1137
4345 3 1042 1114 1154 1082
4346 4 1042 1114 1154 1214
4347 4 1186 1114 1154 1082
4348 5 1186 1114 1154 1214
4349 6 1042 1114 1186 820
4350 7 1042 1114 1186 1174
4351 8 1154 1114 1186 820
4352 9 1154 1114 1186 1174
4353 3 1043 1115 1160 1088
4354 4 1043 1115 1160 1220
4355 4 1187 1115 1160 1088
4356 5 1187 1115 1160 1220
4357 6 1043 1115 1187 207
4358 7 1043 1115 1187 1175
4359 8 1160 1115 1187 207
4360 9 1160 1115 1187 1175
4361 3 1044 1116 1120 1048
4362 4 1044 1116 1120 1192
4363 4 1188 1116 1120 1048
4364 5 1188 1116 1120 1192
4365 6 1044 1116 1188 1434
4366 7 1044 1116 1188 1140
4367 8 1120 1116 1188 1434
4368 9 1120 1116 1188 1140
4369 6 1045 1117 1189 1025
4370 7 1045 1117 1189 1134
4371 8 1110 1117 1189 1025
4372 9 1110 1117 1189 1134
4373 3 1046 1118 1150 1078
4374 4 1046 1118 1150 1210
4375 4 1190 1118 1150 1078
4376 5 1190 1118 1150 1210
4377 6 1046 1118 1190 1023
4378 7 1046 1118 1190 1138
4379 8 1150 1118 1190 1023
4380 9 1150 1118 1190 1138
4381 3 1047 1119 1148 1076
4382 4 1047 1119 1148 1208
4383 4 1191 1119 1148 1076
4384 5 1191 1119 1148 1208
4385 6 1047 1119 1191 821
4386 7 1047 1119 1191 1172
4387 8 1148 1119 1191 821
4388 9 1148 1119 1191 1172
4389 6 1048 1120 1192 207
4390 7 1048 1120 1192 1140
4391 8 1116 1120 1192 207
4392 9 1116 1120 1192 1140
4393 6 1049 1121 1193 1022
4394 7 1049 1121 1193 1133
4395 8 1109 1121 1193 1022
4396 9 1109 1121 1193 1133
4397 6 1050 1122 1194 1026
4398 7 1050 1122 1194 1129
4399 8 1105 1122 1194 1026
4400 9 1105 1122 1194 1129
4401 6 1051 1123 1195 1429
4402 7 1051 1123 1195 1135
4403 8 1111 1123 1195 1429
4404 9 1111 1123 1195 1135
4405 3 1052 1124 1151 1079
4406 4 1052 1124 1151 1211
4407 4 1196 1124 1151 1079
4408 5 1196 1124 1151 1211
4409 6 1052 1124 1196 1021
4410 7 1052 1124 1196 1139
4411 8 1151 1124 1196 1021
4412 9 1151 1124 1196 1139
4413 3 1053 1125 1143 1071
4414 4 1053 1125 1143 1203
4415 4 1197 1125 1143 1071
4416 5 1197 1125 1143 1203
4417 6 1053 1125 1197 1024
4418 7 1053 1125 1197 1167
4419 8 1143 1125 1197 1024
4420 9 1143 1125 1197 1167
4421 3 1054 1126 1142 1070
4422 4 1054 1126 1142 1202
4423 4 1198 1126 1142 1070
4424 5 1198 1126 1142 1202
4425 6 1054 1126 1198 1434
4426 7 1054 1126 1198 1130
4427 8 1142 1126 1198 1434
4428 9 1142 1126 1198 1130
4429 3 1055 1127 1149 1077
4430 4 1055 1127 1149 1209
4431 4 1199 1127 1149 1077
4432 5 1199 1127 1149 1209
4433 6 1055 1127 1199 206
4434 7 1055 1127 1199 1173
4435 8 1149 1127 1199 206
4436 9 1149 1127 1199 1173
4437 6 1056 1128 1200 820
4438 7 1056 1128 1200 1132
4439 8 1108 1128 1200 820
4440 9 1108 1128 1200 1132
4441 10 1470 1129 1177 1021
4442 11 1470 1129 1177 1105
4443 12 1194 1129 1177 1021
4444 13 1194 1129 1177 1105
4445 10 1470 1129 1194 1026
4446 11 1470 1129 1194 1122
4447 12 1177 1129 1194 1026
4448 13 1177 1129 1194 1122
4449 10 1474 1130 1198 1434
4450 11 1474 1130 1198 1126
4451 12 1202 1130 1198 1434
4452 13 1202 1130 1198 1126
4453 10 1474 1130 1202 1436
4454 11 1474 1130 1202 1142
4455 12 1198 1130 1202 1436
4456 13 1198 1130 1202 1142
4457 10 1476 1131 1179 1429
4458 11 1476 1131 1179 1107
4459 12 1221 1131 1179 1429
4460 13 1221 1131 1179 1107
4461 10 1476 1131 1221 1438
4462 11 1476 1131 1221 1161
4463 12 1179 1131 1221 1438
4464 13 1179 1131 1221 1161
4465 10 1064 1132 1180 206
4466 11 1064 1132 1180 1108
4467 12 1200 1132 1180 206
4468 13 1200 1132 1180 1108
4469 10 1064 1132 1200 820
4470 11 1064 1132 1200 1128
4471 12 1180 1132 1200 820
4472 13 1180 1132 1200 1128
4473 10 241 1133 1181 1023
4474 11 241 1133 1181 1109
4475 12 1193 1133 1181 1023
4476 13 1193 1133 1181 1109
4477 10 241 1133 1193 1022
4478 11 241 1133 1193 1121
4479 12 1181 1133 1193 1022
4480 13 1181 1133 1193 1121
4481 10 857 1134 1182 1024
4482 11 857 1134 1182 1110
4483 12 1189 1134 1182 1024
4484 13 1189 1134 1182 1110
4485 10 857 1134 1189 1025
4486 11 857 1134 1189 1117
4487 12 1182 1134 1189 1025
4488 13 1182 1134 1189 1117
4489 10 1058 1135 1183 821
4490 11 1058 1135 1183 1111
4491 12 1195 1135 1183 821
4492 13 1195 1135 1183 1111
4493 10 1058 1135 1195 1429
4494 11 1058 1135 1195 1123
4495 12 1183 1135 1195 1429
4496 13 1183 1135 1195 1123
4497 10 1067 1136 1184 1026
4498 11 1067 1136 1184 1112
4499 12 1215 1136 1184 1026
4500 13 1215 1136 1184 1112
4501 10 1067 1136 1215 215
4502 11 1067 1136 1215 1155
4503 12 1184 1136 1215 215
4504 13 1184 1136 1215 1155
4505 10 1059 1137 1185 1025
4506 11 1059 1137 1185 1113
4507 12 1223 1137 1185 1025
4508 13 1223 1137 1185 1113
4509 10 1059 1137 1223 1436
4510 11 1059 1137 1223 1163
4511 12 1185 1137 1223 1436
4512 13 1185 1137 1223 1163
4513 10 1063 1138 1190 1023
4514 11 1063 1138 1190 1118
4515 12 1210 1138 1190 1023
4516 13 1210 1138 1190 1118
4517 10 1063 1138 1210 1438
4518 11 1063 1138 1210 1150
4519 12 1190 1138 1210 1438
4520 13 1190 1138 1210 1150
4521 10 1060 1139 1196 1021
4522 11 1060 1139 1196 1124
4523 12 1211 1139 1196 1021
4524 13 1211 1139 1196 1124
4525 10 1060 1139 1211 825
4526 11 1060 1139 1211 1151
4527 12 1196 1139 1211 825
4528 13 1196 1139 1211 1151
4529 10 1065 1140 1188 1434
4530 11 1065 1140 1188 1116
4531 12 1192 1140 1188 1434
4532 13 1192 1140 1188 1116
4533 10 1065 1140 1192 207
4534 11 1065 1140 1192 1120
4535 12 1188 1140 1192 207
4536 13 1188 1140 1192 1120
4537 3 1069 1141 1158 1086
4538 4 1069 1141 1158 1218
4539 4 1201 1141 1158 1086
4540 5 1201 1141 1158 1218
4541 6 1069 1141 1201 1027
4542 7 1069 1141 1201 1165
4543 8 1158 1141 1201 1027
4544 9 1158 1141 1201 1165
4545 6 1070 1142 1202 1436
4546 7 1070 1142 1202 1130
4547 8 1126 1142 1202 1436
4548 9 1126 1142 1202 1130
4549 6 1071 1143 1203 211
4550 7 1071 1143 1203 1167
4551 8 1125 1143 1203 211
4552 9 1125 1143 1203 1167
4553 3 1072 1144 1164 1092
4554 4 1072 1144 1164 1224
4555 4 1204 1144 1164 1092
4556 5 1204 1144 1164 1224
4557 6 1072 1144 1204 1028
4558 7 1072 1144 1204 1168
4559 8 1164 1144 1204 1028
4560 9 1164 1144 1204 1168
4561 3 1073 1145 1157 1085
4562 4 1073 1145 1157 1217
4563 4 1205 1145 1157 1085
4564 5 1205 1145 1157 1217
4565 6 1073 1145 1205 1029
4566 7 1073 1145 1205 1169
4567 8 1157 1145 1205 1029
4568 9 1157 1145 1205 1169
4569 3 1074 1146 1153 1081
4570 4 1074 1146 1153 1213
4571 4 1206 1146 1153 1081
4572 5 1206 1146 1153 1213
4573 6 1074 1146 1206 1030
4574 7 1074 1146 1206 1170
4575 8 1153 1146 1206 1030
4576 9 1153 1146 1206 1170
4577 3 1075 1147 1159 1087
4578 4 1075 1147 1159 1219
4579 4 1207 1147 1159 1087
4580 5 1207 1147 1159 1219
4581 6 1075 1147 1207 1031
4582 7 1075 1147 1207 1171
4583 8 1159 1147 1207 1031
4584 9 1159 1147 1207 1171
4585 6 1076 1148 1208 828
4586 7 1076 1148 1208 1172
4587 8 1119 1148 1208 828
4588 9 1119 1148 1208 1172
4589 6 1077 1149 1209 215
4590 7 1077 1149 1209 1173
4591 8 1127 1149 1209 215
4592 9 1127 1149 1209 1173
4593 6 1078 1150 1210 1438
4594 7 1078 1150 1210 1138
4595 8 1118 1150 1210 1438
4596 9 1118 1150 1210 1138
4597 6 1079 1151 1211 825
4598 7 1079 1151 1211 1139
4599 8 1124 1151 1211 825
4600 9 1124 1151 1211 1139
4601 3 1080 1152 1156 1084
4602 4 1080 1152 1156 1216
4603 4 1212 1152 1156 1084
4604 5 1212 1152 1156 1216
4605 6 1080 1152 1212 1032
4606 7 1080 1152 1212 1176
4607 8 1156 1152 1212 1032
4608 9 1156 1152 1212 1176
4609 6 1081 1153 1213 1031
4610 7 1081 1153 1213 1170
4611 8 1146 1153 1213 1031
4612 9 1146 1153 1213 1170
4613 6 1082 1154 1214 825
4614 7 1082 1154 1214 1174
4615 8 1114 1154 1214 825
4616 9 1114 1154 1214 1174
4617 6 1083 1155 1215 215
4618 7 1083 1155 1215 1136
4619 8 1112 1155 1215 215
4620 9 1112 1155 1215 1136
4621 6 1084 1156 1216 1029
4622 7 1084 1156 1216 1176
4623 8 1152 1156 1216 1029
4624 9 1152 1156 1216 1176
4625 6 1085 1157 1217 1028
4626 7 1085 1157 1217 1169
4627 8 1145 1157 1217 1028
4628 9 1145 1157 1217 1169
4629 6 1086 1158 1218 1032
4630 7 1086 1158 1218 1165
4631 8 1141 1158 1218 1032
4632 9 1141 1158 1218 1165
4633 6 1087 1159 1219 1027
4634 7 1087 1159 1219 1171
4635 8 1147 1159 1219 1027
4636 9 1147 1159 1219 1171
4637 6 1088 1160 1220 211
4638 7 1088 1160 1220 1175
4639 8 1115 1160 1220 211
4640 9 1115 1160 1220 1175
4641 6 1089 1161 1221 1438
4642 7 1089 1161 1221 1131
4643 8 1107 1161 1221 1438
4644 9 1107 1161 1221 1131
4645 6 1090 1162 1222 828
4646 7 1090 1162 1222 1166
4647 8 1106 1162 1222 828
4648 9 1106 1162 1222 1166
4649 6 1091 1163 1223 1436
4650 7 1091 1163 1223 1137
4651 8 1113 1163 1223 1436
4652 9 1113 1163 1223 1137
4653 6 1092 1164 1224 1030
4654 7 1092 1164 1224 1168
4655 8 1144 1164 1224 1030
4656 9 1144 1164 1224 1168
4657 10 1098 1165 1201 1027
4658 11 1098 1165 1201 1141
4659 12 1218 1165 1201 1027
4660 13 1218 1165 1201 1141
4661 10 1098 1165 1218 1032
4662 11 1098 1165 1218 1158
4663 12 1201 1165 1218 1032
4664 13 1201 1165 1218 1158
4665 10 1102 1166 1178 1022
4666 11 1102 1166 1178 1106
4667 12 1222 1166 1178 1022
4668 13 1222 1166 1178 1106
4669 10 1102 1166 1222 828
4670 11 1102 1166 1222 1162
4671 12 1178 1166 1222 828
4672 13 1178 1166 1222 1162
4673 10 1104 1167 1197 1024
4674 11 1104 1167 1197 1125
4675 12 1203 1167 1197 1024
4676 13 1203 1167 1197 1125
4677 10 1104 1167 1203 211
4678 11 1104 1167 1203 1143
4679 12 1197 1167 1203 211
4680 13 1197 1167 1203 1143
4681 10 1508 1168 1204 1028
4682 11 1508 1168 1204 1144
4683 12 1224 1168 1204 1028
4684 13 1224 1168 1204 1144
4685 10 1508 1168 1224 1030
4686 11 1508 1168 1224 1164
4687 12 1204 1168 1224 1030
4688 13 1204 1168 1224 1164
4689 10 1093 1169 1205 1029
4690 11 1093 1169 1205 1145
4691 12 1217 1169 1205 1029
4692 13 1217 1169 1205 1145
4693 10 1093 1169 1217 1028
4694 11 1093 1169 1217 1157
4695 12 1205 1169 1217 1028
4696 13 1205 1169 1217 1157
4697 10 1097 1170 1206 1030
4698 11 1097 1170 1206 1146
4699 12 1213 1170 1206 1030
4700 13 1213 1170 1206 1146
4701 10 1097 1170 1213 1031
4702 11 1097 1170 1213 1153
4703 12 1206 1170 1213 1031
4704 13 1206 1170 1213 1153
4705 10 278 1171 1207 1031
4706 11 278 1171 1207 1147
4707 12 1219 1171 1207 1031
4708 13 1219 1171 1207 1147
4709 10 278 1171 1219 1027
4710 11 278 1171 1219 1159
4711 12 1207 1171 1219 1027
4712 13 1207 1171 1219 1159
4713 10 899 1172 1191 821
4714 11 899 1172 1191 1119
4715 12 1208 1172 1191 821
4716 13 1208 1172 1191 1119
4717 10 899 1172 1208 828
4718 11 899 1172 1208 1148
4719 12 1191 1172 1208 828
4720 13 1191 1172 1208 1148
4721 10 279 1173 1199 206
4722 11 279 1173 1199 1127
4723 12 1209 1173 1199 206
4724 13 1209 1173 1199 1127
4725 10 279 1173 1209 215
4726 11 279 1173 1209 1149
4727 12 1199 1173 1209 215
4728 13 1199 1173 1209 1149
4729 10 895 1174 1186 820
4730 11 895 1174 1186 1114
4731 12 1214 1174 1186 820
4732 13 1214 1174 1186 1114
4733 10 895 1174 1214 825
4734 11 895 1174 1214 1154
4735 12 1186 1174 1214 825
4736 13 1186 1174 1214 1154
4737 10 280 1175 1187 207
4738 11 280 1175 1187 1115
4739 12 1220 1175 1187 207
4740 13 1220 1175 1187 1115
4741 10 280 1175 1220 211
4742 11 280 1175 1220 1160
4743 12 1187 1175 1220 211
4744 13 1187 1175 1220 1160
4745 10 897 1176 1212 1032
4746 11 897 1176 1212 1152
4747 12 1216 1176 1212 1032
4748 13 1216 1176 1212 1152
4749 10 897 1176 1216 1029
4750 11 897 1176 1216 1156
4751 12 1212 1176 1216 1029
4752 13 1212 1176 1216 1156
4753 1 1107 1179 1429 1585
4754 1 1107 1179 1429 1195
4755 1 1107 1179 1429 1604
4756 2 1131 1179 1429 1585
4757 2 1131 1179 1429 1195
4758 2 1131 1179 1429 1604
4759 1 1116 1188 1434 1592
4760 1 1116 1188 1434 1602
4761 1 1116 1188 1434 1198
4762 2 1140 1188 1434 1592
4763 2 1140 1188 1434 1602
4764 2 1140 1188 1434 1198
4765 1 1123 1195 1429 1585
4766 1 1123 1195 1429 1179
4767 1 1123 1195 1429 1604
4768 2 1135 1195 1429 1585
4769 2 1135 1195 1429 1179
4770 2 1135 1195 1429 1604
4771 1 1126 1198 1434 1592
4772 1 1126 1198 1434 1188
4773 1 1126 1198 1434 1602
4774 2 1130 1198 1434 1592
4775 2 1130 1198 1434 1188
4776 2 1130 1198 1434 1602
4777 2 1130 1202 1436 1612
4778 2 1130 1202 1436 1625
4779 2 1130 1202 1436 1223
4780 1 1142 1202 1436 1612
4781 1 1142 1202 1436 1625
4782 1 1142 1202 1436 1223
4783 2 1138 1210 1438 1614
4784 2 1138 1210 1438 1221
4785 2 1138 1210 1438 1632
4786 1 1150 1210 1438 1614
4787 1 1150 1210 1438 1221
4788 1 1150 1210 1438 1632
4789 2 1131 1221 1438 1614
4790 2 1131 1221 1438 1210
4791 2 1131 1221 1438 1632
4792 1 1161 1221 1438 1614
4793 1 1161 1221 1438 1210
4794 1 1161 1221 1438 1632
4795 2 1137 1223 1436 1202
4796 2 1137 1223 1436 1612
4797 2 1137 1223 1436 1625
4798 1 1163 1223 1436 1202
4799 1 1163 1223 1436 1612
4800 1 1163 1223 1436 1625
4801 1 975 1225 1381 1309
4802 2 975 1225 1381 1333
4803 1 991 1225 1381 1309
4804 2 991 1225 1381 1333
4805 1 1400 1225 1381 1309
4806 2 1400 1225 1381 1333
4807 1 1381 1225 1400 1328
4808 2 1381 1225 1400 1343
4809 1 975 1225 1400 1328
4810 2 975 1225 1400 1343
4811 1 991 1225 1400 1328
4812 2 991 1225 1400 1343
4813 1 568 1226 1382 1310
4814 2 568 1226 1382 1370
4815 1 1397 1226 1382 1310
4816 2 1397 1226 1382 1370
4817 1 587 1226 1382 1310
4818 2 587 1226 1382 1370
4819 1 1382 1226 1397 1325
4820 2 1382 1226 1397 1337
4821 1 568 1226 1397 1325
4822 2 568 1226 1397 1337
4823 1 587 1226 1397 1325
4824 2 587 1226 1397 1337
4825 1 575 1227 1385 1313
4826 2 575 1227 1385 1337
4827 1 1394 1227 1385 1313
4828 2 1394 1227 1385 1337
4829 1 580 1227 1385 1313
4830 2 580 1227 1385 1337
4831 1 1385 1227 1394 1322
4832 2 1385 1227 1394 1342
4833 1 575 1227 1394 1322
4834 2 575 1227 1394 1342
4835 1 580 1227 1394 1322
4836 2 580 1227 1394 1342
4837 1 1594 1228 1386 1314
4838 2 1594 1228 1386 1338
4839 1 1401 1228 1386 1314
4840 2 1401 1228 1386 1338
4841 1 1608 1228 1386 1314
4842 2 1608 1228 1386 1338
4843 1 1386 1228 1594 1522
4844 2 1386 1228 1594 1582
4845 1 1401 1228 1594 1522
4846 2 1401 1228 1594 1582
4847 1 1608 1228 1594 1522
4848 2 1608 1228 1594 1582
4849 1 1386 1228 1401 1329
4850 2 1386 1228 1401 1371
4851 1 1594 1228 1401 1329
4852 2 1594 1228 1401 1371
4853 1 1608 1228 1401 1329
4854 2 1608 1228 1401 1371
4855 1 1386 1228 1608 1536
4856 2 1386 1228 1608 1540
4857 1 1594 1228 1608 1536
4858 2 1594 1228 1608 1540
4859 1 1401 1228 1608 1536
4860 2 1401 1228 1608 1540
4861 1 1389 1229 1591 1519
4862 2 1389 1229 1591 1543
4863 1 1393 1229 1591 1519
4864 2 1393 1229 1591 1543
4865 1 1599 1229 1591 1519
4866 2 1599 1229 1591 1543
4867 1 1591 1229 1389 1317
4868 2 1591 1229 1389 1341
4869 1 1393 1229 1389 1317
4870 2 1393 1229 1389 1341
4871 1 1599 1229 1389 1317
4872 2 1599 1229 1389 1341
4873 1 1591 1229 1393 1321
4874 2 1591 1229 1393 1338
4875 1 1389 1229 1393 1321
4876 2 1389 1229 1393 1338
4877 1 1599 1229 1393 1321
4878 2 1599 1229 1393 1338
4879 1 1591 1229 1599 1527
4880 2 1591 1229 1599 1580
4881 1 1389 1229 1599 1527
4882 2 1389 1229 1599 1580
4883 1 1393 1229 1599 1527
4884 2 1393 1229 1599 1580
4885 1 984 1230 1388 1316
4886 2 984 1230 1388 1340
4887 1 1398 1230 1388 1316
4888 2 1398 1230 1388 1340
4889 1 994 1230 1388 1316
4890 2 994 1230 1388 1340
4891 1 1388 1230 1398 1326
4892 2 1388 1230 1398 1333
4893 1 984 1230 1398 1326
4894 2 984 1230 1398 1333
4895 1 994 1230 1398 1326
4896 2 994 1230 1398 1333
4897 1 591 1231 1405 1345
4898 2 591 1231 1405 1369
4899 1 1423 1231 1405 1345
4900 2 1423 1231 1405 1369
4901 1 608 1231 1405 1345
4902 2 608 1231 1405 1369
4903 1 1405 1231 1423 1363
4904 2 1405 1231 1423 1375
4905 1 591 1231 1423 1363
4906 2 591 1231 1423 1375
4907 1 608 1231 1423 1363
4908 2 608 1231 1423 1375
4909 1 998 1232 1408 1348
4910 2 998 1232 1408 1372
4911 1 1421 1232 1408 1348
4912 2 1421 1232 1408 1372
4913 1 1019 1232 1408 1348
4914 2 1019 1232 1408 1372
4915 1 998 1232 1421 1361
4916 2 998 1232 1421 1373
4917 1 1408 1232 1421 1361
4918 2 1408 1232 1421 1373
4919 1 1019 1232 1421 1361
4920 2 1019 1232 1421 1373
4921 1 1619 1233 1409 1349
4922 2 1619 1233 1409 1373
4923 1 1622 1233 1409 1349
4924 2 1622 1233 1409 1373
4925 1 1420 1233 1409 1349
4926 2 1420 1233 1409 1373
4927 2 1409 1233 1619 1547
4928 1 1409 1233 1619 1559
4929 2 1622 1233 1619 1547
4930 1 1622 1233 1619 1559
4931 2 1420 1233 1619 1547
4932 1 1420 1233 1619 1559
4933 1 1409 1233 1622 1562
4934 2 1409 1233 1622 1582
4935 1 1619 1233 1622 1562
4936 2 1619 1233 1622 1582
4937 1 1420 1233 1622 1562
4938 2 1420 1233 1622 1582
4939 1 1409 1233 1420 1360
4940 2 1409 1233 1420 1380
4941 1 1619 1233 1420 1360
4942 2 1619 1233 1420 1380
4943 1 1622 1233 1420 1360
4944 2 1622 1233 1420 1380
4945 1 1006 1234 1410 1350
4946 2 1006 1234 1410 1374
4947 1 1017 1234 1410 1350
4948 2 1017 1234 1410 1374
4949 1 1428 1234 1410 1350
4950 2 1428 1234 1410 1374
4951 1 1410 1234 1428 1368
4952 2 1410 1234 1428 1372
4953 1 1006 1234 1428 1368
4954 2 1006 1234 1428 1372
4955 1 1017 1234 1428 1368
4956 2 1017 1234 1428 1372
4957 1 597 1235 1411 1351
4958 2 597 1235 1411 1375
4959 1 1417 1235 1411 1351
4960 2 1417 1235 1411 1375
4961 1 603 1235 1411 1351
4962 2 603 1235 1411 1375
4963 1 1411 1235 1417 1357
4964 2 1411 1235 1417 1374
4965 1 597 1235 1417 1357
4966 2 597 1235 1417 1374
4967 1 603 1235 1417 1357
4968 2 603 1235 1417 1374
4969 1 1416 1236 1616 1556
4970 2 1416 1236 1616 1580
4971 1 1422 1236 1616 1556
4972 2 1422 1236 1616 1580
4973 1 1630 1236 1616 1556
4974 2 1630 1236 1616 1580
4975 1 1616 1236 1416 1356
4976 2 1616 1236 1416 1380
4977 1 1422 1236 1416 1356
4978 2 1422 1236 1416 1380
4979 1 1630 1236 1416 1356
4980 2 1630 1236 1416 1380
4981 1 1616 1236 1422 1362
4982 2 1616 1236 1422 1369
4983 1 1416 1236 1422 1362
4984 2 1416 1236 1422 1369
4985 1 1630 1236 1422 1362
4986 2 1630 1236 1422 1369
4987 1 1616 1236 1630 1570
4988 2 1616 1236 1630 1574
4989 1 1416 1236 1630 1570
4990 2 1416 1236 1630 1574
4991 1 1422 1236 1630 1570
4992 2 1422 1236 1630 1574
4993 3 1237 1309 1326 1254
4994 4 1237 1309 1326 1398
4995 4 1381 1309 1326 1254
4996 5 1381 1309 1326 1398
4997 6 1237 1309 1381 1225
4998 7 1237 1309 1381 1333
4999 8 1326 1309 1381 1225
5000 9 1326 1309 1381 1333
5001 3 1238 1310 1366 1294
5002 4 1238 1310 1366 1426
5003 4 1382 1310 1366 1294
5004 5 1382 1310 1366 1426
5005 6 1238 1310 1382 1226
5006 7 1238 1310 1382 1370
5007 8 1366 1310 1382 1226
5008 9 1366 1310 1382 1370
5009 3 1239 1311 1365 1293
5010 4 1239 1311 1365 1425
5011 4 1383 1311 1365 1293
5012 5 1383 1311 1365 1425
5013 6 1239 1311 1383 817
5014 7 1239 1311 1383 1335
5015 8 1365 1311 1383 817
5016 9 1365 1311 1383 1335
5017 3 1240 1312 1332 1260
5018 4 1240 1312 1332 1404
5019 4 1384 1312 1332 1260
5020 5 1384 1312 1332 1404
5021 6 1240 1312 1384 410
5022 7 1240 1312 1384 1336
5023 8 1332 1312 1384 410
5024 9 1332 1312 1384 1336
5025 3 1241 1313 1325 1253
5026 4 1241 1313 1325 1397
5027 4 1385 1313 1325 1253
5028 5 1385 1313 1325 1397
5029 6 1241 1313 1385 1227
5030 7 1241 1313 1385 1337
5031 8 1325 1313 1385 1227
5032 9 1325 1313 1385 1337
5033 3 1242 1314 1321 1249
5034 4 1242 1314 1321 1393
5035 4 1386 1314 1321 1249
5036 5 1386 1314 1321 1393
5037 6 1242 1314 1386 1228
5038 7 1242 1314 1386 1338
5039 8 1321 1314 1386 1228
5040 9 1321 1314 1386 1338
5041 3 1243 1315 1327 1255
5042 4 1243 1315 1327 1399
5043 4 1387 1315 1327 1255
5044 5 1387 1315 1327 1399
5045 6 1243 1315 1387 1433
5046 7 1243 1315 1387 1339
5047 8 1327 1315 1387 1433
5048 9 1327 1315 1387 1339
5049 3 1244 1316 1359 1287
5050 4 1244 1316 1359 1419
5051 4 1388 1316 1359 1287
5052 5 1388 1316 1359 1419
5053 6 1244 1316 1388 1230
5054 7 1244 1316 1388 1340
5055 8 1359 1316 1388 1230
5056 9 1359 1316 1388 1340
5057 3 1245 1317 1367 1295
5058 4 1245 1317 1367 1427
5059 4 1389 1317 1367 1295
5060 5 1389 1317 1367 1427
5061 6 1245 1317 1389 1229
5062 7 1245 1317 1389 1341
5063 8 1367 1317 1389 1229
5064 9 1367 1317 1389 1341
5065 3 1246 1318 1358 1286
5066 4 1246 1318 1358 1418
5067 4 1390 1318 1358 1286
5068 5 1390 1318 1358 1418
5069 6 1246 1318 1390 1432
5070 7 1246 1318 1390 1378
5071 8 1358 1318 1390 1432
5072 9 1358 1318 1390 1378
5073 3 1247 1319 1364 1292
5074 4 1247 1319 1364 1424
5075 4 1391 1319 1364 1292
5076 5 1391 1319 1364 1424
5077 6 1247 1319 1391 411
5078 7 1247 1319 1391 1379
5079 8 1364 1319 1391 411
5080 9 1364 1319 1391 1379
5081 3 1248 1320 1324 1252
5082 4 1248 1320 1324 1396
5083 4 1392 1320 1324 1252
5084 5 1392 1320 1324 1396
5085 6 1248 1320 1392 822
5086 7 1248 1320 1392 1344
5087 8 1324 1320 1392 822
5088 9 1324 1320 1392 1344
5089 6 1249 1321 1393 1229
5090 7 1249 1321 1393 1338
5091 8 1314 1321 1393 1229
5092 9 1314 1321 1393 1338
5093 3 1250 1322 1354 1282
5094 4 1250 1322 1354 1414
5095 4 1394 1322 1354 1282
5096 5 1394 1322 1354 1414
5097 6 1250 1322 1394 1227
5098 7 1250 1322 1394 1342
5099 8 1354 1322 1394 1227
5100 9 1354 1322 1394 1342
5101 3 1251 1323 1352 1280
5102 4 1251 1323 1352 1412
5103 4 1395 1323 1352 1280
5104 5 1395 1323 1352 1412
5105 6 1251 1323 1395 1433
5106 7 1251 1323 1395 1376
5107 8 1352 1323 1395 1433
5108 9 1352 1323 1395 1376
5109 6 1252 1324 1396 411
5110 7 1252 1324 1396 1344
5111 8 1320 1324 1396 411
5112 9 1320 1324 1396 1344
5113 6 1253 1325 1397 1226
5114 7 1253 1325 1397 1337
5115 8 1313 1325 1397 1226
5116 9 1313 1325 1397 1337
5117 6 1254 1326 1398 1230
5118 7 1254 1326 1398 1333
5119 8 1309 1326 1398 1230
5120 9 1309 1326 1398 1333
5121 6 1255 1327 1399 817
5122 7 1255 1327 1399 1339
5123 8 1315 1327 1399 817
5124 9 1315 1327 1399 1339
5125 3 1256 1328 1355 1283
5126 4 1256 1328 1355 1415
5127 4 1400 1328 1355 1283
5128 5 1400 1328 1355 1415
5129 6 1256 1328 1400 1225
5130 7 1256 1328 1400 1343
5131 8 1355 1328 1400 1225
5132 9 1355 1328 1400 1343
5133 3 1257 1329 1347 1275
5134 4 1257 1329 1347 1407
5135 4 1401 1329 1347 1275
5136 5 1401 1329 1347 1407
5137 6 1257 1329 1401 1228
5138 7 1257 1329 1401 1371
5139 8 1347 1329 1401 1228
5140 9 1347 1329 1401 1371
5141 3 1258 1330 1346 1274
5142 4 1258 1330 1346 1406
5143 4 1402 1330 1346 1274
5144 5 1402 1330 1346 1406
5145 6 1258 1330 1402 822
5146 7 1258 1330 1402 1334
5147 8 1346 1330 1402 822
5148 9 1346 1330 1402 1334
5149 3 1259 1331 1353 1281
5150 4 1259 1331 1353 1413
5151 4 1403 1331 1353 1281
5152 5 1403 1331 1353 1413
5153 6 1259 1331 1403 410
5154 7 1259 1331 1403 1377
5155 8 1353 1331 1403 410
5156 9 1353 1331 1403 1377
5157 6 1260 1332 1404 1432
5158 7 1260 1332 1404 1336
5159 8 1312 1332 1404 1432
5160 9 1312 1332 1404 1336
5161 10 858 1333 1381 1225
5162 11 858 1333 1381 1309
5163 12 1398 1333 1381 1225
5164 13 1398 1333 1381 1309
5165 10 858 1333 1398 1230
5166 11 858 1333 1398 1326
5167 12 1381 1333 1398 1230
5168 13 1381 1333 1398 1326
5169 10 862 1334 1402 822
5170 11 862 1334 1402 1330
5171 12 1406 1334 1402 822
5172 13 1406 1334 1402 1330
5173 10 862 1334 1406 824
5174 11 862 1334 1406 1346
5175 12 1402 1334 1406 824
5176 13 1402 1334 1406 1346
5177 10 864 1335 1383 817
5178 11 864 1335 1383 1311
5179 12 1425 1335 1383 817
5180 13 1425 1335 1383 1311
5181 10 864 1335 1425 826
5182 11 864 1335 1425 1365
5183 12 1383 1335 1425 826
5184 13 1383 1335 1425 1365
5185 10 1268 1336 1384 410
5186 11 1268 1336 1384 1312
5187 12 1404 1336 1384 410
5188 13 1404 1336 1384 1312
5189 10 1268 1336 1404 1432
5190 11 1268 1336 1404 1332
5191 12 1384 1336 1404 1432
5192 13 1384 1336 1404 1332
5193 10 445 1337 1385 1227
5194 11 445 1337 1385 1313
5195 12 1397 1337 1385 1227
5196 13 1397 1337 1385 1313
5197 10 445 1337 1397 1226
5198 11 445 1337 1397 1325
5199 12 1385 1337 1397 1226
5200 13 1385 1337 1397 1325
5201 10 1469 1338 1386 1228
5202 11 1469 1338 1386 1314
5203 12 1393 1338 1386 1228
5204 13 1393 1338 1386 1314
5205 10 1469 1338 1393 1229
5206 11 1469 1338 1393 1321
5207 12 1386 1338 1393 1229
5208 13 1386 1338 1393 1321
5209 10 1262 1339 1387 1433
5210 11 1262 1339 1387 1315
5211 12 1399 1339 1387 1433
5212 13 1399 1339 1387 1315
5213 10 1262 1339 1399 817
5214 11 1262 1339 1399 1327
5215 12 1387 1339 1399 817
5216 13 1387 1339 1399 1327
5217 10 1271 1340 1388 1230
5218 11 1271 1340 1388 1316
5219 12 1419 1340 1388 1230
5220 13 1419 1340 1388 1316
5221 10 1271 1340 1419 419
5222 11 1271 1340 1419 1359
5223 12 1388 1340 1419 419
5224 13 1388 1340 1419 1359
5225 10 1263 1341 1389 1229
5226 11 1263 1341 1389 1317
5227 12 1427 1341 1389 1229
5228 13 1427 1341 1389 1317
5229 10 1263 1341 1427 824
5230 11 1263 1341 1427 1367
5231 12 1389 1341 1427 824
5232 13 1389 1341 1427 1367
5233 10 1267 1342 1394 1227
5234 11 1267 1342 1394 1322
5235 12 1414 1342 1394 1227
5236 13 1414 1342 1394 1322
5237 10 1267 1342 1414 826
5238 11 1267 1342 1414 1354
5239 12 1394 1342 1414 826
5240 13 1394 1342 1414 1354
5241 10 1264 1343 1400 1225
5242 11 1264 1343 1400 1328
5243 12 1415 1343 1400 1225
5244 13 1415 1343 1400 1328
5245 10 1264 1343 1415 1437
5246 11 1264 1343 1415 1355
5247 12 1400 1343 1415 1437
5248 13 1400 1343 1415 1355
5249 10 1269 1344 1392 822
5250 11 1269 1344 1392 1320
5251 12 1396 1344 1392 822
5252 13 1396 1344 1392 1320
5253 10 1269 1344 1396 411
5254 11 1269 1344 1396 1324
5255 12 1392 1344 1396 411
5256 13 1392 1344 1396 1324
5257 3 1273 1345 1362 1290
5258 4 1273 1345 1362 1422
5259 4 1405 1345 1362 1290
5260 5 1405 1345 1362 1422
5261 6 1273 1345 1405 1231
5262 7 1273 1345 1405 1369
5263 8 1362 1345 1405 1231
5264 9 1362 1345 1405 1369
5265 6 1274 1346 1406 824
5266 7 1274 1346 1406 1334
5267 8 1330 1346 1406 824
5268 9 1330 1346 1406 1334
5269 6 1275 1347 1407 415
5270 7 1275 1347 1407 1371
5271 8 1329 1347 1407 415
5272 9 1329 1347 1407 1371
5273 3 1276 1348 1368 1296
5274 4 1276 1348 1368 1428
5275 4 1408 1348 1368 1296
5276 5 1408 1348 1368 1428
5277 6 1276 1348 1408 1232
5278 7 1276 1348 1408 1372
5279 8 1368 1348 1408 1232
5280 9 1368 1348 1408 1372
5281 3 1277 1349 1361 1289
5282 4 1277 1349 1361 1421
5283 4 1409 1349 1361 1289
5284 5 1409 1349 1361 1421
5285 6 1277 1349 1409 1233
5286 7 1277 1349 1409 1373
5287 8 1361 1349 1409 1233
5288 9 1361 1349 1409 1373
5289 3 1278 1350 1357 1285
5290 4 1278 1350 1357 1417
5291 4 1410 1350 1357 1285
5292 5 1410 1350 1357 1417
5293 6 1278 1350 1410 1234
5294 7 1278 1350 1410 1374
5295 8 1357 1350 1410 1234
5296 9 1357 1350 1410 1374
5297 3 1279 1351 1363 1291
5298 4 1279 1351 1363 1423
5299 4 1411 1351 1363 1291
5300 5 1411 1351 1363 1423
5301 6 1279 1351 1411 1235
5302 7 1279 1351 1411 1375
5303 8 1363 1351 1411 1235
5304 9 1363 1351 1411 1375
5305 6 1280 1352 1412 1440
5306 7 1280 1352 1412 1376
5307 8 1323 1352 1412 1440
5308 9 1323 1352 1412 1376
5309 6 1281 1353 1413 419
5310 7 1281 1353 1413 1377
5311 8 1331 1353 1413 419
5312 9 1331 1353 1413 1377
5313 6 1282 1354 1414 826
5314 7 1282 1354 1414 1342
5315 8 1322 1354 1414 826
5316 9 1322 1354 1414 1342
5317 6 1283 1355 1415 1437
5318 7 1283 1355 1415 1343
5319 8 1328 1355 1415 1437
5320 9 1328 1355 1415 1343
5321 3 1284 1356 1360 1288
5322 4 1284 1356 1360 1420
5323 4 1416 1356 1360 1288
5324 5 1416 1356 1360 1420
5325 6 1284 1356 1416 1236
5326 7 1284 1356 1416 1380
5327 8 1360 1356 1416 1236
5328 9 1360 1356 1416 1380
5329 6 1285 1357 1417 1235
5330 7 1285 1357 1417 1374
5331 8 1350 1357 1417 1235
5332 9 1350 1357 1417 1374
5333 6 1286 1358 1418 1437
5334 7 1286 1358 1418 1378
5335 8 1318 1358 1418 1437
5336 9 1318 1358 1418 1378
5337 6 1287 1359 1419 419
5338 7 1287 1359 1419 1340
5339 8 1316 1359 1419 419
5340 9 1316 1359 1419 1340
5341 6 1288 1360 1420 1233
5342 7 1288 1360 1420 1380
5343 8 1356 1360 1420 1233
5344 9 1356 1360 1420 1380
5345 6 1289 1361 1421 1232
5346 7 1289 1361 1421 1373
5347 8 1349 1361 1421 1232
5348 9 1349 1361 1421 1373
5349 6 1290 1362 1422 1236
5350 7 1290 1362 1422 1369
5351 8 1345 1362 1422 1236
5352 9 1345 1362 1422 1369
5353 6 1291 1363 1423 1231
5354 7 1291 1363 1423 1375
5355 8 1351 1363 1423 1231
5356 9 1351 1363 1423 1375
5357 6 1292 1364 1424 415
5358 7 1292 1364 1424 1379
5359 8 1319 1364 1424 415
5360 9 1319 1364 1424 1379
5361 6 1293 1365 1425 826
5362 7 1293 1365 1425 1335
5363 8 1311 1365 1425 826
5364 9 1311 1365 1425 1335
5365 6 1294 1366 1426 1440
5366 7 1294 1366 1426 1370
5367 8 1310 1366 1426 1440
5368 9 1310 1366 1426 1370
5369 6 1295 1367 1427 824
5370 7 1295 1367 1427 1341
5371 8 1317 1367 1427 824
5372 9 1317 1367 1427 1341
5373 6 1296 1368 1428 1234
5374 7 1296 1368 1428 1372
5375 8 1348 1368 1428 1234
5376 9 1348 1368 1428 1372
5377 10 1302 1369 1405 1231
5378 11 1302 1369 1405 1345
5379 12 1422 1369 1405 1231
5380 13 1422 1369 1405 1345
5381 10 1302 1369 1422 1236
5382 11 1302 1369 1422 1362
5383 12 1405 1369 1422 1236
5384 13 1405 1369 1422 1362
5385 10 1306 1370 1382 1226
5386 11 1306 1370 1382 1310
5387 12 1426 1370 1382 1226
5388 13 1426 1370 1382 1310
5389 10 1306 1370 1426 1440
5390 11 1306 1370 1426 1366
5391 12 1382 1370 1426 1440
5392 13 1382 1370 1426 1366
5393 10 1308 1371 1401 1228
5394 11 1308 1371 1401 1329
5395 12 1407 1371 1401 1228
5396 13 1407 1371 1401 1329
5397 10 1308 1371 1407 415
5398 11 1308 1371 1407 1347
5399 12 1401 1371 1407 415
5400 13 1401 1371 1407 1347
5401 10 896 1372 1408 1232
5402 11 896 1372 1408 1348
5403 12 1428 1372 1408 1232
5404 13 1428 1372 1408 1348
5405 10 896 1372 1428 1234
5406 11 896 1372 1428 1368
5407 12 1408 1372 1428 1234
5408 13 1408 1372 1428 1368
5409 10 1297 1373 1409 1233
5410 11 1297 1373 1409 1349
5411 12 1421 1373 1409 1233
5412 13 1421 1373 1409 1349
5413 10 1297 1373 1421 1232
5414 11 1297 1373 1421 1361
5415 12 1409 1373 1421 1232
5416 13 1409 1373 1421 1361
5417 10 1301 1374 1410 1234
5418 11 1301 1374 1410 1350
5419 12 1417 1374 1410 1234
5420 13 1417 1374 1410 1350
5421 10 1301 1374 1417 1235
5422 11 1301 1374 1417 1357
5423 12 1410 1374 1417 1235
5424 13 1410 1374 1417 1357
5425 10 482 1375 1411 1235
5426 11 482 1375 1411 1351
5427 12 1423 1375 1411 1235
5428 13 1423 1375 1411 1351
5429 10 482 1375 1423 1231
5430 11 482 1375 1423 1363
5431 12 1411 1375 1423 1231
5432 13 1411 1375 1423 1363
5433 10 1511 1376 1395 1433
5434 11 1511 1376 1395 1323
5435 12 1412 1376 1395 1433
5436 13 1412 1376 1395 1323
5437 10 1511 1376 1412 1440
5438 11 1511 1376 1412 1352
5439 12 1395 1376 1412 1440
5440 13 1395 1376 1412 1352
5441 10 483 1377 1403 410
5442 11 483 1377 1403 1331
5443 12 1413 1377 1403 410
5444 13 1413 1377 1403 1331
5445 10 483 1377 1413 419
5446 11 483 1377 1413 1353
5447 12 1403 1377 1413 419
5448 13 1403 1377 1413 1353
5449 10 1507 1378 1390 1432
5450 11 1507 1378 1390 1318
5451 12 1418 1378 1390 1432
5452 13 1418 1378 1390 1318
5453 10 1507 1378 1418 1437
5454 11 1507 1378 1418 1358
5455 12 1390 1378 1418 1437
5456 13 1390 1378 1418 1358
5457 10 484 1379 1391 411
5458 11 484 1379 1391 1319
5459 12 1424 1379 1391 411
5460 13 1424 1379 1391 1319
5461 10 484 1379 1424 415
5462 11 484 1379 1424 1364
5463 12 1391 1379 1424 415
5464 13 1391 1379 1424 1364
5465 10 1509 1380 1416 1236
5466 11 1509 1380 1416 1356
5467 12 1420 1380 1416 1236
5468 13 1420 1380 1416 1356
5469 10 1509 1380 1420 1233
5470 11 1509 1380 1420 1360
5471 12 1416 1380 1420 1233
5472 13 1416 1380 1420 1360
5473 1 1315 1387 1433 1593
5474 1 1315 1387 1433 1597
5475 1 1315 1387 1433 1395
5476 2 1339 1387 1433 1593
5477 2 1339 1387 1433 1597
5478 2 1339 1387 1433 1395
5479 1 1318 1390 1432 1590
5480 1 1318 1390 1432 1605
5481 1 1318 1390 1432 1404
5482 2 1378 1390 1432 1590
5483 2 1378 1390 1432 1605
5484 2 1378 1390 1432 1404
5485 1 1323 1395 1433 1387
5486 1 1323 1395 1433 1593
5487 1 1323 1395 1433 1597
5488 2 1376 1395 1433 1387
5489 2 1376 1395 1433 1593
5490 2 1376 1395 1433 1597
5491 1 1332 1404 1432 1590
5492 1 1332 1404 1432 1390
5493 1 1332 1404 1432 1605
5494 2 1336 1404 1432 1590
5495 2 1336 1404 1432 1390
5496 2 1336 1404 1432 1605
5497 1 1352 1412 1440 1620
5498 1 1352 1412 1440 1626
5499 1 1352 1412 1440 1426
5500 2 1376 1412 1440 1620
5501 2 1376 1412 1440 1626
5502 2 1376 1412 1440 1426
5503 2 1343 1415 1437 1613
5504 2 1343 1415 1437 1418
5505 2 1343 1415 1437 1624
5506 1 1355 1415 1437 1613
5507 1 1355 1415 1437 1418
5508 1 1355 1415 1437 1624
5509 1 1358 1418 1437 1613
5510 1 1358 1418 1437 1415
5511 1 1358 1418 1437 1624
5512 2 1378 1418 1437 1613
5513 2 1378 1418 1437 1415
5514 2 1378 1418 1437 1624
5515 1 1366 1426 1440 1412
5516 1 1366 1426 1440 1620
5517 1 1366 1426 1440 1626
5518 2 1370 1426 1440 1412
5519 2 1370 1426 1440 1620
5520 2 1370 1426 1440 1626
5521 1 1179 1429 1585 1513
5522 2 1179 1429 1585 1537
5523 1 1195 1429 1585 1513
5524 2 1195 1429 1585 1537
5525 1 1604 1429 1585 1513
5526 2 1604 1429 1585 1537
5527 1 1585 1429 1604 1532
5528 2 1585 1429 1604 1547
5529 1 1179 1429 1604 1532
5530 2 1179 1429 1604 1547
5531 1 1195 1429 1604 1532
5532 2 1195 1429 1604 1547
5533 1 772 1430 1586 1514
5534 2 772 1430 1586 1574
5535 1 1601 1430 1586 1514
5536 2 1601 1430 1586 1574
5537 1 791 1430 1586 1514
5538 2 791 1430 1586 1574
5539 1 1586 1430 1601 1529
5540 2 1586 1430 1601 1541
5541 1 772 1430 1601 1529
5542 2 772 1430 1601 1541
5543 1 791 1430 1601 1529
5544 2 791 1430 1601 1541
5545 1 779 1431 1589 1517
5546 2 779 1431 1589 1541
5547 1 1598 1431 1589 1517
5548 2 1598 1431 1589 1541
5549 1 784 1431 1589 1517
5550 2 784 1431 1589 1541
5551 1 1589 1431 1598 1526
5552 2 1589 1431 1598 1546
5553 1 779 1431 1598 1526
5554 2 779 1431 1598 1546
5555 1 784 1431 1598 1526
5556 2 784 1431 1598 1546
5557 1 1390 1432 1590 1518
5558 2 1390 1432 1590 1542
5559 1 1605 1432 1590 1518
5560 2 1605 1432 1590 1542
5561 1 1404 1432 1590 1518
5562 2 1404 1432 1590 1542
5563 1 1590 1432 1605 1533
5564 2 1590 1432 1605 1575
5565 1 1390 1432 1605 1533
5566 2 1390 1432 1605 1575
5567 1 1404 1432 1605 1533
5568 2 1404 1432 1605 1575
5569 1 1387 1433 1593 1521
5570 2 1387 1433 1593 1545
5571 1 1597 1433 1593 1521
5572 2 1597 1433 1593 1545
5573 1 1395 1433 1593 1521
5574 2 1395 1433 1593 1545
5575 1 1387 1433 1597 1525
5576 2 1387 1433 1597 1542
5577 1 1593 1433 1597 1525
5578 2 1593 1433 1597 1542
5579 1 1395 1433 1597 1525
5580 2 1395 1433 1597 1542
5581 1 1188 1434 1592 1520
5582 2 1188 1434 1592 1544
5583 1 1602 1434 1592 1520
5584 2 1602 1434 1592 1544
5585 1 1198 1434 1592 1520
5586 2 1198 1434 1592 1544
5587 1 1592 1434 1602 1530
5588 2 1592 1434 1602 1537
5589 1 1188 1434 1602 1530
5590 2 1188 1434 1602 1537
5591 1 1198 1434 1602 1530
5592 2 1198 1434 1602 1537
5593 1 795 1435 1609 1549
5594 2 795 1435 1609 1573
5595 1 1627 1435 1609 1549
5596 2 1627 1435 1609 1573
5597 1 812 1435 1609 1549
5598 2 812 1435 1609 1573
5599 1 1609 1435 1627 1567
5600 2 1609 1435 1627 1579
5601 1 795 1435 1627 1567
5602 2 795 1435 1627 1579
5603 1 812 1435 1627 1567
5604 2 812 1435 1627 1579
5605 1 1202 1436 1612 1552
5606 2 1202 1436 1612 1576
5607 1 1625 1436 1612 1552
5608 2 1625 1436 1612 1576
5609 1 1223 1436 1612 1552
5610 2 1223 1436 1612 1576
5611 1 1202 1436 1625 1565
5612 2 1202 1436 1625 1577
5613 1 1612 1436 1625 1565
5614 2 1612 1436 1625 1577
5615 1 1223 1436 1625 1565
5616 2 1223 1436 1625 1577
5617 1 1415 1437 1613 1553
5618 2 1415 1437 1613 1577
5619 1 1418 1437 1613 1553
5620 2 1418 1437 1613 1577
5621 1 1624 1437 1613 1553
5622 2 1624 1437 1613 1577
5623 1 1613 1437 1624 1564
5624 2 1613 1437 1624 1584
5625 1 1415 1437 1624 1564
5626 2 1415 1437 1624 1584
5627 1 1418 1437 1624 1564
5628 2 1418 1437 1624 1584
5629 1 1210 1438 1614 1554
5630 2 1210 1438 1614 1578
5631 1 1221 1438 1614 1554
5632 2 1221 1438 1614 1578
5633 1 1632 1438 1614 1554
5634 2 1632 1438 1614 1578
5635 1 1614 1438 1632 1572
5636 2 1614 1438 1632 1576
5637 1 1210 1438 1632 1572
5638 2 1210 1438 1632 1576
5639 1 1221 1438 1632 1572
5640 2 1221 1438 1632 1576
5641 1 801 1439 1615 1555
5642 2 801 1439 1615 1579
5643 1 1621 1439 1615 1555
5644 2 1621 1439 1615 1579
5645 1 807 1439 1615 1555
5646 2 807 1439 1615 1579
5647 1 1615 1439 1621 1561
5648 2 1615 1439 1621 1578
5649 1 801 1439 1621 1561
5650 2 801 1439 1621 1578
5651 1 807 1439 1621 1561
5652 2 807 1439 1621 1578
5653 1 1412 1440 1620 1560
5654 2 1412 1440 1620 1584
5655 1 1626 1440 1620 1560
5656 2 1626 1440 1620 1584
5657 1 1426 1440 1620 1560
5658 2 1426 1440 1620 1584
5659 1 1412 1440 1626 1566
5660 2 1412 1440 1626 1573
5661 1 1620 1440 1626 1566
5662 2 1620 1440 1626 1573
5663 1 1426 1440 1626 1566
5664 2 1426 1440 1626 1573
5665 3 1441 1513 1530 1458
5666 4 1441 1513 1530 1602
5667 4 1585 1513 1530 1458
5668 5 1585 1513 1530 1602
5669 6 1441 1513 1585 1429
5670 7 1441 1513 1585 1537
5671 8 1530 1513 1585 1429
5672 9 1530 1513 1585 1537
5673 3 1442 1514 1570 1498
5674 4 1442 1514 1570 1630
5675 4 1586 1514 1570 1498
5676 5 1586 1514 1570 1630
5677 6 1442 1514 1586 1430
5678 7 1442 1514 1586 1574
5679 8 1570 1514 1586 1430
5680 9 1570 1514 1586 1574
5681 3 1443 1515 1569 1497
5682 4 1443 1515 1569 1629
5683 4 1587 1515 1569 1497
5684 5 1587 1515 1569 1629
5685 6 1443 1515 1587 1021
5686 7 1443 1515 1587 1539
5687 8 1569 1515 1587 1021
5688 9 1569 1515 1587 1539
5689 3 1444 1516 1536 1464
5690 4 1444 1516 1536 1608
5691 4 1588 1516 1536 1464
5692 5 1588 1516 1536 1608
5693 6 1444 1516 1588 614
5694 7 1444 1516 1588 1540
5695 8 1536 1516 1588 614
5696 9 1536 1516 1588 1540
5697 3 1445 1517 1529 1457
5698 4 1445 1517 1529 1601
5699 4 1589 1517 1529 1457
5700 5 1589 1517 1529 1601
5701 6 1445 1517 1589 1431
5702 7 1445 1517 1589 1541
5703 8 1529 1517 1589 1431
5704 9 1529 1517 1589 1541
5705 3 1446 1518 1525 1453
5706 4 1446 1518 1525 1597
5707 4 1590 1518 1525 1453
5708 5 1590 1518 1525 1597
5709 6 1446 1518 1590 1432
5710 7 1446 1518 1590 1542
5711 8 1525 1518 1590 1432
5712 9 1525 1518 1590 1542
5713 3 1447 1519 1531 1459
5714 4 1447 1519 1531 1603
5715 4 1591 1519 1531 1459
5716 5 1591 1519 1531 1603
5717 6 1447 1519 1591 1229
5718 7 1447 1519 1591 1543
5719 8 1531 1519 1591 1229
5720 9 1531 1519 1591 1543
5721 3 1448 1520 1563 1491
5722 4 1448 1520 1563 1623
5723 4 1592 1520 1563 1491
5724 5 1592 1520 1563 1623
5725 6 1448 1520 1592 1434
5726 7 1448 1520 1592 1544
5727 8 1563 1520 1592 1434
5728 9 1563 1520 1592 1544
5729 3 1449 1521 1571 1499
5730 4 1449 1521 1571 1631
5731 4 1593 1521 1571 1499
5732 5 1593 1521 1571 1631
5733 6 1449 1521 1593 1433
5734 7 1449 1521 1593 1545
5735 8 1571 1521 1593 1433
5736 9 1571 1521 1593 1545
5737 3 1450 1522 1562 1490
5738 4 1450 1522 1562 1622
5739 4 1594 1522 1562 1490
5740 5 1594 1522 1562 1622
5741 6 1450 1522 1594 1228
5742 7 1450 1522 1594 1582
5743 8 1562 1522 1594 1228
5744 9 1562 1522 1594 1582
5745 3 1451 1523 1568 1496
5746 4 1451 1523 1568 1628
5747 4 1595 1523 1568 1496
5748 5 1595 1523 1568 1628
5749 6 1451 1523 1595 615
5750 7 1451 1523 1595 1583
5751 8 1568 1523 1595 615
5752 9 1568 1523 1595 1583
5753 3 1452 1524 1528 1456
5754 4 1452 1524 1528 1600
5755 4 1596 1524 1528 1456
5756 5 1596 1524 1528 1600
5757 6 1452 1524 1596 1026
5758 7 1452 1524 1596 1548
5759 8 1528 1524 1596 1026
5760 9 1528 1524 1596 1548
5761 6 1453 1525 1597 1433
5762 7 1453 1525 1597 1542
5763 8 1518 1525 1597 1433
5764 9 1518 1525 1597 1542
5765 3 1454 1526 1558 1486
5766 4 1454 1526 1558 1618
5767 4 1598 1526 1558 1486
5768 5 1598 1526 1558 1618
5769 6 1454 1526 1598 1431
5770 7 1454 1526 1598 1546
5771 8 1558 1526 1598 1431
5772 9 1558 1526 1598 1546
5773 3 1455 1527 1556 1484
5774 4 1455 1527 1556 1616
5775 4 1599 1527 1556 1484
5776 5 1599 1527 1556 1616
5777 6 1455 1527 1599 1229
5778 7 1455 1527 1599 1580
5779 8 1556 1527 1599 1229
5780 9 1556 1527 1599 1580
5781 6 1456 1528 1600 615
5782 7 1456 1528 1600 1548
5783 8 1524 1528 1600 615
5784 9 1524 1528 1600 1548
5785 6 1457 1529 1601 1430
5786 7 1457 1529 1601 1541
5787 8 1517 1529 1601 1430
5788 9 1517 1529 1601 1541
5789 6 1458 1530 1602 1434
5790 7 1458 1530 1602 1537
5791 8 1513 1530 1602 1434
5792 9 1513 1530 1602 1537
5793 6 1459 1531 1603 1021
5794 7 1459 1531 1603 1543
5795 8 1519 1531 1603 1021
5796 9 1519 1531 1603 1543
5797 3 1460 1532 1559 1487
5798 4 1460 1532 1559 1619
5799 4 1604 1532 1559 1487
5800 5 1604 1532 1559 1619
5801 6 1460 1532 1604 1429
5802 7 1460 1532 1604 1547
5803 8 1559 1532 1604 1429
5804 9 1559 1532 1604 1547
5805 3 1461 1533 1551 1479
5806 4 1461 1533 1551 1611
5807 4 1605 1533 1551 1479
5808 5 1605 1533 1551 1611
5809 6 1461 1533 1605 1432
5810 7 1461 1533 1605 1575
5811 8 1551 1533 1605 1432
5812 9 1551 1533 1605 1575
5813 3 1462 1534 1550 1478
5814 4 1462 1534 1550 1610
5815 4 1606 1534 1550 1478
5816 5 1606 1534 1550 1610
5817 6 1462 1534 1606 1026
5818 7 1462 1534 1606 1538
5819 8 1550 1534 1606 1026
5820 9 1550 1534 1606 1538
5821 3 1463 1535 1557 1485
5822 4 1463 1535 1557 1617
5823 4 1607 1535 1557 1485
5824 5 1607 1535 1557 1617
5825 6 1463 1535 1607 614
5826 7 1463 1535 1607 1581
5827 8 1557 1535 1607 614
5828 9 1557 1535 1607 1581
5829 6 1464 1536 1608 1228
5830 7 1464 1536 1608 1540
5831 8 1516 1536 1608 1228
5832 9 1516 1536 1608 1540
5833 10 1062 1537 1585 1429
5834 11 1062 1537 1585 1513
5835 12 1602 1537 1585 1429
5836 13 1602 1537 1585 1513
5837 10 1062 1537 1602 1434
5838 11 1062 1537 1602 1530
5839 12 1585 1537 1602 1434
5840 13 1585 1537 1602 1530
5841 10 1066 1538 1606 1026
5842 11 1066 1538 1606 1534
5843 12 1610 1538 1606 1026
5844 13 1610 1538 1606 1534
5845 10 1066 1538 1610 1028
5846 11 1066 1538 1610 1550
5847 12 1606 1538 1610 1028
5848 13 1606 1538 1610 1550
5849 10 1068 1539 1587 1021
5850 11 1068 1539 1587 1515
5851 12 1629 1539 1587 1021
5852 13 1629 1539 1587 1515
5853 10 1068 1539 1629 1030
5854 11 1068 1539 1629 1569
5855 12 1587 1539 1629 1030
5856 13 1587 1539 1629 1569
5857 10 1472 1540 1588 614
5858 11 1472 1540 1588 1516
5859 12 1608 1540 1588 614
5860 13 1608 1540 1588 1516
5861 10 1472 1540 1608 1228
5862 11 1472 1540 1608 1536
5863 12 1588 1540 1608 1228
5864 13 1588 1540 1608 1536
5865 10 649 1541 1589 1431
5866 11 649 1541 1589 1517
5867 12 1601 1541 1589 1431
5868 13 1601 1541 1589 1517
5869 10 649 1541 1601 1430
5870 11 649 1541 1601 1529
5871 12 1589 1541 1601 1430
5872 13 1589 1541 1601 1529
5873 10 1265 1542 1590 1432
5874 11 1265 1542 1590 1518
5875 12 1597 1542 1590 1432
5876 13 1597 1542 1590 1518
5877 10 1265 1542 1597 1433
5878 11 1265 1542 1597 1525
5879 12 1590 1542 1597 1433
5880 13 1590 1542 1597 1525
5881 10 1466 1543 1591 1229
5882 11 1466 1543 1591 1519
5883 12 1603 1543 1591 1229
5884 13 1603 1543 1591 1519
5885 10 1466 1543 1603 1021
5886 11 1466 1543 1603 1531
5887 12 1591 1543 1603 1021
5888 13 1591 1543 1603 1531
5889 10 1475 1544 1592 1434
5890 11 1475 1544 1592 1520
5891 12 1623 1544 1592 1434
5892 13 1623 1544 1592 1520
5893 10 1475 1544 1623 623
5894 11 1475 1544 1623 1563
5895 12 1592 1544 1623 623
5896 13 1592 1544 1623 1563
5897 10 1467 1545 1593 1433
5898 11 1467 1545 1593 1521
5899 12 1631 1545 1593 1433
5900 13 1631 1545 1593 1521
5901 10 1467 1545 1631 1028
5902 11 1467 1545 1631 1571
5903 12 1593 1545 1631 1028
5904 13 1593 1545 1631 1571
5905 10 1471 1546 1598 1431
5906 11 1471 1546 1598 1526
5907 12 1618 1546 1598 1431
5908 13 1618 1546 1598 1526
5909 10 1471 1546 1618 1030
5910 11 1471 1546 1618 1558
5911 12 1598 1546 1618 1030
5912 13 1598 1546 1618 1558
5913 10 1468 1547 1604 1429
5914 11 1468 1547 1604 1532
5915 12 1619 1547 1604 1429
5916 13 1619 1547 1604 1532
5917 10 1468 1547 1619 1233
5918 11 1468 1547 1619 1559
5919 12 1604 1547 1619 1233
5920 13 1604 1547 1619 1559
5921 10 1473 1548 1596 1026
5922 11 1473 1548 1596 1524
5923 12 1600 1548 1596 1026
5924 13 1600 1548 1596 1524
5925 10 1473 1548 1600 615
5926 11 1473 1548 1600 1528
5927 12 1596 1548 1600 615
5928 13 1596 1548 1600 1528
5929 3 1477 1549 1566 1494
5930 4 1477 1549 1566 1626
5931 4 1609 1549 1566 1494
5932 5 1609 1549 1566 1626
5933 6 1477 1549 1609 1435
5934 7 1477 1549 1609 1573
5935 8 1566 1549 1609 1435
5936 9 1566 1549 1609 1573
5937 6 1478 1550 1610 1028
5938 7 1478 1550 1610 1538
5939 8 1534 1550 1610 1028
5940 9 1534 1550 1610 1538
5941 6 1479 1551 1611 619
5942 7 1479 1551 1611 1575
5943 8 1533 1551 1611 619
5944 9 1533 1551 1611 1575
5945 3 1480 1552 1572 1500
5946 4 1480 1552 1572 1632
5947 4 1612 1552 1572 1500
5948 5 1612 1552 1572 1632
5949 6 1480 1552 1612 1436
5950 7 1480 1552 1612 1576
5951 8 1572 1552 1612 1436
5952 9 1572 1552 1612 1576
5953 3 1481 1553 1565 1493
5954 4 1481 1553 1565 1625
5955 4 1613 1553 1565 1493
5956 5 1613 1553 1565 1625
5957 6 1481 1553 1613 1437
5958 7 1481 1553 1613 1577
5959 8 1565 1553 1613 1437
5960 9 1565 1553 1613 1577
5961 3 1482 1554 1561 1489
5962 4 1482 1554 1561 1621
5963 4 1614 1554 1561 1489
5964 5 1614 1554 1561 1621
5965 6 1482 1554 1614 1438
5966 7 1482 1554 1614 1578
5967 8 1561 1554 1614 1438
5968 9 1561 1554 1614 1578
5969 3 1483 1555 1567 1495
5970 4 1483 1555 1567 1627
5971 4 1615 1555 1567 1495
5972 5 1615 1555 1567 1627
5973 6 1483 1555 1615 1439
5974 7 1483 1555 1615 1579
5975 8 1567 1555 1615 1439
5976 9 1567 1555 1615 1579
5977 6 1484 1556 1616 1236
5978 7 1484 1556 1616 1580
5979 8 1527 1556 1616 1236
5980 9 1527 1556 1616 1580
5981 6 1485 1557 1617 623
5982 7 1485 1557 1617 1581
5983 8 1535 1557 1617 623
5984 9 1535 1557 1617 1581
5985 6 1486 1558 1618 1030
5986 7 1486 1558 1618 1546
5987 8 1526 1558 1618 1030
5988 9 1526 1558 1618 1546
5989 6 1487 1559 1619 1233
5990 7 1487 1559 1619 1547
5991 8 1532 1559 1619 1233
5992 9 1532 1559 1619 1547
5993 3 1488 1560 1564 1492
5994 4 1488 1560 1564 1624
5995 4 1620 1560 1564 1492
5996 5 1620 1560 1564 1624
5997 6 1488 1560 1620 1440
5998 7 1488 1560 1620 1584
5999 8 1564 1560 1620 1440
6000 9 1564 1560 1620 1584
6001 6 1489 1561 1621 1439
6002 7 1489 1561 1621 1578
6003 8 1554 1561 1621 1439
6004 9 1554 1561 1621 1578
6005 6 1490 1562 1622 1233
6006 7 1490 1562 1622 1582
6007 8 1522 1562 1622 1233
6008 9 1522 1562 1622 1582
6009 6 1491 1563 1623 623
6010 7 1491 1563 1623 1544
6011 8 1520 1563 1623 623
6012 9 1520 1563 1623 1544
6013 6 1492 1564 1624 1437
6014 7 1492 1564 1624 1584
6015 8 1560 1564 1624 1437
6016 9 1560 1564 1624 1584
6017 6 1493 1565 1625 1436
6018 7 1493 1565 1625 1577
6019 8 1553 1565 1625 1436
6020 9 1553 1565 1625 1577
6021 6 1494 1566 1626 1440
6022 7 1494 1566 1626 1573
6023 8 1549 1566 1626 1440
6024 9 1549 1566 1626 1573
6025 6 1495 1567 1627 1435
6026 7 1495 1567 1627 1579
6027 8 1555 1567 1627 1435
6028 9 1555 1567 1627 1579
6029 6 1496 1568 1628 619
6030 7 1496 1568 1628 1583
6031 8 1523 1568 1628 619
6032 9 1523 1568 1628 1583
6033 6 1497 1569 1629 1030
6034 7 1497 1569 1629 1539
6035 8 1515 1569 1629 1030
6036 9 1515 1569 1629 1539
6037 6 1498 1570 1630 1236
6038 7 1498 1570 1630 1574
6039 8 1514 1570 1630 1236
6040 9 1514 1570 1630 1574
6041 6 1499 1571 1631 1028
6042 7 1499 1571 1631 1545
6043 8 1521 1571 1631 1028
6044 9 1521 1571 1631 1545
6045 6 1500 1572 1632 1438
6046 7 1500 1572 1632 1576
6047 8 1552 1572 1632 1438
6048 9 1552 1572 1632 1576
6049 10 1506 1573 1609 1435
6050 11 1506 1573 1609 1549
6051 12 1626 1573 1609 1435
6052 13 1626 1573 1609 1549
6053 10 1506 1573 1626 1440
6054 11 1506 1573 1626 1566
6055 12 1609 1573 1626 1440
6056 13 1609 1573 1626 1566
6057 10 1510 1574 1586 1430
6058 11 1510 1574 1586 1514
6059 12 1630 1574 1586 1430
6060 13 1630 1574 1586 1514
6061 10 1510 1574 1630 1236
6062 11 1510 1574 1630 1570
6063 12 1586 1574 1630 1236
6064 13 1586 1574 1630 1570
6065 10 1512 1575 1605 1432
6066 11 1512 1575 1605 1533
6067 12 1611 1575 1605 1432
6068 13 1611 1575 1605 1533
6069 10 1512 1575 1611 619
6070 11 1512 1575 1611 1551
6071 12 1605 1575 1611 619
6072 13 1605 1575 1611 1551
6073 10 1100 1576 1612 1436
6074 11 1100 1576 1612 1552
6075 12 1632 1576 1612 1436
6076 13 1632 1576 1612 1552
6077 10 1100 1576 1632 1438
6078 11 1100 1576 1632 1572
6079 12 1612 1576 1632 1438
6080 13 1612 1576 1632 1572
6081 10 1501 1577 1613 1437
6082 11 1501 1577 1613 1553
6083 12 1625 1577 1613 1437
6084 13 1625 1577 1613 1553
6085 10 1501 1577 1625 1436
6086 11 1501 1577 1625 1565
6087 12 1613 1577 1625 1436
6088 13 1613 1577 1625 1565
6089 10 1505 1578 1614 1438
6090 11 1505 1578 1614 1554
6091 12 1621 1578 1614 1438
6092 13 1621 1578 1614 1554
6093 10 1505 1578 1621 1439
6094 11 1505 1578 1621 1561
6095 12 1614 1578 1621 1439
6096 13 1614 1578 1621 1561
6097 10 686 1579 1615 1439
6098 11 686 1579 1615 1555
6099 12 1627 1579 1615 1439
6100 13 1627 1579 1615 1555
6101 10 686 1579 1627 1435
6102 11 686 1579 1627 1567
6103 12 1615 1579 1627 1435
6104 13 1615 1579 1627 1567
6105 10 1307 1580 1599 1229
6106 11 1307 1580 1599 1527
6107 12 1616 1580 1599 1229
6108 13 1616 1580 1599 1527
6109 10 1307 1580 1616 1236
6110 11 1307 1580 1616 1556
6111 12 1599 1580 1616 1236
6112 13 1599 1580 1616 1556
6113 10 687 1581 1607 614
6114 11 687 1581 1607 1535
6115 12 1617 1581 1607 614
6116 13 1617 1581 1607 1535
6117 10 687 1581 1617 623
6118 11 687 1581 1617 1557
6119 12 1607 1581 1617 623
6120 13 1607 1581 1617 1557
6121 10 1303 1582 1594 1228
6122 11 1303 1582 1594 1522
6123 12 1622 1582 1594 1228
6124 13 1622 1582 1594 1522
6125 10 1303 1582 1622 1233
6126 11 1303 1582 1622 1562
6127 12 1594 1582 1622 1233
6128 13 1594 1582 1622 1562
6129 10 688 1583 1595 615
6130 11 688 1583 1595 1523
6131 12 1628 1583 1595 615
6132 13 1628 1583 1595 1523
6133 10 688 1583 1628 619
6134 11 688 1583 1628 1568
6135 12 1595 1583 1628 619
6136 13 1595 1583 1628 1568
6137 10 1305 1584 1620 1440
6138 11 1305 1584 1620 1560
6139 12 1624 1584 1620 1440
6140 13 1624 1584 1620 1560
6141 10 1305 1584 1624 1437
6142 11 1305 1584 1624 1564
6143 12 1620 1584 1624 1437
6144 13 1620 1584 1624 1564

Impropers

1 3 157 1 85 109
2 3 176 1 104 119
3 3 567 1 495 519
4 3 583 1 511 523
5 3 158 2 86 146
6 3 173 2 101 113
7 3 976 2 904 928
8 3 995 2 923 969
9 3 161 3 89 113
10 3 170 3 98 118
11 3 983 3 911 971
12 3 988 3 916 936
13 3 162 4 90 114
14 3 177 4 105 147
15 3 370 4 298 358
16 3 384 4 312 316
17 3 165 5 93 117
18 3 169 5 97 114
19 3 367 5 295 319
20 3 375 5 303 356
21 3 164 6 92 116
22 3 174 6 102 109
23 3 576 6 504 528
24 3 586 6 514 518
25 3 181 7 121 145
26 3 199 7 139 151
27 3 999 7 939 963
28 3 1016 7 956 971
29 3 184 8 124 148
30 3 197 8 137 149
31 3 590 8 518 530
32 3 611 8 525 551
33 3 185 9 125 149
34 3 196 9 136 156
35 3 395 9 323 335
36 3 398 9 338 358
37 3 186 10 126 150
38 3 204 10 144 148
39 3 598 10 526 538
40 3 609 10 519 549
41 3 187 11 127 151
42 3 193 11 133 150
43 3 1005 11 945 969
44 3 1011 11 932 951
45 3 192 12 132 156
46 3 198 12 138 145
47 3 392 12 332 356
48 3 406 12 346 350
49 1 85 13 102 157
50 1 86 14 142 158
51 1 87 15 141 159
52 1 88 16 108 160
53 1 89 17 101 161
54 1 90 18 97 162
55 1 91 19 103 163
56 1 92 20 135 164
57 1 93 21 143 165
58 1 94 22 134 166
59 1 95 23 140 167
60 1 96 24 100 168
61 1 97 25 90 169
62 1 98 26 130 170
63 1 99 27 128 171
64 1 100 28 96 172
65 1 101 29 89 173
66 1 102 30 85 174
67 1 103 31 91 175
68 1 104 32 131 176
69 1 105 33 123 177
70 1 106 34 122 178
71 1 107 35 129 179
72 1 108 36 88 180
73 2 929 37 977 989
74 2 115 38 163 175
75 2 117 39 165 203
76 2 119 40 176 191
77 2 318 41 366 373
78 2 517 42 565 582
79 2 118 43 170 190
80 2 112 44 160 180
81 2 120 45 168 172
82 2 518 46 586 590
83 2 116 47 164 195
84 2 519 48 567 609
85 1 121 49 138 181
86 1 122 50 106 182
87 1 123 51 105 183
88 1 124 52 144 184
89 1 125 53 137 185
90 1 126 54 133 186
91 1 127 55 139 187
92 1 128 56 99 188
93 1 129 57 107 189
94 1 130 58 98 190
95 1 131 59 104 191
96 1 132 60 136 192
97 1 133 61 126 193
98 1 134 62 94 194
99 1 135 63 92 195
100 1 136 64 132 196
101 1 137 65 125 197
102 1 138 66 121 198
103 1 139 67 127 199
104 1 140 68 95 200
105 1 141 69 87 201
106 1 142 70 86 202
107 1 143 71 93 203
108 1 144 72 124 204
109 2 149 73 185 197
110 2 967 74 1003 1015
111 2 969 75 995 1005
112 2 971 76 983 1016
113 2 150 77 186 193
114 2 145 78 181 198
115 2 358 79 370 398
116 2 556 80 592 612
117 2 360 81 396 400
118 2 146 82 158 202
119 2 356 83 375 392
120 2 147 84 177 183
121 3 361 205 289 313
122 3 380 205 308 323
123 3 771 205 699 723
124 3 787 205 715 727
125 3 362 206 290 350
126 3 377 206 305 317
127 3 1180 206 1108 1132
128 3 1199 206 1127 1173
129 3 365 207 293 317
130 3 374 207 302 322
131 3 1187 207 1115 1175
132 3 1192 207 1120 1140
133 3 166 208 94 154
134 3 180 208 108 112
135 3 366 208 294 318
136 3 381 208 309 351
137 3 163 209 91 115
138 3 171 209 99 152
139 3 369 209 297 321
140 3 373 209 301 318
141 3 368 210 296 320
142 3 378 210 306 313
143 3 780 210 708 732
144 3 790 210 718 722
145 3 385 211 325 349
146 3 403 211 343 355
147 3 1203 211 1143 1167
148 3 1220 211 1160 1175
149 3 388 212 328 352
150 3 401 212 341 353
151 3 794 212 722 734
152 3 815 212 729 755
153 3 191 213 119 131
154 3 194 213 134 154
155 3 389 213 329 353
156 3 400 213 340 360
157 3 390 214 330 354
158 3 408 214 348 352
159 3 802 214 730 742
160 3 813 214 723 753
161 3 391 215 331 355
162 3 397 215 337 354
163 3 1209 215 1149 1173
164 3 1215 215 1136 1155
165 3 188 216 128 152
166 3 202 216 142 146
167 3 396 216 336 360
168 3 402 216 342 349
169 1 289 217 306 361
170 1 290 218 346 362
171 1 291 219 345 363
172 1 292 220 312 364
173 1 293 221 305 365
174 1 294 222 301 366
175 1 295 223 307 367
176 1 296 224 339 368
177 1 297 225 347 369
178 1 298 226 338 370
179 1 299 227 344 371
180 1 300 228 304 372
181 1 301 229 294 373
182 1 302 230 334 374
183 1 303 231 332 375
184 1 304 232 300 376
185 1 305 233 293 377
186 1 306 234 289 378
187 1 307 235 295 379
188 1 308 236 335 380
189 1 309 237 327 381
190 1 310 238 326 382
191 1 311 239 333 383
192 1 312 240 292 384
193 2 1133 241 1181 1193
194 2 319 242 367 379
195 2 321 243 369 407
196 2 323 244 380 395
197 2 114 245 162 169
198 2 721 246 769 786
199 2 322 247 374 394
200 2 316 248 364 384
201 2 324 249 372 376
202 2 722 250 790 794
203 2 320 251 368 399
204 2 723 252 771 813
205 1 325 253 342 385
206 1 326 254 310 386
207 1 327 255 309 387
208 1 328 256 348 388
209 1 329 257 341 389
210 1 330 258 337 390
211 1 331 259 343 391
212 1 332 260 303 392
213 1 333 261 311 393
214 1 334 262 302 394
215 1 335 263 308 395
216 1 336 264 340 396
217 1 337 265 330 397
218 1 338 266 298 398
219 1 339 267 296 399
220 1 340 268 336 400
221 1 341 269 329 401
222 1 342 270 325 402
223 1 343 271 331 403
224 1 344 272 299 404
225 1 345 273 291 405
226 1 346 274 290 406
227 1 347 275 297 407
228 1 348 276 328 408
229 2 353 277 389 401
230 2 1171 278 1207 1219
231 2 1173 279 1199 1209
232 2 1175 280 1187 1220
233 2 354 281 390 397
234 2 349 282 385 402
235 2 154 283 166 194
236 2 760 284 796 816
237 2 156 285 192 196
238 2 350 286 362 406
239 2 152 287 171 188
240 2 351 288 381 387
241 3 159 409 87 111
242 3 175 409 103 115
243 3 565 409 493 517
244 3 584 409 512 527
245 3 566 410 494 554
246 3 581 410 509 521
247 3 1384 410 1312 1336
248 3 1403 410 1331 1377
249 3 569 411 497 521
250 3 578 411 506 526
251 3 1391 411 1319 1379
252 3 1396 411 1324 1344
253 3 570 412 498 522
254 3 585 412 513 555
255 3 778 412 706 766
256 3 792 412 720 724
257 3 573 413 501 525
258 3 577 413 505 522
259 3 775 413 703 727
260 3 783 413 711 764
261 3 168 414 96 120
262 3 178 414 106 110
263 3 572 414 500 524
264 3 582 414 510 517
265 3 589 415 529 553
266 3 607 415 547 559
267 3 1407 415 1347 1371
268 3 1424 415 1364 1379
269 3 182 416 110 122
270 3 203 416 117 143
271 3 592 416 532 556
272 3 605 416 545 557
273 3 593 417 533 557
274 3 604 417 544 564
275 3 803 417 731 743
276 3 806 417 746 766
277 3 190 418 118 130
278 3 201 418 111 141
279 3 594 418 534 558
280 3 612 418 552 556
281 3 595 419 535 559
282 3 601 419 541 558
283 3 1413 419 1353 1377
284 3 1419 419 1340 1359
285 3 600 420 540 564
286 3 606 420 546 553
287 3 800 420 740 764
288 3 814 420 754 758
289 1 493 421 510 565
290 1 494 422 550 566
291 1 495 423 549 567
292 1 496 424 516 568
293 1 497 425 509 569
294 1 498 426 505 570
295 1 499 427 511 571
296 1 500 428 543 572
297 1 501 429 551 573
298 1 502 430 542 574
299 1 503 431 548 575
300 1 504 432 508 576
301 1 505 433 498 577
302 1 506 434 538 578
303 1 507 435 536 579
304 1 508 436 504 580
305 1 509 437 497 581
306 1 510 438 493 582
307 1 511 439 499 583
308 1 512 440 539 584
309 1 513 441 531 585
310 1 514 442 530 586
311 1 515 443 537 587
312 1 516 444 496 588
313 2 1337 445 1385 1397
314 2 523 446 571 583
315 2 525 447 573 611
316 2 527 448 584 599
317 2 726 449 774 781
318 2 109 450 157 174
319 2 526 451 578 598
320 2 520 452 568 588
321 2 528 453 576 580
322 2 110 454 178 182
323 2 524 455 572 603
324 2 111 456 159 201
325 1 529 457 546 589
326 1 530 458 514 590
327 1 531 459 513 591
328 1 532 460 552 592
329 1 533 461 545 593
330 1 534 462 541 594
331 1 535 463 547 595
332 1 536 464 507 596
333 1 537 465 515 597
334 1 538 466 506 598
335 1 539 467 512 599
336 1 540 468 544 600
337 1 541 469 534 601
338 1 542 470 502 602
339 1 543 471 500 603
340 1 544 472 540 604
341 1 545 473 533 605
342 1 546 474 529 606
343 1 547 475 535 607
344 1 548 476 503 608
345 1 549 477 495 609
346 1 550 478 494 610
347 1 551 479 501 611
348 1 552 480 532 612
349 2 557 481 593 605
350 2 1375 482 1411 1423
351 2 1377 483 1403 1413
352 2 1379 484 1391 1424
353 2 558 485 594 601
354 2 553 486 589 606
355 2 766 487 778 806
356 2 148 488 184 204
357 2 768 489 804 808
358 2 554 490 566 610
359 2 764 491 783 800
360 2 555 492 585 591
361 3 363 613 291 315
362 3 379 613 307 319
363 3 769 613 697 721
364 3 788 613 716 731
365 3 770 614 698 758
366 3 785 614 713 725
367 3 1588 614 1516 1540
368 3 1607 614 1535 1581
369 3 773 615 701 725
370 3 782 615 710 730
371 3 1595 615 1523 1583
372 3 1600 615 1528 1548
373 3 574 616 502 562
374 3 588 616 516 520
375 3 774 616 702 726
376 3 789 616 717 759
377 3 571 617 499 523
378 3 579 617 507 560
379 3 777 617 705 729
380 3 781 617 709 726
381 3 372 618 300 324
382 3 382 618 310 314
383 3 776 618 704 728
384 3 786 618 714 721
385 3 793 619 733 757
386 3 811 619 751 763
387 3 1611 619 1551 1575
388 3 1628 619 1568 1583
389 3 386 620 314 326
390 3 407 620 321 347
391 3 796 620 736 760
392 3 809 620 749 761
393 3 599 621 527 539
394 3 602 621 542 562
395 3 797 621 737 761
396 3 808 621 748 768
397 3 394 622 322 334
398 3 405 622 315 345
399 3 798 622 738 762
400 3 816 622 756 760
401 3 799 623 739 763
402 3 805 623 745 762
403 3 1617 623 1557 1581
404 3 1623 623 1544 1563
405 3 596 624 536 560
406 3 610 624 550 554
407 3 804 624 744 768
408 3 810 624 750 757
409 1 697 625 714 769
410 1 698 626 754 770
411 1 699 627 753 771
412 1 700 628 720 772
413 1 701 629 713 773
414 1 702 630 709 774
415 1 703 631 715 775
416 1 704 632 747 776
417 1 705 633 755 777
418 1 706 634 746 778
419 1 707 635 752 779
420 1 708 636 712 780
421 1 709 637 702 781
422 1 710 638 742 782
423 1 711 639 740 783
424 1 712 640 708 784
425 1 713 641 701 785
426 1 714 642 697 786
427 1 715 643 703 787
428 1 716 644 743 788
429 1 717 645 735 789
430 1 718 646 734 790
431 1 719 647 741 791
432 1 720 648 700 792
433 2 1541 649 1589 1601
434 2 727 650 775 787
435 2 729 651 777 815
436 2 731 652 788 803
437 2 522 653 570 577
438 2 313 654 361 378
439 2 730 655 782 802
440 2 724 656 772 792
441 2 732 657 780 784
442 2 314 658 382 386
443 2 728 659 776 807
444 2 315 660 363 405
445 1 733 661 750 793
446 1 734 662 718 794
447 1 735 663 717 795
448 1 736 664 756 796
449 1 737 665 749 797
450 1 738 666 745 798
451 1 739 667 751 799
452 1 740 668 711 800
453 1 741 669 719 801
454 1 742 670 710 802
455 1 743 671 716 803
456 1 744 672 748 804
457 1 745 673 738 805
458 1 746 674 706 806
459 1 747 675 704 807
460 1 748 676 744 808
461 1 749 677 737 809
462 1 750 678 733 810
463 1 751 679 739 811
464 1 752 680 707 812
465 1 753 681 699 813
466 1 754 682 698 814
467 1 755 683 705 815
468 1 756 684 736 816
469 2 761 685 797 809
470 2 1579 686 1615 1627
471 2 1581 687 1607 1617
472 2 1583 688 1595 1628
473 2 762 689 798 805
474 2 757 690 793 810
475 2 562 691 574 602
476 2 352 692 388 408
477 2 564 693 600 604
478 2 758 694 770 814
479 2 560 695 579 596
480 2 759 696 789 795
481 3 973 817 901 925
482 3 992 817 920 935
483 3 1383 817 1311 1335
484 3 1399 817 1327 1339
485 3 160 818 88 112
486 3 179 818 107 153
487 3 974 818 902 962
488 3 989 818 917 929
489 3 167 819 95 155
490 3 172 819 100 120
491 3 977 819 905 929
492 3 986 819 914 934
493 3 978 820 906 930
494 3 993 820 921 963
495 3 1186 820 1114 1174
496 3 1200 820 1128 1132
497 3 981 821 909 933
498 3 985 821 913 930
499 3 1183 821 1111 1135
500 3 1191 821 1119 1172
501 3 980 822 908 932
502 3 990 822 918 925
503 3 1392 822 1320 1344
504 3 1402 822 1330 1334
505 3 183 823 123 147
506 3 200 823 140 155
507 3 997 823 937 961
508 3 1015 823 955 967
509 3 1000 824 940 964
510 3 1013 824 953 965
511 3 1406 824 1334 1346
512 3 1427 824 1341 1367
513 3 1001 825 941 965
514 3 1012 825 952 972
515 3 1211 825 1139 1151
516 3 1214 825 1154 1174
517 3 1002 826 942 966
518 3 1020 826 960 964
519 3 1414 826 1342 1354
520 3 1425 826 1335 1365
521 3 189 827 129 153
522 3 195 827 116 135
523 3 1003 827 943 967
524 3 1009 827 949 966
525 3 1008 828 948 972
526 3 1014 828 954 961
527 3 1208 828 1148 1172
528 3 1222 828 1162 1166
529 1 901 829 918 973
530 1 902 830 958 974
531 1 903 831 957 975
532 1 904 832 924 976
533 1 905 833 917 977
534 1 906 834 913 978
535 1 907 835 919 979
536 1 908 836 951 980
537 1 909 837 959 981
538 1 910 838 950 982
539 1 911 839 956 983
540 1 912 840 916 984
541 1 913 841 906 985
542 1 914 842 946 986
543 1 915 843 944 987
544 1 916 844 912 988
545 1 917 845 905 989
546 1 918 846 901 990
547 1 919 847 907 991
548 1 920 848 947 992
549 1 921 849 939 993
550 1 922 850 938 994
551 1 923 851 945 995
552 1 924 852 904 996
553 2 113 853 161 173
554 2 931 854 979 991
555 2 933 855 981 1019
556 2 935 856 992 1007
557 2 1134 857 1182 1189
558 2 1333 858 1381 1398
559 2 934 859 986 1006
560 2 928 860 976 996
561 2 936 861 984 988
562 2 1334 862 1402 1406
563 2 932 863 980 1011
564 2 1335 864 1383 1425
565 1 937 865 954 997
566 1 938 866 922 998
567 1 939 867 921 999
568 1 940 868 960 1000
569 1 941 869 953 1001
570 1 942 870 949 1002
571 1 943 871 955 1003
572 1 944 872 915 1004
573 1 945 873 923 1005
574 1 946 874 914 1006
575 1 947 875 920 1007
576 1 948 876 952 1008
577 1 949 877 942 1009
578 1 950 878 910 1010
579 1 951 879 908 1011
580 1 952 880 948 1012
581 1 953 881 941 1013
582 1 954 882 937 1014
583 1 955 883 943 1015
584 1 956 884 911 1016
585 1 957 885 903 1017
586 1 958 886 902 1018
587 1 959 887 909 1019
588 1 960 888 940 1020
589 2 965 889 1001 1013
590 2 151 890 187 199
591 2 153 891 179 189
592 2 155 892 167 200
593 2 966 893 1002 1009
594 2 961 894 997 1014
595 2 1174 895 1186 1214
596 2 1372 896 1408 1428
597 2 1176 897 1212 1216
598 2 962 898 974 1018
599 2 1172 899 1191 1208
600 2 963 900 993 999
601 3 1177 1021 1105 1129
602 3 1196 1021 1124 1139
603 3 1587 1021 1515 1539
604 3 1603 1021 1531 1543
605 3 364 1022 292 316
606 3 383 1022 311 357
607 3 1178 1022 1106 1166
608 3 1193 1022 1121 1133
609 3 371 1023 299 359
610 3 376 1023 304 324
611 3 1181 1023 1109 1133
612 3 1190 1023 1118 1138
613 3 982 1024 910 970
614 3 996 1024 924 928
615 3 1182 1024 1110 1134
616 3 1197 1024 1125 1167
617 3 979 1025 907 931
618 3 987 1025 915 968
619 3 1185 1025 1113 1137
620 3 1189 1025 1117 1134
621 3 1184 1026 1112 1136
622 3 1194 1026 1122 1129
623 3 1596 1026 1524 1548
624 3 1606 1026 1534 1538
625 3 387 1027 327 351
626 3 404 1027 344 359
627 3 1201 1027 1141 1165
628 3 1219 1027 1159 1171
629 3 1204 1028 1144 1168
630 3 1217 1028 1157 1169
631 3 1610 1028 1538 1550
632 3 1631 1028 1545 1571
633 3 1007 1029 935 947
634 3 1010 1029 950 970
635 3 1205 1029 1145 1169
636 3 1216 1029 1156 1176
637 3 1206 1030 1146 1170
638 3 1224 1030 1164 1168
639 3 1618 1030 1546 1558
640 3 1629 1030 1539 1569
641 3 393 1031 333 357
642 3 399 1031 320 339
643 3 1207 1031 1147 1171
644 3 1213 1031 1153 1170
645 3 1004 1032 944 968
646 3 1018 1032 958 962
647 3 1212 1032 1152 1176
648 3 1218 1032 1158 1165
649 1 1105 1033 1122 1177
650 1 1106 1034 1162 1178
651 1 1107 1035 1161 1179
652 1 1108 1036 1128 1180
653 1 1109 1037 1121 1181
654 1 1110 1038 1117 1182
655 1 1111 1039 1123 1183
656 1 1112 1040 1155 1184
657 1 1113 1041 1163 1185
658 1 1114 1042 1154 1186
659 1 1115 1043 1160 1187
660 1 1116 1044 1120 1188
661 1 1117 1045 1110 1189
662 1 1118 1046 1150 1190
663 1 1119 1047 1148 1191
664 1 1120 1048 1116 1192
665 1 1121 1049 1109 1193
666 1 1122 1050 1105 1194
667 1 1123 1051 1111 1195
668 1 1124 1052 1151 1196
669 1 1125 1053 1143 1197
670 1 1126 1054 1142 1198
671 1 1127 1055 1149 1199
672 1 1128 1056 1108 1200
673 2 317 1057 365 377
674 2 1135 1058 1183 1195
675 2 1137 1059 1185 1223
676 2 1139 1060 1196 1211
677 2 930 1061 978 985
678 2 1537 1062 1585 1602
679 2 1138 1063 1190 1210
680 2 1132 1064 1180 1200
681 2 1140 1065 1188 1192
682 2 1538 1066 1606 1610
683 2 1136 1067 1184 1215
684 2 1539 1068 1587 1629
685 1 1141 1069 1158 1201
686 1 1142 1070 1126 1202
687 1 1143 1071 1125 1203
688 1 1144 1072 1164 1204
689 1 1145 1073 1157 1205
690 1 1146 1074 1153 1206
691 1 1147 1075 1159 1207
692 1 1148 1076 1119 1208
693 1 1149 1077 1127 1209
694 1 1150 1078 1118 1210
695 1 1151 1079 1124 1211
696 1 1152 1080 1156 1212
697 1 1153 1081 1146 1213
698 1 1154 1082 1114 1214
699 1 1155 1083 1112 1215
700 1 1156 1084 1152 1216
701 1 1157 1085 1145 1217
702 1 1158 1086 1141 1218
703 1 1159 1087 1147 1219
704 1 1160 1088 1115 1220
705 1 1161 1089 1107 1221
706 1 1162 1090 1106 1222
707 1 1163 1091 1113 1223
708 1 1164 1092 1144 1224
709 2 1169 1093 1205 1217
710 2 355 1094 391 403
711 2 357 1095 383 393
712 2 359 1096 371 404
713 2 1170 1097 1206 1213
714 2 1165 1098 1201 1218
715 2 970 1099 982 1010
716 2 1576 1100 1612 1632
717 2 972 1101 1008 1012
718 2 1166 1102 1178 1222
719 2 968 1103 987 1004
720 2 1167 1104 1197 1203
721 3 975 1225 903 927
722 3 991 1225 919 931
723 3 1381 1225 1309 1333
724 3 1400 1225 1328 1343
725 3 568 1226 496 520
726 3 587 1226 515 561
727 3 1382 1226 1310 1370
728 3 1397 1226 1325 1337
729 3 575 1227 503 563
730 3 580 1227 508 528
731 3 1385 1227 1313 1337
732 3 1394 1227 1322 1342
733 3 1386 1228 1314 1338
734 3 1401 1228 1329 1371
735 3 1594 1228 1522 1582
736 3 1608 1228 1536 1540
737 3 1389 1229 1317 1341
738 3 1393 1229 1321 1338
739 3 1591 1229 1519 1543
740 3 1599 1229 1527 1580
741 3 984 1230 912 936
742 3 994 1230 922 926
743 3 1388 1230 1316 1340
744 3 1398 1230 1326 1333
745 3 591 1231 531 555
746 3 608 1231 548 563
747 3 1405 1231 1345 1369
748 3 1423 1231 1363 1375
749 3 998 1232 926 938
750 3 1019 1232 933 959
751 3 1408 1232 1348 1372
752 3 1421 1232 1361 1373
753 3 1409 1233 1349 1373
754 3 1420 1233 1360 1380
755 3 1619 1233 1547 1559
756 3 1622 1233 1562 1582
757 3 1006 1234 934 946
758 3 1017 1234 927 957
759 3 1410 1234 1350 1374
760 3 1428 1234 1368 1372
761 3 597 1235 537 561
762 3 603 1235 524 543
763 3 1411 1235 1351 1375
764 3 1417 1235 1357 1374
765 3 1416 1236 1356 1380
766 3 1422 1236 1362 1369
767 3 1616 1236 1556 1580
768 3 1630 1236 1570 1574
769 1 1309 1237 1326 1381
770 1 1310 1238 1366 1382
771 1 1311 1239 1365 1383
772 1 1312 1240 1332 1384
773 1 1313 1241 1325 1385
774 1 1314 1242 1321 1386
775 1 1315 1243 1327 1387
776 1 1316 1244 1359 1388
777 1 1317 1245 1367 1389
778 1 1318 1246 1358 1390
779 1 1319 1247 1364 1391
780 1 1320 1248 1324 1392
781 1 1321 1249 1314 1393
782 1 1322 1250 1354 1394
783 1 1323 1251 1352 1395
784 1 1324 1252 1320 1396
785 1 1325 1253 1313 1397
786 1 1326 1254 1309 1398
787 1 1327 1255 1315 1399
788 1 1328 1256 1355 1400
789 1 1329 1257 1347 1401
790 1 1330 1258 1346 1402
791 1 1331 1259 1353 1403
792 1 1332 1260 1312 1404
793 2 521 1261 569 581
794 2 1339 1262 1387 1399
795 2 1341 1263 1389 1427
796 2 1343 1264 1400 1415
797 2 1542 1265 1590 1597
798 2 925 1266 973 990
799 2 1342 1267 1394 1414
800 2 1336 1268 1384 1404
801 2 1344 1269 1392 1396
802 2 926 1270 994 998
803 2 1340 1271 1388 1419
804 2 927 1272 975 1017
805 1 1345 1273 1362 1405
806 1 1346 1274 1330 1406
807 1 1347 1275 1329 1407
808 1 1348 1276 1368 1408
809 1 1349 1277 1361 1409
810 1 1350 1278 1357 1410
811 1 1351 1279 1363 1411
812 1 1352 1280 1323 1412
813 1 1353 1281 1331 1413
814 1 1354 1282 1322 1414
815 1 1355 1283 1328 1415
816 1 1356 1284 1360 1416
817 1 1357 1285 1350 1417
818 1 1358 1286 1318 1418
819 1 1359 1287 1316 1419
820 1 1360 1288 1356 1420
821 1 1361 1289 1349 1421
822 1 1362 1290 1345 1422
823 1 1363 1291 1351 1423
824 1 1364 1292 1319 1424
825 1 1365 1293 1311 1425
826 1 1366 1294 1310 1426
827 1 1367 1295 1317 1427
828 1 1368 1296 1348 1428
829 2 1373 1297 1409 1421
830 2 559 1298 595 607
831 2 561 1299 587 597
832 2 563 1300 575 608
833 2 1374 1301 1410 1417
834 2 1369 1302 1405 1422
835 2 1582 1303 1594 1622
836 2 964 1304 1000 1020
837 2 1584 1305 1620 1624
838 2 1370 1306 1382 1426
839 2 1580 1307 1599 1616
840 2 1371 1308 1401 1407
841 3 1179 1429 1107 1131
842 3 1195 1429 1123 1135
843 3 1585 1429 1513 1537
844 3 1604 1429 1532 1547
845 3 772 1430 700 724
846 3 791 1430 719 765
847 3 1586 1430 1514 1574
848 3 1601 1430 1529 1541
849 3 779 1431 707 767
850 3 784 1431 712 732
851 3 1589 1431 1517 1541
852 3 1598 1431 1526 1546
853 3 1390 1432 1318 1378
854 3 1404 1432 1332 1336
855 3 1590 1432 1518 1542
856 3 1605 1432 1533 1575
857 3 1387 1433 1315 1339
858 3 1395 1433 1323 1376
859 3 1593 1433 1521 1545
860 3 1597 1433 1525 1542
861 3 1188 1434 1116 1140
862 3 1198 1434 1126 1130
863 3 1592 1434 1520 1544
864 3 1602 1434 1530 1537
865 3 795 1435 735 759
866 3 812 1435 752 767
867 3 1609 1435 1549 1573
868 3 1627 1435 1567 1579
869 3 1202 1436 1130 1142
870 3 1223 1436 1137 1163
871 3 1612 1436 1552 1576
872 3 1625 1436 1565 1577
873 3 1415 1437 1343 1355
874 3 1418 1437 1358 1378
875 3 1613 1437 1553 1577
876 3 1624 1437 1564 1584
877 3 1210 1438 1138 1150
878 3 1221 1438 1131 1161
879 3 1614 1438 1554 1578
880 3 1632 1438 1572 1576
881 3 801 1439 741 765
882 3 807 1439 728 747
883 3 1615 1439 1555 1579
884 3 1621 1439 1561 1578
885 3 1412 1440 1352 1376
886 3 1426 1440 1366 1370
887 3 1620 1440 1560 1584
888 3 1626 1440 1566 1573
889 1 1513 1441 1530 1585
890 1 1514 1442 1570 1586
891 1 1515 1443 1569 1587
892 1 1516 1444 1536 1588
893 1 1517 1445 1529 1589
894 1 1518 1446 1525 1590
895 1 1519 1447 1531 1591
896 1 1520 1448 1563 1592
897 1 1521 1449 1571 1593
898 1 1522 1450 1562 1594
899 1 1523 1451 1568 1595
900 1 1524 1452 1528 1596
901 1 1525 1453 1518 1597
902 1 1526 1454 1558 1598
903 1 1527 1455 1556 1599
904 1 1528 1456 1524 1600
905 1 1529 1457 1517 1601
906 1 1530 1458 1513 1602
907 1 1531 1459 1519 1603
908 1 1532 1460 1559 1604
909 1 1533 1461 1551 1605
910 1 1534 1462 1550 1606
911 1 1535 1463 1557 1607
912 1 1536 1464 1516 1608
913 2 725 1465 773 785
914 2 1543 1466 1591 1603
915 2 1545 1467 1593 1631
916 2 1547 1468 1604 1619
917 2 1338 1469 1386 1393
918 2 1129 1470 1177 1194
919 2 1546 1471 1598 1618
920 2 1540 1472 1588 1608
921 2 1548 1473 1596 1600
922 2 1130 1474 1198 1202
923 2 1544 1475 1592 1623
924 2 1131 1476 1179 1221
925 1 1549 1477 1566 1609
926 1 1550 1478 1534 1610
927 1 1551 1479 1533 1611
928 1 1552 1480 1572 1612
929 1 1553 1481 1565 1613
930 1 1554 1482 1561 1614
931 1 1555 1483 1567 1615
932 1 1556 1484 1527 1616
933 1 1557 1485 1535 1617
934 1 1558 1486 1526 1618
935 1 1559 1487 1532 1619
936 1 1560 1488 1564 1620
937 1 1561 1489 1554 1621
938 1 1562 1490 1522 1622
939 1 1563 1491 1520 1623
940 1 1564 1492 1560 1624
941 1 1565 1493 1553 1625
942 1 1566 1494 1549 1626
943 1 1567 1495 1555 1627
944 1 1568 1496 1523 1628
945 1 1569 1497 1515 1629
946 1 1570 1498 1514 1630
947 1 1571 1499 1521 1631
948 1 1572 1500 1552 1632
949 2 1577 1501 1613 1625
950 2 763 1502 799 811
951 2 765 1503 791 801
952 2 767 1504 779 812
953 2 1578 1505 1614 1621
954 2 1573 1506 1609 1626
955 2 1378 1507 1390 1418
956 2 1168 1508 1204 1224
957 2 1380 1509 1416 1420
958 2 1574 1510 1586 1630
959 2 1376 1511 1395 1412
960 2 1575 1512 1605 1611
