Generated using phonoLAMMPS
1.0
       26.4422876453         0.0000000000         0.0000000000
        0.0000000000        26.4422876453         0.0000000000
        0.0000000000         0.0000000000        26.4422876453
C H O Zn 
192 96 104 32
Direct
0.098062305303702   0.238460006685775   0.238460006685775
0.041972807958116   0.238460006685775   0.238460006685775
0.014889816951522   0.270827462983936   0.206092550387615
0.098062305303702   0.738460006685775   0.738460006685775
0.041972807958116   0.738460006685775   0.738460006685775
0.014889816951522   0.706092550387615   0.770827462983935
0.014889816951522   0.770827462983935   0.706092550387615
0.014889816951522   0.206092550387615   0.270827462983936
0.238460006685775   0.098062305303702   0.238460006685775
0.238460006685775   0.041972807958116   0.238460006685776
0.206092550387615   0.014889816951522   0.270827462983936
0.738460006685775   0.098062305303702   0.738460006685775
0.738460006685775   0.041972807958116   0.738460006685775
0.770827462983935   0.014889816951522   0.706092550387615
0.270827462983936   0.014889816951522   0.206092550387615
0.706092550387615   0.014889816951522   0.770827462983935
0.238460006685775   0.238460006685775   0.098062305303702
0.238460006685775   0.238460006685775   0.041972807958116
0.270827462983936   0.206092550387615   0.014889816951522
0.738460006685775   0.738460006685775   0.098062305303701
0.738460006685775   0.738460006685775   0.041972807958116
0.706092550387615   0.770827462983935   0.014889816951522
0.238460006685776   0.738460006685775   0.098062305303702
0.238460006685776   0.738460006685775   0.041972807958116
0.206092550387615   0.706092550387615   0.014889816951522
0.738460006685775   0.238460006685776   0.098062305303702
0.738460006685775   0.238460006685776   0.041972807958116
0.770827462983935   0.270827462983936   0.014889816951522
0.238460006685776   0.098062305303702   0.738460006685775
0.238460006685776   0.041972807958116   0.738460006685775
0.270827462983936   0.014889816951522   0.770827462983936
0.738460006685775   0.098062305303702   0.238460006685776
0.738460006685775   0.041972807958116   0.238460006685776
0.706092550387615   0.014889816951522   0.206092550387615
0.738460006685775   0.878857708067849   0.738460006685775
0.738460006685775   0.934947205413435   0.738460006685775
0.706092550387615   0.962030196420029   0.770827462983935
0.238460006685775   0.878857708067849   0.238460006685776
0.238460006685775   0.934947205413435   0.238460006685776
0.270827462983936   0.962030196420029   0.206092550387615
0.098062305303701   0.238460006685776   0.738460006685775
0.041972807958116   0.238460006685776   0.738460006685775
0.014889816951522   0.206092550387615   0.706092550387615
0.098062305303702   0.738460006685775   0.238460006685775
0.041972807958116   0.738460006685775   0.238460006685775
0.014889816951522   0.770827462983936   0.270827462983936
0.878857708067849   0.238460006685776   0.238460006685776
0.934947205413435   0.238460006685776   0.238460006685775
0.962030196420029   0.206092550387615   0.270827462983936
0.878857708067849   0.738460006685775   0.738460006685775
0.934947205413435   0.738460006685775   0.738460006685775
0.962030196420029   0.770827462983935   0.706092550387615
0.270827462983936   0.770827462983936   0.014889816951522
0.706092550387615   0.206092550387615   0.014889816951522
0.962030196420029   0.706092550387615   0.770827462983936
0.962030196420029   0.270827462983936   0.206092550387615
0.014889816951522   0.270827462983936   0.770827462983936
0.014889816951522   0.706092550387615   0.206092550387615
0.770827462983935   0.962030196420029   0.706092550387615
0.206092550387615   0.962030196420029   0.270827462983936
0.770827462983935   0.014889816951522   0.270827462983936
0.206092550387615   0.014889816951522   0.706092550387615
0.770827462983935   0.706092550387615   0.014889816951522
0.206092550387615   0.270827462983936   0.014889816951522
0.238460006685775   0.738460006685775   0.598062305303702
0.238460006685775   0.738460006685775   0.541972807958116
0.270827462983936   0.706092550387615   0.514889816951522
0.738460006685775   0.238460006685776   0.598062305303702
0.738460006685775   0.238460006685776   0.541972807958116
0.706092550387615   0.270827462983936   0.514889816951522
0.738460006685775   0.738460006685775   0.378857708067849
0.738460006685775   0.738460006685775   0.434947205413435
0.706092550387615   0.706092550387615   0.462030196420029
0.238460006685775   0.238460006685775   0.378857708067849
0.238460006685775   0.238460006685775   0.434947205413435
0.270827462983936   0.270827462983936   0.462030196420029
0.238460006685775   0.598062305303702   0.738460006685775
0.238460006685776   0.541972807958116   0.738460006685775
0.206092550387615   0.514889816951522   0.770827462983936
0.738460006685775   0.598062305303702   0.238460006685776
0.738460006685775   0.541972807958116   0.238460006685776
0.770827462983936   0.514889816951522   0.206092550387615
0.238460006685775   0.378857708067849   0.238460006685775
0.238460006685775   0.434947205413435   0.238460006685775
0.206092550387615   0.462030196420029   0.206092550387615
0.738460006685775   0.378857708067849   0.738460006685775
0.738460006685775   0.434947205413435   0.738460006685775
0.770827462983936   0.462030196420029   0.770827462983936
0.238460006685776   0.738460006685775   0.378857708067849
0.238460006685776   0.738460006685775   0.434947205413435
0.206092550387615   0.770827462983935   0.462030196420029
0.738460006685775   0.238460006685776   0.378857708067849
0.738460006685775   0.238460006685776   0.434947205413435
0.770827462983935   0.206092550387615   0.462030196420029
0.238460006685775   0.238460006685775   0.598062305303702
0.238460006685775   0.238460006685775   0.541972807958116
0.206092550387615   0.206092550387615   0.514889816951522
0.738460006685775   0.738460006685775   0.598062305303702
0.738460006685775   0.738460006685775   0.541972807958116
0.770827462983936   0.770827462983936   0.514889816951522
0.238460006685776   0.598062305303702   0.238460006685776
0.238460006685776   0.541972807958116   0.238460006685775
0.270827462983936   0.514889816951522   0.270827462983936
0.738460006685775   0.598062305303702   0.738460006685775
0.738460006685775   0.541972807958116   0.738460006685775
0.706092550387615   0.514889816951522   0.706092550387615
0.738460006685775   0.378857708067849   0.238460006685775
0.738460006685775   0.434947205413435   0.238460006685775
0.706092550387615   0.462030196420029   0.270827462983936
0.238460006685775   0.378857708067849   0.738460006685775
0.238460006685775   0.434947205413435   0.738460006685775
0.270827462983936   0.462030196420029   0.706092550387615
0.706092550387615   0.270827462983936   0.462030196420029
0.270827462983936   0.706092550387615   0.462030196420029
0.270827462983936   0.270827462983936   0.514889816951522
0.706092550387615   0.706092550387615   0.514889816951522
0.770827462983935   0.462030196420029   0.206092550387615
0.206092550387615   0.462030196420029   0.770827462983936
0.770827462983936   0.514889816951522   0.770827462983936
0.206092550387615   0.514889816951522   0.206092550387615
0.770827462983936   0.206092550387615   0.514889816951522
0.206092550387615   0.770827462983935   0.514889816951522
0.770827462983936   0.770827462983936   0.462030196420029
0.206092550387615   0.206092550387615   0.462030196420029
0.706092550387615   0.462030196420029   0.706092550387615
0.270827462983936   0.462030196420029   0.270827462983936
0.270827462983936   0.514889816951522   0.706092550387615
0.706092550387615   0.514889816951522   0.270827462983936
0.598062305303702   0.238460006685775   0.738460006685775
0.541972807958116   0.238460006685775   0.738460006685775
0.514889816951522   0.270827462983936   0.706092550387615
0.598062305303702   0.738460006685775   0.238460006685776
0.541972807958116   0.738460006685775   0.238460006685776
0.514889816951522   0.706092550387615   0.270827462983936
0.378857708067849   0.738460006685775   0.738460006685775
0.434947205413435   0.738460006685775   0.738460006685775
0.462030196420029   0.706092550387615   0.706092550387615
0.378857708067849   0.238460006685775   0.238460006685776
0.434947205413435   0.238460006685775   0.238460006685776
0.462030196420029   0.270827462983936   0.270827462983936
0.598062305303702   0.238460006685776   0.238460006685775
0.541972807958116   0.238460006685775   0.238460006685775
0.514889816951522   0.206092550387615   0.206092550387615
0.598062305303702   0.738460006685775   0.738460006685775
0.541972807958116   0.738460006685775   0.738460006685775
0.514889816951522   0.770827462983936   0.770827462983936
0.378857708067849   0.238460006685776   0.738460006685775
0.434947205413435   0.238460006685776   0.738460006685775
0.462030196420029   0.206092550387615   0.770827462983936
0.378857708067849   0.738460006685775   0.238460006685776
0.434947205413435   0.738460006685775   0.238460006685775
0.462030196420029   0.770827462983936   0.206092550387615
0.462030196420029   0.706092550387615   0.270827462983936
0.462030196420029   0.270827462983936   0.706092550387615
0.514889816951522   0.270827462983936   0.270827462983936
0.514889816951522   0.706092550387615   0.706092550387615
0.462030196420029   0.770827462983936   0.770827462983936
0.462030196420029   0.206092550387615   0.206092550387615
0.514889816951522   0.770827462983936   0.206092550387615
0.514889816951522   0.206092550387615   0.770827462983936
0.738460006685775   0.238460006685775   0.878857708067849
0.738460006685775   0.238460006685776   0.934947205413435
0.706092550387615   0.206092550387615   0.962030196420029
0.238460006685775   0.738460006685775   0.878857708067849
0.238460006685775   0.738460006685775   0.934947205413435
0.270827462983936   0.770827462983936   0.962030196420029
0.238460006685775   0.238460006685775   0.878857708067849
0.238460006685775   0.238460006685776   0.934947205413435
0.206092550387615   0.270827462983936   0.962030196420029
0.738460006685775   0.738460006685775   0.878857708067849
0.738460006685775   0.738460006685775   0.934947205413435
0.770827462983935   0.706092550387615   0.962030196420029
0.706092550387615   0.770827462983935   0.962030196420029
0.270827462983936   0.206092550387615   0.962030196420029
0.770827462983935   0.270827462983936   0.962030196420029
0.206092550387615   0.706092550387615   0.962030196420029
0.238460006685775   0.878857708067849   0.738460006685775
0.238460006685775   0.934947205413435   0.738460006685775
0.206092550387615   0.962030196420029   0.706092550387615
0.738460006685775   0.878857708067849   0.238460006685775
0.738460006685775   0.934947205413435   0.238460006685775
0.770827462983935   0.962030196420029   0.270827462983936
0.706092550387615   0.962030196420029   0.206092550387615
0.270827462983936   0.962030196420029   0.770827462983936
0.878857708067849   0.738460006685775   0.238460006685775
0.934947205413435   0.738460006685775   0.238460006685775
0.962030196420029   0.706092550387615   0.206092550387615
0.878857708067849   0.238460006685775   0.738460006685775
0.934947205413435   0.238460006685775   0.738460006685775
0.962030196420028   0.270827462983936   0.770827462983936
0.962030196420029   0.770827462983936   0.270827462983936
0.962030196420029   0.206092550387615   0.706092550387615
0.034468915228409   0.296268936187784   0.180651077183767
0.034468915228409   0.680651077183766   0.796268936187784
0.034468915228408   0.796268936187784   0.680651077183766
0.034468915228409   0.180651077183767   0.296268936187784
0.180651077183767   0.034468915228409   0.296268936187784
0.796268936187784   0.034468915228409   0.680651077183766
0.296268936187784   0.034468915228409   0.180651077183767
0.680651077183766   0.034468915228409   0.796268936187784
0.296268936187784   0.180651077183767   0.034468915228409
0.680651077183766   0.796268936187784   0.034468915228409
0.180651077183767   0.680651077183766   0.034468915228409
0.796268936187784   0.296268936187785   0.034468915228409
0.296268936187784   0.034468915228409   0.796268936187784
0.680651077183766   0.034468915228409   0.180651077183767
0.680651077183766   0.942451098143142   0.796268936187784
0.296268936187784   0.942451098143142   0.180651077183767
0.034468915228409   0.180651077183767   0.680651077183766
0.034468915228409   0.796268936187784   0.296268936187784
0.942451098143142   0.180651077183767   0.296268936187784
0.942451098143142   0.796268936187784   0.680651077183766
0.296268936187784   0.796268936187784   0.034468915228409
0.680651077183766   0.180651077183767   0.034468915228409
0.942451098143142   0.680651077183766   0.796268936187784
0.942451098143142   0.296268936187784   0.180651077183767
0.034468915228408   0.296268936187784   0.796268936187784
0.034468915228409   0.680651077183766   0.180651077183767
0.796268936187784   0.942451098143142   0.680651077183766
0.180651077183767   0.942451098143142   0.296268936187784
0.796268936187784   0.034468915228409   0.296268936187785
0.180651077183767   0.034468915228409   0.680651077183766
0.796268936187784   0.680651077183766   0.034468915228409
0.180651077183767   0.296268936187784   0.034468915228409
0.296268936187784   0.680651077183766   0.534468915228408
0.680651077183767   0.296268936187785   0.534468915228409
0.680651077183766   0.680651077183766   0.442451098143142
0.296268936187784   0.296268936187784   0.442451098143142
0.180651077183767   0.534468915228408   0.796268936187784
0.796268936187784   0.534468915228408   0.180651077183767
0.180651077183767   0.442451098143142   0.180651077183767
0.796268936187784   0.442451098143143   0.796268936187784
0.180651077183766   0.796268936187784   0.442451098143143
0.796268936187784   0.180651077183767   0.442451098143142
0.180651077183767   0.180651077183767   0.534468915228408
0.796268936187784   0.796268936187784   0.534468915228409
0.296268936187784   0.534468915228408   0.296268936187784
0.680651077183766   0.534468915228408   0.680651077183766
0.680651077183766   0.442451098143142   0.296268936187784
0.296268936187784   0.442451098143142   0.680651077183766
0.680651077183766   0.296268936187784   0.442451098143143
0.296268936187784   0.680651077183766   0.442451098143142
0.296268936187784   0.296268936187784   0.534468915228408
0.680651077183766   0.680651077183766   0.534468915228408
0.796268936187784   0.442451098143142   0.180651077183767
0.180651077183767   0.442451098143142   0.796268936187784
0.796268936187784   0.534468915228409   0.796268936187784
0.180651077183767   0.534468915228408   0.180651077183767
0.796268936187784   0.180651077183767   0.534468915228408
0.180651077183767   0.796268936187784   0.534468915228408
0.796268936187784   0.796268936187784   0.442451098143142
0.180651077183767   0.180651077183767   0.442451098143142
0.680651077183766   0.442451098143142   0.680651077183766
0.296268936187784   0.442451098143142   0.296268936187784
0.296268936187784   0.534468915228408   0.680651077183766
0.680651077183766   0.534468915228408   0.296268936187784
0.534468915228408   0.296268936187784   0.680651077183766
0.534468915228408   0.680651077183766   0.296268936187784
0.442451098143142   0.680651077183766   0.680651077183766
0.442451098143142   0.296268936187784   0.296268936187784
0.534468915228408   0.180651077183767   0.180651077183767
0.534468915228408   0.796268936187784   0.796268936187784
0.442451098143142   0.180651077183767   0.796268936187784
0.442451098143142   0.796268936187784   0.180651077183767
0.442451098143142   0.680651077183766   0.296268936187784
0.442451098143142   0.296268936187784   0.680651077183766
0.534468915228409   0.296268936187784   0.296268936187784
0.534468915228408   0.680651077183766   0.680651077183766
0.442451098143142   0.796268936187784   0.796268936187784
0.442451098143142   0.180651077183767   0.180651077183767
0.534468915228408   0.796268936187784   0.180651077183767
0.534468915228408   0.180651077183767   0.796268936187784
0.680651077183766   0.180651077183767   0.942451098143143
0.296268936187784   0.796268936187784   0.942451098143142
0.180651077183767   0.296268936187784   0.942451098143142
0.796268936187784   0.680651077183766   0.942451098143142
0.680651077183766   0.796268936187784   0.942451098143142
0.296268936187784   0.180651077183767   0.942451098143142
0.796268936187784   0.296268936187784   0.942451098143142
0.180651077183767   0.680651077183766   0.942451098143143
0.180651077183767   0.942451098143143   0.680651077183766
0.796268936187784   0.942451098143142   0.296268936187784
0.680651077183766   0.942451098143142   0.180651077183767
0.296268936187784   0.942451098143143   0.796268936187784
0.942451098143142   0.680651077183766   0.180651077183767
0.942451098143142   0.296268936187784   0.796268936187784
0.942451098143142   0.796268936187784   0.296268936187784
0.942451098143142   0.180651077183767   0.680651077183766
0.121719506792531   0.268134506508434   0.208785506863117
0.121719506792531   0.708785506863117   0.768134506508434
0.121719506792531   0.768134506508433   0.708785506863117
0.121719506792531   0.208785506863117   0.268134506508434
0.208785506863117   0.121719506792531   0.268134506508434
0.768134506508433   0.121719506792531   0.708785506863117
0.268134506508434   0.121719506792531   0.208785506863117
0.708785506863117   0.121719506792531   0.768134506508433
0.238460006685775   0.238460006685775   0.238460006685775
0.268134506508434   0.208785506863117   0.121719506792531
0.738460006685775   0.738460006685775   0.238460006685775
0.708785506863117   0.768134506508433   0.121719506792531
0.738460006685775   0.238460006685775   0.738460006685775
0.238460006685775   0.738460006685775   0.738460006685775
0.238460006685775   0.238460006685775   0.738460006685775
0.738460006685775   0.738460006685775   0.738460006685775
0.238460006685776   0.738460006685775   0.238460006685775
0.208785506863117   0.708785506863117   0.121719506792531
0.738460006685775   0.238460006685775   0.238460006685776
0.768134506508433   0.268134506508434   0.121719506792531
0.268134506508434   0.121719506792531   0.768134506508433
0.708785506863117   0.121719506792531   0.208785506863117
0.708785506863117   0.855200506579019   0.768134506508433
0.268134506508434   0.855200506579019   0.208785506863117
0.121719506792531   0.208785506863117   0.708785506863117
0.121719506792531   0.768134506508433   0.268134506508434
0.855200506579019   0.208785506863117   0.268134506508434
0.855200506579019   0.768134506508433   0.708785506863117
0.268134506508434   0.768134506508434   0.121719506792531
0.708785506863117   0.208785506863117   0.121719506792531
0.855200506579019   0.708785506863117   0.768134506508433
0.855200506579019   0.268134506508434   0.208785506863117
0.121719506792531   0.268134506508434   0.768134506508434
0.121719506792531   0.708785506863117   0.208785506863117
0.768134506508434   0.855200506579019   0.708785506863117
0.208785506863117   0.855200506579019   0.268134506508434
0.768134506508433   0.121719506792531   0.268134506508434
0.208785506863117   0.121719506792531   0.708785506863117
0.768134506508433   0.708785506863117   0.121719506792531
0.208785506863117   0.268134506508434   0.121719506792531
0.268134506508434   0.708785506863117   0.621719506792531
0.708785506863117   0.268134506508434   0.621719506792531
0.708785506863117   0.708785506863117   0.355200506579020
0.268134506508434   0.268134506508434   0.355200506579020
0.208785506863117   0.621719506792531   0.768134506508433
0.768134506508433   0.621719506792531   0.208785506863117
0.208785506863117   0.355200506579020   0.208785506863117
0.768134506508434   0.355200506579020   0.768134506508434
0.208785506863117   0.768134506508433   0.355200506579020
0.768134506508433   0.208785506863117   0.355200506579020
0.208785506863117   0.208785506863117   0.621719506792531
0.768134506508433   0.768134506508433   0.621719506792531
0.268134506508434   0.621719506792531   0.268134506508434
0.708785506863117   0.621719506792531   0.708785506863117
0.708785506863117   0.355200506579020   0.268134506508434
0.268134506508434   0.355200506579020   0.708785506863117
0.708785506863117   0.268134506508434   0.355200506579020
0.268134506508434   0.708785506863117   0.355200506579020
0.268134506508434   0.268134506508434   0.621719506792531
0.708785506863117   0.708785506863117   0.621719506792531
0.768134506508433   0.355200506579020   0.208785506863117
0.208785506863117   0.355200506579020   0.768134506508434
0.768134506508433   0.621719506792531   0.768134506508433
0.208785506863117   0.621719506792531   0.208785506863117
0.768134506508434   0.208785506863117   0.621719506792531
0.208785506863117   0.768134506508433   0.621719506792531
0.768134506508434   0.768134506508434   0.355200506579020
0.208785506863117   0.208785506863117   0.355200506579020
0.708785506863117   0.355200506579020   0.708785506863117
0.268134506508434   0.355200506579020   0.268134506508434
0.268134506508434   0.621719506792532   0.708785506863117
0.708785506863117   0.621719506792531   0.268134506508434
0.621719506792531   0.268134506508434   0.708785506863117
0.621719506792531   0.708785506863117   0.268134506508434
0.355200506579020   0.708785506863117   0.708785506863117
0.355200506579020   0.268134506508434   0.268134506508434
0.621719506792531   0.208785506863117   0.208785506863117
0.621719506792531   0.768134506508433   0.768134506508433
0.355200506579020   0.208785506863117   0.768134506508434
0.355200506579020   0.768134506508434   0.208785506863117
0.355200506579020   0.708785506863117   0.268134506508434
0.355200506579020   0.268134506508434   0.708785506863117
0.621719506792531   0.268134506508434   0.268134506508434
0.621719506792531   0.708785506863117   0.708785506863117
0.355200506579020   0.768134506508434   0.768134506508434
0.355200506579020   0.208785506863117   0.208785506863117
0.621719506792531   0.768134506508433   0.208785506863117
0.621719506792531   0.208785506863117   0.768134506508433
0.708785506863117   0.208785506863117   0.855200506579019
0.268134506508433   0.768134506508433   0.855200506579019
0.855200506579019   0.708785506863117   0.208785506863117
0.855200506579019   0.268134506508433   0.768134506508433
0.208785506863117   0.855200506579019   0.708785506863117
0.768134506508434   0.855200506579019   0.268134506508434
0.208785506863117   0.268134506508434   0.855200506579019
0.768134506508433   0.708785506863117   0.855200506579019
0.708785506863117   0.768134506508434   0.855200506579019
0.268134506508434   0.208785506863117   0.855200506579019
0.768134506508433   0.268134506508434   0.855200506579019
0.208785506863117   0.708785506863117   0.855200506579019
0.708785506863117   0.855200506579019   0.208785506863117
0.268134506508433   0.855200506579020   0.768134506508434
0.855200506579019   0.768134506508433   0.268134506508434
0.855200506579019   0.208785506863117   0.708785506863117
0.195679761316753   0.281240252054798   0.195679761316753
0.195679761316753   0.695679761316753   0.781240252054798
0.195679761316753   0.195679761316753   0.281240252054798
0.195679761316753   0.781240252054798   0.695679761316753
0.281240252054798   0.195679761316753   0.195679761316753
0.695679761316753   0.195679761316753   0.781240252054798
0.781240252054798   0.195679761316753   0.695679761316753
0.695679761316753   0.781240252054798   0.195679761316753
0.281240252054798   0.781240252054798   0.781240252054798
0.781240252054797   0.695679761316753   0.195679761316753
0.781240252054798   0.281240252054798   0.781240252054798
0.781240252054798   0.781240252054798   0.281240252054798
0.195679761316753   0.281240252054798   0.781240252054798
0.781240252054797   0.695679761316753   0.781240252054798
0.195679761316753   0.695679761316753   0.195679761316753
0.781240252054798   0.281240252054798   0.195679761316753
0.281240252054798   0.195679761316753   0.781240252054798
0.695679761316753   0.195679761316753   0.195679761316753
0.695679761316753   0.781240252054798   0.781240252054798
0.281240252054798   0.781240252054798   0.195679761316753
0.195679761316753   0.195679761316753   0.695679761316753
0.195679761316753   0.781240252054798   0.281240252054798
0.781240252054798   0.195679761316753   0.281240252054798
0.781240252054798   0.781240252054798   0.695679761316753
0.281240252054798   0.695679761316753   0.695679761316753
0.695679761316753   0.281240252054798   0.695679761316753
0.695679761316753   0.695679761316753   0.281240252054798
0.281240252054798   0.281240252054798   0.281240252054798
0.281240252054798   0.695679761316753   0.281240252054798
0.695679761316753   0.695679761316753   0.695679761316753
0.695679761316753   0.281240252054798   0.281240252054798
0.281240252054798   0.281240252054798   0.695679761316753
