LAMMPS data file via write_data, version 15 Jun 2023, timestep = 100000, units = real

1632 atoms
6 atom types
1920 bonds
6 bond types
3456 angles
9 angle types
6144 dihedrals
13 dihedral types
960 impropers
3 improper types

0 33.942036 xlo xhi
0 33.942036 ylo yhi
0 33.942036 zlo zhi
0 0 0 xy xz yz

Masses

1 65.38
2 1.0079
3 1.0079
4 12.0107
5 12.0107
6 14.0067

Atoms # full

10 1 1 0.5212 8.48550878431342 1.274515994216905e-07 4.242754397058877 0 0 0
52 26 2 0.142 4.442349104642264 2.5192163930866474 6.4363387460982695 0 0 0
55 29 2 0.142 6.436338633353237 4.4423494477813765 2.5192161626952942 0 0 0
60 30 2 0.142 2.519216049950723 6.436338976491356 4.442349217389505 0 0 0
64 30 2 0.142 2.5192160499510474 4.442349447781754 6.436338746099287 0 0 0
67 29 2 0.142 4.442349104643633 6.436338976491145 2.5192161626955705 0 0 0
72 26 2 0.142 6.4363386333518955 2.51921639308729 4.442349217388545 0 0 0
73 27 3 0.1145 1.6327184435844544 1.6327187867214163 7.536129083435327 0 0 0
77 28 3 0.1145 7.536128970689748 1.632718786722144 1.6327185563292876 0 0 0
78 25 3 0.1145 1.6327184435839317 7.536129313827833 1.6327185563292863 0 0 0
124 26 4 -0.1504 5.235365226775527 1.7934429211614924 6.22033900522825 0 0 0
127 29 4 -0.1504 6.220338892483059 5.235365569914319 1.7934426907698346 0 0 0
132 30 4 -0.1504 1.7934425780250416 6.2203392356208695 5.235365339522162 0 0 0
136 30 4 -0.1504 1.793442578025201 5.23536556991427 6.2203390052288485 0 0 0
139 29 4 -0.1504 5.235365226776463 6.220339235621005 1.793442690769976 0 0 0
144 26 4 -0.1504 6.220338892482146 1.793442921161814 5.235365339521588 0 0 0
360 36 5 -0.0519 16.966668742043165 6.457228539743308 6.457228309351605 0 0 0
519 24 5 -0.0519 10.513789372020167 0.0043491697212461235 6.457228309352289 0 1 0
213 1 1 0.5212 16.971017784313748 4.2427546274507035 8.485508897058985 0 0 0
184 26 6 -0.1532 5.40181323176787 0.6548853353780466 6.998425478416214 0 0 0
187 29 6 -0.1532 6.998425365670699 5.401813574906075 0.6548851049860811 0 0 0
192 30 6 -0.1532 0.6548849922409008 6.998425708808036 5.401813344513471 0 0 0
196 30 6 -0.1532 0.6548849922411543 5.401813574905455 6.998425478416178 0 0 0
199 29 6 -0.1532 5.401813231768137 6.9984257088088 0.6548851049863195 0 0 0
204 26 6 -0.1532 6.998425365670475 0.6548853353785611 5.401813344513525 0 0 0
145 25 5 -0.0519 2.0282803720203644 8.48116008518097 2.0282804847659617 0 0 0
14 3 2 0.142 12.92785810464352 5.966292861813844 2.0491700480185013 0 0 0
32 16 2 0.142 12.927858104643297 2.049170278411495 5.9662926314225775 0 0 0
48 24 3 0.1145 10.118227443582668 0.9493799410735064 6.85279023778999 0 0 0
54 28 2 0.142 11.004725049950032 2.0491702784116854 4.043159576728425 0 0 0
59 16 2 0.142 14.92184763335304 4.043159807121132 5.966292631422495 0 0 0
61 28 2 0.142 11.004725049950112 4.043159807121212 2.049170048018589 0 0 0
70 3 2 0.142 14.921847633353083 5.9662928618135505 4.043159576728321 0 0 0
75 32 3 0.1145 10.118227443585164 6.852790468179702 0.9493797106827527 0 0 0
81 36 3 0.1145 16.021637970689348 6.852790468179009 6.85279023778739 0 0 0
86 3 4 -0.1504 13.720874226776337 6.69206633373938 2.265169788888875 0 0 0
104 16 4 -0.1504 13.720874226776317 2.265170019281542 6.692066103347994 0 0 0
193 28 6 -0.1532 9.140393992240707 3.08369567999681 1.487083315701257 0 0 0
126 28 4 -0.1504 10.278951578024463 2.2651700192818716 3.250143454595581 0 0 0
131 16 4 -0.1504 14.705847892482984 3.250143684988158 6.692066103347955 0 0 0
133 28 4 -0.1504 10.278951578024497 3.2501436849884415 2.2651697888888687 0 0 0
142 3 4 -0.1504 14.705847892482915 6.692066333739235 3.2501434545955843 0 0 0
202 3 6 -0.1532 15.483934365670564 7.8306239195230285 3.0836954496041598 0 0 0
150 28 5 -0.0519 8.481159742043012 2.0282807151585636 2.028280484765675 0 0 0
158 3 6 -0.1532 13.887322231768021 7.830623919523267 1.4870833157014163 0 0 0
176 16 6 -0.1532 13.887322231768222 1.4870835460936578 7.830623689131559 0 0 0
186 28 6 -0.1532 9.14039399224064 1.4870835460942917 3.0836954496040376 0 0 0
191 16 6 -0.1532 15.483934365670896 3.0836956799962607 7.830623689131497 0 0 0
8 1 1 0.5212 4.242754284313438 1.2745030828266662e-07 8.485508897058995 0 0 0
149 27 5 -0.0519 2.028280372020757 2.0282807151576536 8.481159854788702 0 0 0
1 1 1 0.5212 12.728263284313579 1.2745091033342707e-07 8.485508897058924 0 0 0
969 32 5 -0.0519 10.51378937202085 6.457228539743953 0.004348939328910455 0 0 1
518 23 5 -0.0519 6.457228196606413 0.004349169720959731 10.513789484766015 0 1 0
20 9 2 0.142 5.966292518676779 2.0491702784116637 12.927858217388795 0 0 0
33 17 2 0.142 2.049169935275605 5.966292861815464 12.927858217387643 0 0 0
46 23 3 0.1145 6.852790125042737 0.949379941074184 10.118227556329435 0 0 0
51 17 2 0.142 4.043159463985224 5.966292861815857 14.92184774609739 0 0 0
53 27 2 0.142 2.0491699352735697 4.043159807120013 11.004725162696039 0 0 0
63 9 2 0.142 5.9662925186767275 4.043159807121393 14.921847746098441 0 0 0
65 27 2 0.142 4.043159463983035 2.0491702784100903 11.004725162696102 0 0 0
74 31 3 0.1145 6.852790125042965 6.8527904681811975 16.021638083435544 0 0 0
79 34 3 0.1145 0.9493795979363031 6.852790468181117 10.118227556328625 0 0 0
92 9 4 -0.1504 6.692065990602296 2.265170019281853 13.720874339521684 0 0 0
105 17 4 -0.1504 2.2651696761452103 6.692066333740724 13.720874339520922 0 0 0
116 9 5 -0.0519 8.489857826583606 2.028280715158477 14.942737309351788 0 0 0
123 17 4 -0.1504 3.250143341851818 6.692066333740922 14.705848005227596 0 0 0
125 27 4 -0.1504 2.265169676143852 3.2501436849872793 10.278951690770377 0 0 0
135 9 4 -0.1504 6.6920659906022735 3.250143684988523 14.705848005228301 0 0 0
137 27 4 -0.1504 3.2501433418503796 2.2651700192805246 10.278951690770407 0 0 0
358 34 5 -0.0519 0.004348826583663659 6.457228539743937 10.513789484765754 1 0 0
112 5 5 -0.0519 14.942737196606643 8.481160085180797 14.942737309351699 0 0 0
164 9 6 -0.1532 7.830623576386007 1.4870835460941547 13.887322344513434 0 0 0
177 17 6 -0.1532 1.487083202956623 7.830623919523743 13.887322344513256 0 0 0
183 17 6 -0.1532 3.0836953368592246 7.830623919524075 15.483934478415936 0 0 0
185 27 6 -0.1532 1.487083202956438 3.0836956799959365 9.14039410498641 0 0 0
195 9 6 -0.1532 7.830623576385975 3.0836956799968473 15.483934478416034 0 0 0
197 27 6 -0.1532 3.0836953368588884 1.4870835460931042 9.140394104986465 0 0 0
179 19 6 -0.1532 11.569204336858906 6.99842570880858 16.316132689131166 0 0 0
6 1 1 0.5212 8.485508784313524 1.2745132791305354e-07 12.728263397058955 0 0 0
13 2 2 0.142 12.52866846398373 2.519216393087586 10.534679048019148 0 0 0
22 11 2 0.142 14.451801518678137 6.436338976488964 12.528668576730409 0 0 0
30 2 2 0.142 10.534678935274053 2.519216393087845 12.528668576728839 0 0 0
35 19 2 0.142 12.528668463982626 6.436338976491703 14.451801631421278 0 0 0
40 16 3 0.1145 15.33829912504338 1.6327187867211574 9.434888710682104 0 0 0
44 5 3 0.1145 15.338299125042983 7.536129313827524 15.338299237788148 0 0 0
47 9 3 0.1145 9.434888597936785 1.6327187867219948 15.338299237788316 0 0 0
57 19 2 0.142 10.534678935272751 4.442349447782186 14.45180163142136 0 0 0
62 11 2 0.142 14.451801518678112 4.442349447779251 10.534679048020758 0 0 0
85 2 4 -0.1504 11.735652341850784 1.7934429211621352 10.75067878888934 0 0 0
94 11 4 -0.1504 15.17757499060328 6.220339235619266 11.735652454597048 0 0 0
102 2 4 -0.1504 10.750678676144144 1.7934429211622651 11.735652454595984 0 0 0
107 19 4 -0.1504 11.73565234185005 6.220339235621305 15.177575103347076 0 0 0
189 19 6 -0.1532 9.972592202956127 5.4018135749060745 16.316132689131237 0 0 0
129 19 4 -0.1504 10.750678676143316 5.235365569914756 15.177575103347111 0 0 0
134 11 4 -0.1504 15.17757499060327 5.235365569912606 10.750678788890427 0 0 0
174 2 6 -0.1532 9.9725922029563 0.6548853353786435 11.56920444960429 0 0 0
194 11 6 -0.1532 16.316132576386337 5.401813574905067 9.972592315701934 0 0 0
157 2 6 -0.1532 11.569204336858975 0.6548853353784081 9.972592315701675 0 0 0
166 11 6 -0.1532 16.316132576386362 6.998425708807727 11.569204449604559 0 0 0
967 31 5 -0.0519 6.457228196606418 6.457228539744611 16.966668854788672 0 0 0
827 1 1 0.5212 8.485508784313366 4.242754627451523 16.971017897058776 0 0 0
119 16 5 -0.0519 14.942737196606709 2.0282807151578224 8.489857939329063 0 0 0
826 1 1 0.5212 8.48550878431335 1.2745151316139009e-07 21.213772397059014 0 0 0
868 134 2 0.142 4.442349104640491 2.5192163930853098 23.407356746096493 0 0 0
871 31 2 0.142 6.436338633353062 4.442349447781433 19.490234162695344 0 0 0
876 137 2 0.142 2.5192160499525675 6.43633897649326 21.41336721739163 0 0 0
880 137 2 0.142 2.519216049952731 4.442349447783757 23.407356746101534 0 0 0
883 31 2 0.142 4.442349104643392 6.436338976491142 19.49023416269547 0 0 0
888 134 2 0.142 6.436338633350241 2.519216393085807 21.41336721738691 0 0 0
889 135 3 0.1145 1.6327184435850066 1.6327187867222304 24.50714708343475 0 0 0
893 136 3 0.1145 7.536128970691141 1.6327187867205903 18.603736556327817 0 0 0
894 133 3 0.1145 1.6327184435850421 7.536129313827024 18.603736556330265 0 0 0
940 134 4 -0.1504 5.23536522677431 1.7934429211605687 23.191357005227136 0 0 0
943 31 4 -0.1504 6.220338892482916 5.23536556991438 18.764460690769877 0 0 0
948 137 4 -0.1504 1.7934425780263015 6.220339235622152 22.20638333952358 0 0 0
952 137 4 -0.1504 1.79344257802638 5.235365569915601 23.19135700523032 0 0 0
955 31 4 -0.1504 5.235365226776291 6.220339235621037 18.764460690769944 0 0 0
960 134 4 -0.1504 6.220338892480988 1.7934429211608172 22.20638333952053 0 0 0
1176 140 5 -0.0519 16.96666874204315 6.457228539743131 23.42824630935137 0 0 0
1335 132 5 -0.0519 10.51378937202007 0.0043491697210124875 23.42824630935253 0 1 0
1029 1 1 0.5212 16.971017784313773 4.242754627450784 25.45652689705901 0 0 0
1000 134 6 -0.1532 5.401813231767468 0.654885335377896 23.969443478416053 0 0 0
1003 31 6 -0.1532 6.998425365670658 5.401813574906179 17.6259031049862 0 0 0
1008 137 6 -0.1532 0.654884992241285 6.998425708808288 22.372831344513724 0 0 0
1012 137 6 -0.1532 0.6548849922413996 5.4018135749057805 23.9694434784165 0 0 0
1015 31 6 -0.1532 5.401813231768051 6.998425708808853 17.62590310498631 0 0 0
1020 134 6 -0.1532 6.9984253656701645 0.6548853353782887 22.372831344513457 0 0 0
961 133 5 -0.0519 2.0282803720207445 8.481160085180788 18.99929848476617 0 0 0
830 115 2 0.142 12.927858104646223 5.966292861811909 19.02018804801592 0 0 0
848 126 2 0.142 12.9278581046436 2.0491702784112853 22.937310631422342 0 0 0
864 132 3 0.1145 10.11822744358217 0.9493799410729094 23.82380823779073 0 0 0
870 136 2 0.142 11.004725049947783 2.049170278414335 21.01417757673147 0 0 0
875 126 2 0.142 14.921847633353188 4.043159807121071 22.937310631422317 0 0 0
877 136 2 0.142 11.00472504994793 4.043159807123992 19.0201880480218 0 0 0
886 115 2 0.142 14.921847633355794 5.9662928618115165 21.014177576725768 0 0 0
891 19 3 0.1145 10.118227443584702 6.852790468180323 17.92039771068252 0 0 0
897 140 3 0.1145 16.021637970688868 6.852790468178326 23.823808237786558 0 0 0
902 115 4 -0.1504 13.720874226778198 6.692066333738102 19.236187788887193 0 0 0
920 126 4 -0.1504 13.720874226776548 2.2651700192814284 23.663084103347813 0 0 0
1009 136 6 -0.1532 9.14039399224051 3.083695679997225 18.45810131570191 0 0 0
942 136 4 -0.1504 10.278951578022971 2.265170019283646 20.2211614545977 0 0 0
947 126 4 -0.1504 14.705847892483147 3.250143684988111 23.663084103347792 0 0 0
949 136 4 -0.1504 10.278951578023044 3.250143684990278 19.236187788891055 0 0 0
958 115 4 -0.1504 14.70584789248478 6.6920663337379045 20.2211614545939 0 0 0
1018 115 6 -0.1532 15.483934365671104 7.830623919522804 20.054713449603856 0 0 0
966 136 5 -0.0519 8.481159742043388 2.0282807151581768 18.99929848476547 0 0 0
974 115 6 -0.1532 13.887322231768556 7.830623919523136 18.458101315701125 0 0 0
992 126 6 -0.1532 13.887322231768417 1.4870835460936158 24.801641689131433 0 0 0
1002 136 6 -0.1532 9.140393992240366 1.487083546094613 20.0547134496046 0 0 0
1007 126 6 -0.1532 15.483934365671002 3.08369567999631 24.80164168913139 0 0 0
824 1 1 0.5212 4.242754284313205 1.2745027446399968e-07 25.456526897059014 0 0 0
965 135 5 -0.0519 2.0282803720207934 2.0282807151579014 25.452177854788577 0 0 0
817 1 1 0.5212 12.7282632843138 1.2745084625161666e-07 25.456526897058794 0 0 0
153 19 5 -0.0519 10.513789372020767 6.4572285397441505 16.975366939329014 0 0 0
1334 131 5 -0.0519 6.4572281966063825 0.004349169720884364 27.48480748476582 0 1 0
836 120 2 0.142 5.96629251867846 2.049170278413684 29.898876217386313 0 0 0
849 127 2 0.142 2.0491699352757093 5.966292861815522 29.89887621738769 0 0 0
862 131 3 0.1145 6.852790125042752 0.9493799410740456 27.089245556329143 0 0 0
867 127 2 0.142 4.043159463985274 5.966292861815879 31.892865746097492 0 0 0
869 135 2 0.142 2.049169935272256 4.043159807118789 27.975743162697103 0 0 0
879 120 2 0.142 5.966292518678289 4.043159807123426 31.89286574609592 0 0 0
881 135 2 0.142 4.04315946398163 2.0491702784087646 27.975743162697146 0 0 0
890 29 3 0.1145 6.852790125042905 6.852790468181093 32.99265608343543 0 0 0
895 138 3 0.1145 0.9493795979361399 6.852790468181224 27.08924555632867 0 0 0
908 120 4 -0.1504 6.69206599060338 2.2651700192831803 30.691892339519935 0 0 0
921 127 4 -0.1504 2.2651696761452733 6.692066333740752 30.691892339521015 0 0 0
932 120 5 -0.0519 8.48985782658324 2.0282807151581195 31.913755309351842 0 0 0
939 127 4 -0.1504 3.250143341851864 6.6920663337409385 31.6768660052277 0 0 0
941 135 4 -0.1504 2.265169676142924 3.2501436849864747 27.2499696907711 0 0 0
951 120 4 -0.1504 6.692065990603299 3.2501436849898604 31.676866005226533 0 0 0
953 135 4 -0.1504 3.2501433418494097 2.265170019279674 27.24996969077111 0 0 0
1174 138 5 -0.0519 0.004348826583558146 6.457228539743974 27.484807484765863 1 0 0
928 117 5 -0.0519 14.942737196606375 8.48116008518045 31.91375530935141 0 0 0
980 120 6 -0.1532 7.830623576386159 1.4870835460943708 30.858340344512865 0 0 0
993 127 6 -0.1532 1.4870832029566514 7.83062391952374 30.858340344513383 0 0 0
999 127 6 -0.1532 3.0836953368592415 7.830623919524066 32.454952478416075 0 0 0
1001 135 6 -0.1532 1.4870832029561614 3.083695679995837 26.11141210498658 0 0 0
1011 120 6 -0.1532 7.830623576386031 3.0836956799970814 32.45495247841545 0 0 0
1013 135 6 -0.1532 3.083695336858555 1.487083546092948 26.111412104986602 0 0 0
995 32 6 -0.1532 11.569204336858741 6.998425708808663 33.2871506891309 0 0 0
822 1 1 0.5212 8.485508784313591 1.274512702799803e-07 29.69928139705869 0 0 0
829 114 2 0.142 12.528668463984213 2.519216393087227 27.505697048019414 0 0 0
838 122 2 0.142 14.451801518678161 6.436338976488807 29.499686576730575 0 0 0
846 114 2 0.142 10.534678935274446 2.5192163930874236 29.49968657672902 0 0 0
851 32 2 0.142 12.52866846398168 6.436338976492648 31.422819631420342 0 0 0
856 126 3 0.1145 15.338299125043465 1.6327187867212725 26.40590671068206 0 0 0
860 117 3 0.1145 15.338299125041898 7.536129313826494 32.309317237787035 0 0 0
863 120 3 0.1145 9.43488859793563 1.6327187867207333 32.30931723778935 0 0 0
873 32 2 0.142 10.534678935271819 4.442349447783109 31.42281963142035 0 0 0
878 122 2 0.142 14.451801518678131 4.442349447779168 27.505697048020842 0 0 0
901 114 4 -0.1504 11.73565234185114 1.793442921161862 27.72169678888943 0 0 0
910 122 4 -0.1504 15.177574990603283 6.2203392356191625 28.70667045459718 0 0 0
918 114 4 -0.1504 10.750678676144451 1.7934429211619651 28.706670454596026 0 0 0
923 32 4 -0.1504 11.73565234184941 6.220339235621922 32.14859310334637 0 0 0
1005 32 6 -0.1532 9.972592202955965 5.40181357490616 33.2871506891309 0 0 0
945 32 4 -0.1504 10.750678676142682 5.235365569915361 32.14859310334637 0 0 0
950 122 4 -0.1504 15.177574990603272 5.235365569912535 27.72169678889053 0 0 0
990 114 6 -0.1532 9.972592202956436 0.6548853353784977 28.540222449604084 0 0 0
1010 122 6 -0.1532 16.316132576386305 5.401813574905062 26.943610315702003 0 0 0
973 114 6 -0.1532 11.569204336859185 0.6548853353783078 26.94361031570154 0 0 0
982 122 6 -0.1532 16.316132576386337 6.998425708807665 28.540222449604677 0 0 0
151 29 5 -0.0519 6.457228196606432 6.457228539744525 33.937686854788595 0 0 -1
11 1 1 0.5212 8.485508784313348 4.242754627451442 33.94203589705846 0 0 -1
935 126 5 -0.0519 14.942737196606833 2.0282807151578686 25.460875939328975 0 0 0
146 3 5 -0.0519 14.942737196606314 8.489858169720826 2.0282804847658964 0 0 0
21 10 2 0.142 2.0491699352737385 12.92785844778043 5.96629263142197 0 0 0
26 14 2 0.142 5.9662925186775935 12.927858447780816 2.049170048019648 0 0 0
49 25 2 0.142 4.043159463983182 11.00472539308793 2.049170048019707 0 0 0
58 14 2 0.142 5.966292518677426 14.921847976490607 4.043159576729231 0 0 0
66 25 2 0.142 2.049169935273363 11.004725393087545 4.043159576729266 0 0 0
71 10 2 0.142 4.043159463983605 14.92184797648994 5.966292631422173 0 0 0
76 33 3 0.1145 6.852790125044656 10.118227786720524 0.9493797106810126 0 0 0
80 35 3 0.1145 6.8527901250439545 16.021638313828273 6.852790237788956 0 0 0
83 37 3 0.1145 0.949379597937324 10.118227786722274 6.8527902377869925 0 0 0
93 10 4 -0.1504 2.265169676143902 13.720874569913287 6.6920661033475275 0 0 0
98 14 4 -0.1504 6.692065990602935 13.72087456991392 2.2651697888896223 0 0 0
216 1 1 0.5212 16.971017784313254 8.485509127450515 4.242754397058835 0 0 0
118 14 5 -0.0519 8.489857826583858 14.942737539744503 2.028280484765752 0 0 0
121 25 4 -0.1504 3.250143341850325 10.278951921162326 2.265169788889726 0 0 0
130 14 4 -0.1504 6.692065990602854 14.705848235620616 3.2501434545962096 0 0 0
138 25 4 -0.1504 2.26516967614362 10.278951921162133 3.2501434545963046 0 0 0
143 10 4 -0.1504 3.25014334185063 14.705848235619843 6.692066103347624 0 0 0
356 37 5 -0.0519 0.00434882658346017 10.51378971515796 6.457228309351303 1 0 0
165 10 6 -0.1532 1.4870832029560739 13.887322574905081 7.830623689131147 0 0 0
170 14 6 -0.1532 7.830623576386426 13.887322574905934 1.4870833157016565 0 0 0
181 25 6 -0.1532 3.0836953368587214 9.140394335378723 1.4870833157018377 0 0 0
190 14 6 -0.1532 7.830623576386299 15.483934708808656 3.0836954496042135 0 0 0
198 25 6 -0.1532 1.4870832029559762 9.140394335378408 3.08369544960438 0 0 0
203 10 6 -0.1532 3.0836953368588733 15.483934708807576 7.830623689131311 0 0 0
556 35 5 -0.0519 6.457228196606684 16.966669085180932 6.457228309351974 0 0 0
15 4 2 0.142 12.528668463984353 14.451801861815289 6.436338746097158 0 0 0
17 6 2 0.142 10.534678935273218 12.528668807120187 2.5192161626961735 0 0 0
27 15 2 0.142 14.451801518676241 12.52866880712028 6.436338746098664 0 0 0
29 6 2 0.142 12.528668463982816 10.534679278410405 2.5192161626960905 0 0 0
38 8 3 0.1145 15.338299125043516 15.338299468180828 7.536129083435997 0 0 0
43 14 3 0.1145 9.434888597936839 15.338299468181257 1.6327185563290265 0 0 0
56 15 2 0.142 14.4518015186762 10.534679278410495 4.442349217389054 0 0 0
69 4 2 0.142 10.534678935274716 14.4518018618157 4.442349217387436 0 0 0
82 3 3 0.1145 15.338299125042795 9.434888941074108 1.6327185563296085 0 0 0
87 4 4 -0.1504 11.735652341851177 15.177575333740624 6.220339005227432 0 0 0
89 6 4 -0.1504 10.750678676143668 11.735652684987647 1.793442690770354 0 0 0
99 15 4 -0.1504 15.177574990601848 11.735652684987492 6.220339005228406 0 0 0
101 6 4 -0.1504 11.735652341850262 10.750679019280955 1.7934426907703174 0 0 0
188 15 6 -0.1532 16.31613257638567 9.972592546093255 5.4018133445133785 0 0 0
173 6 6 -0.1532 11.569204336859013 9.972592546093795 0.6548851049861659 0 0 0
128 15 4 -0.1504 15.177574990601826 10.750679019280806 5.235365339521806 0 0 0
141 4 4 -0.1504 10.75067867614455 15.177575333740828 5.235365339520775 0 0 0
201 4 6 -0.1532 9.97259220295636 16.31613291952411 5.401813344513176 0 0 0
159 4 6 -0.1532 11.569204336858958 16.316132919523763 6.998425478415866 0 0 0
161 6 6 -0.1532 9.972592202956452 11.569204679996528 0.654885104986215 0 0 0
171 15 6 -0.1532 16.316132576385716 11.569204679995982 6.998425478415929 0 0 0
209 1 1 0.5212 16.97101778431327 12.728263627450614 8.485508897058606 0 0 0
115 8 5 -0.0519 14.9427371966065 14.942737539743822 8.481159854788753 0 0 0
971 33 5 -0.0519 6.457228196606998 10.513789715158167 0.004348939328789868 0 0 1
818 1 1 0.5212 12.728263284313757 8.485509127451088 16.971017897058736 0 0 0
180 5 6 -0.1532 15.483934365671045 9.140394335378382 13.88732234451338 0 0 0
18 7 2 0.142 2.5192160499512815 10.53467927840977 12.528668576727066 0 0 0
23 12 2 0.142 6.436338633352125 12.52866880712285 14.451801631423319 0 0 0
25 7 2 0.142 2.5192160499510723 12.528668807119393 10.534679048017285 0 0 0
34 18 2 0.142 6.436338633353879 14.451801861814042 12.528668576728741 0 0 0
39 10 3 0.1145 1.632718443583829 15.338299468179937 9.434888710681957 0 0 0
45 13 3 0.1145 7.53612897068952 15.338299468179853 15.33829923778764 0 0 0
50 18 2 0.142 4.442349104644205 14.451801861813557 10.534679048019049 0 0 0
68 12 2 0.142 4.4423491046422265 10.53467927841339 14.451801631423352 0 0 0
84 17 3 0.1145 1.6327184435831859 9.434888941073881 15.338299237788972 0 0 0
90 7 4 -0.1504 1.7934425780253151 10.750679019280366 11.7356524545947 0 0 0
95 12 4 -0.1504 6.220338892482357 11.735652684989534 15.177575103348486 0 0 0
97 7 4 -0.1504 1.7934425780252106 11.735652684986968 10.750678788888015 0 0 0
106 18 4 -0.1504 6.220338892483496 15.177575333739561 11.735652454595913 0 0 0
318 21 5 -0.0519 16.966668742043034 10.513789715157975 10.513789484765974 0 0 0
175 8 6 -0.1532 13.887322231767847 15.483934708807816 9.140394104986138 0 0 0
122 18 4 -0.1504 5.235365226776866 15.177575333739314 10.750678788889259 0 0 0
140 12 4 -0.1504 5.235365226775614 10.750679019282995 15.177575103348495 0 0 0
147 17 5 -0.0519 2.0282803720204154 8.489858169721217 14.942737309351955 0 0 0
162 7 6 -0.1532 0.6548849922409944 9.972592546093367 11.56920444960385 0 0 0
167 12 6 -0.1532 6.9984253656708155 11.569204679996997 16.316132689131567 0 0 0
169 7 6 -0.1532 0.6548849922408277 11.569204679995932 9.972592315701146 0 0 0
178 18 6 -0.1532 6.9984253656708475 16.316132919523536 11.569204449604301 0 0 0
182 18 6 -0.1532 5.401813231768241 16.316132919523117 9.97259231570161 0 0 0
200 12 6 -0.1532 5.401813231768009 9.972592546094509 16.316132689131578 0 0 0
16 5 2 0.142 12.92785810464413 11.004725393088004 14.921847746098592 0 0 0
19 8 2 0.142 14.921847633351847 12.9278584477795 11.004725162694502 0 0 0
24 13 2 0.142 11.00472504995143 14.92184797649275 12.927858217390419 0 0 0
28 13 2 0.142 11.004725049951634 12.927858447783002 14.921847746100061 0 0 0
31 8 2 0.142 12.927858104642253 14.921847976489268 11.004725162694559 0 0 0
36 5 2 0.142 14.921847633353869 11.004725393087814 12.92785821738895 0 0 0
37 20 3 0.1145 10.118227443584887 10.118227786722187 16.021638083435075 0 0 0
41 21 3 0.1145 16.021637970689223 10.118227786722159 10.11822755633029 0 0 0
42 22 3 0.1145 10.118227443583779 16.02163831382782 10.118227556329307 0 0 0
88 5 4 -0.1504 13.720874226776887 10.278951921162351 14.70584800522838 0 0 0
91 8 4 -0.1504 14.705847892482096 13.720874569912787 10.278951690769292 0 0 0
96 13 4 -0.1504 10.278951578025538 14.705848235622001 13.720874339522814 0 0 0
100 13 4 -0.1504 10.278951578025644 13.72087456991534 14.705848005229434 0 0 0
103 8 4 -0.1504 13.720874226775504 14.705848235619477 10.278951690769325 0 0 0
108 5 4 -0.1504 14.705847892483549 10.278951921162253 13.72087433952176 0 0 0
517 22 5 -0.0519 10.513789372020463 16.966669085180904 10.513789484765862 0 0 0
208 1 1 0.5212 16.971017784313762 8.48550912745078 12.728263397058798 0 0 0
120 13 5 -0.0519 8.481159742043252 14.942737539744064 14.942737309351733 0 0 0
160 5 6 -0.1532 13.88732223176839 9.14039433537856 15.483934478416014 0 0 0
163 8 6 -0.1532 15.483934365670422 13.887322574905099 9.140394104986088 0 0 0
168 13 6 -0.1532 9.140393992241114 15.483934708808833 13.887322344513779 0 0 0
172 13 6 -0.1532 9.140393992241284 13.887322574906152 15.483934478416387 0 0 0
823 1 1 0.5212 4.242754284313473 8.485509127451648 16.971017897058903 0 0 0
819 1 1 0.5212 8.48550878431388 12.728263627451245 16.971017897058946 0 0 0
929 20 5 -0.0519 10.513789372021046 10.51378971515833 16.96666885478855 0 0 0
117 10 5 -0.0519 2.028280372020395 14.942737539743389 8.48985793932882 0 0 0
962 115 5 -0.0519 14.942737196606148 8.489858169721211 18.999298484766335 0 0 0
837 121 2 0.142 2.04916993527372 12.927858447780427 22.937310631421873 0 0 0
842 124 2 0.142 5.966292518678818 12.927858447779174 19.0201880480213 0 0 0
865 133 2 0.142 4.043159463981555 11.004725393089368 19.020188048017815 0 0 0
874 124 2 0.142 5.966292518678672 14.921847976488994 21.014177576730827 0 0 0
882 133 2 0.142 2.0491699352718484 11.004725393088947 21.014177576727516 0 0 0
887 121 2 0.142 4.043159463983501 14.921847976490024 22.937310631422175 0 0 0
892 12 3 0.1145 6.852790125043905 10.11822778672113 17.92039771068154 0 0 0
896 139 3 0.1145 6.85279012504448 16.021638313828696 23.82380823778979 0 0 0
899 141 3 0.1145 0.9493795979377061 10.118227786722613 23.823808237786448 0 0 0
909 121 4 -0.1504 2.265169676143859 13.720874569913246 23.663084103347472 0 0 0
914 124 4 -0.1504 6.6920659906037505 13.720874569912805 19.23618778889071 0 0 0
1032 1 1 0.5212 16.97101778431347 8.485509127450491 21.213772397058822 0 0 0
934 124 5 -0.0519 8.489857826583643 14.94273753974465 18.999298484765536 0 0 0
937 133 4 -0.1504 3.2501433418493 10.278951921163294 19.23618778888847 0 0 0
946 124 4 -0.1504 6.69206599060368 14.705848235619515 20.22116145459728 0 0 0
954 133 4 -0.1504 2.265169676142652 10.278951921163086 20.221161454595112 0 0 0
959 121 4 -0.1504 3.250143341850549 14.705848235619843 23.663084103347625 0 0 0
1172 141 5 -0.0519 0.004348826583580756 10.513789715157987 23.428246309351067 1 0 0
981 121 6 -0.1532 1.4870832029560412 13.887322574904937 24.801641689131117 0 0 0
986 124 6 -0.1532 7.830623576386542 13.887322574905633 18.4581013157019 0 0 0
997 133 6 -0.1532 3.0836953368585807 9.14039433537893 18.45810131570151 0 0 0
1006 124 6 -0.1532 7.830623576386439 15.483934708808379 20.054713449604442 0 0 0
1014 133 6 -0.1532 1.487083202955919 9.1403943353786 20.05471344960413 0 0 0
1019 121 6 -0.1532 3.083695336858782 15.483934708807487 24.801641689131372 0 0 0
1372 139 5 -0.0519 6.457228196606772 16.96666908518096 23.428246309352303 0 0 0
831 116 2 0.142 12.528668463985897 14.45180186181639 23.40735674609553 0 0 0
833 20 2 0.142 10.53467893527337 12.528668807120336 19.49023416269617 0 0 0
843 125 2 0.142 14.451801518675069 12.528668807118635 23.40735674610024 0 0 0
845 20 2 0.142 12.528668463983063 10.534679278410648 19.49023416269616 0 0 0
854 119 3 0.1145 15.33829912504372 15.338299468180699 24.507147083436088 0 0 0
859 124 3 0.1145 9.434888597936055 15.338299468182072 18.603736556328123 0 0 0
872 125 2 0.142 14.451801518675062 10.534679278408936 21.413367217390523 0 0 0
885 116 2 0.142 10.534678935276139 14.45180186181686 21.41336721738595 0 0 0
898 115 3 0.1145 15.338299125041543 9.434888941075418 18.603736556331178 0 0 0
903 116 4 -0.1504 11.7356523418522 15.177575333741334 23.191357005226394 0 0 0
905 20 4 -0.1504 10.750678676143819 11.735652684987736 18.764460690770413 0 0 0
915 125 4 -0.1504 15.177574990601093 11.73565268498638 23.191357005229417 0 0 0
917 20 4 -0.1504 11.735652341850457 10.750679019281087 18.764460690770413 0 0 0
1004 125 6 -0.1532 16.31613257638561 9.972592546093002 22.37283134451351 0 0 0
989 20 6 -0.1532 11.569204336859169 9.972592546093802 17.625903104986353 0 0 0
944 125 4 -0.1504 15.177574990601087 10.750679019279737 22.20638333952277 0 0 0
957 116 4 -0.1504 10.750678676145515 15.177575333741569 22.206383339519796 0 0 0
1017 116 6 -0.1532 9.972592202956543 16.31613291952419 22.37283134451307 0 0 0
975 116 6 -0.1532 11.569204336859235 16.316132919523792 23.96944347841567 0 0 0
977 20 6 -0.1532 9.97259220295654 11.569204679996467 17.625903104986342 0 0 0
987 125 6 -0.1532 16.31613257638563 11.569204679995657 23.969443478416128 0 0 0
1025 1 1 0.5212 16.97101778431329 12.728263627450415 25.456526897058644 0 0 0
931 119 5 -0.0519 14.942737196606624 14.942737539743671 25.452177854788797 0 0 0
155 12 5 -0.0519 6.457228196606825 10.51378971515829 16.975366939328875 0 0 0
996 117 6 -0.1532 15.483934365671322 9.14039433537846 30.858340344513636 0 0 0
991 119 6 -0.1532 13.887322231767941 15.483934708807674 26.111412104986126 0 0 0
834 118 2 0.142 2.5192160499523513 10.534679278408506 29.499686576725804 0 0 0
839 33 2 0.142 6.4363386333507275 12.528668807124035 31.4228196314243 0 0 0
841 118 2 0.142 2.5192160499520933 12.528668807118057 27.505697048015932 0 0 0
850 128 2 0.142 6.436338633353584 14.451801861814435 29.499686576729218 0 0 0
855 121 3 0.1145 1.632718443583771 15.338299468179683 26.40590671068203 0 0 0
861 123 3 0.1145 7.536128970689255 15.338299468179649 32.309317237787184 0 0 0
866 128 2 0.142 4.442349104643775 14.451801861813879 27.505697048019677 0 0 0
884 33 2 0.142 4.442349104640887 10.534679278414536 31.422819631424495 0 0 0
900 127 3 0.1145 1.6327184435831568 9.434888941073835 32.30931723778915 0 0 0
906 118 4 -0.1504 1.7934425780260304 10.7506790192795 28.706670454593873 0 0 0
911 33 4 -0.1504 6.220338892481424 11.735652684990335 32.148593103349185 0 0 0
913 118 4 -0.1504 1.7934425780259058 11.73565268498606 27.721696788887147 0 0 0
922 128 4 -0.1504 6.220338892483291 15.177575333739817 28.706670454596242 0 0 0
1134 129 5 -0.0519 16.96666874204301 10.513789715157964 27.48480748476618 0 0 0
988 123 6 -0.1532 9.140393992241275 13.887322574906271 32.45495247841635 0 0 0
938 128 4 -0.1504 5.235365226776597 15.17757533373953 27.72169678888965 0 0 0
956 33 4 -0.1504 5.235365226774712 10.750679019283767 32.14859310334927 0 0 0
963 127 5 -0.0519 2.028280372020417 8.489858169721197 31.91375530935211 0 0 0
978 118 6 -0.1532 0.6548849922411556 9.972592546093155 28.54022244960374 0 0 0
983 33 6 -0.1532 6.998425365670587 11.56920467999721 33.28715068913169 0 0 0
985 118 6 -0.1532 0.6548849922409515 11.569204679995655 26.943610315700973 0 0 0
994 128 6 -0.1532 6.998425365670848 16.316132919523604 28.540222449604315 0 0 0
998 128 6 -0.1532 5.401813231768149 16.31613291952311 26.943610315701715 0 0 0
1016 33 6 -0.1532 5.401813231767823 9.972592546094674 33.28715068913183 0 0 0
2 1 1 0.5212 12.72826328431363 8.48550912745107 33.942035897058645 0 0 -1
832 117 2 0.142 12.927858104645956 11.004725393089352 31.892865746100398 0 0 0
835 119 2 0.142 14.921847633351723 12.927858447779268 27.97574316269449 0 0 0
840 123 2 0.142 11.004725049951862 14.921847976493241 29.898876217390853 0 0 0
844 123 2 0.142 11.00472504995196 12.92785844778349 31.8928657461005 0 0 0
847 119 2 0.142 12.9278581046422 14.921847976489103 27.975743162694467 0 0 0
852 117 2 0.142 14.92184763335576 11.004725393089199 29.8988762173908 0 0 0
853 6 3 0.1145 10.118227443584862 10.118227786722413 32.992656083434795 0 0 0
857 129 3 0.1145 16.021637970688946 10.11822778672244 27.089245556330813 0 0 0
858 130 3 0.1145 10.118227443583788 16.021638313827843 27.08924555632912 0 0 0
904 117 4 -0.1504 13.720874226778117 10.278951921163225 31.676866005229584 0 0 0
907 119 4 -0.1504 14.705847892482055 13.720874569912585 27.249969690769287 0 0 0
912 123 4 -0.1504 10.278951578025813 14.70584823562235 30.69189233952307 0 0 0
916 123 4 -0.1504 10.27895157802587 13.72087456991569 31.67686600522969 0 0 0
919 119 4 -0.1504 13.720874226775496 14.705848235619309 27.24996969076928 0 0 0
924 117 4 -0.1504 14.705847892484808 10.278951921163145 30.691892339522987 0 0 0
1333 130 5 -0.0519 10.513789372020545 16.96666908518087 27.48480748476573 0 0 0
1024 1 1 0.5212 16.971017784313837 8.485509127450703 29.69928139705888 0 0 0
936 123 5 -0.0519 8.481159742043175 14.94273753974406 31.91375530935154 0 0 0
976 117 6 -0.1532 13.887322231768627 9.140394335378604 32.454952478416224 0 0 0
979 119 6 -0.1532 15.483934365670468 13.887322574904914 26.111412104986144 0 0 0
984 123 6 -0.1532 9.140393992241188 15.483934708808945 30.85834034451374 0 0 0
7 1 1 0.5212 4.242754284313492 8.485509127451609 33.94203589705907 0 0 -1
3 1 1 0.5212 8.485508784313817 12.728263627451362 33.94203589705887 0 0 -1
113 6 5 -0.0519 10.513789372020957 10.513789715158431 33.93768685478835 0 0 -1
933 121 5 -0.0519 2.028280372020331 14.942737539743217 25.460875939328854 0 0 0
418 1 1 0.5212 8.485508784313485 16.97101812745158 4.242754397058736 0 0 0
460 35 2 0.142 4.442349104641687 19.490234393086137 6.436338746097407 0 0 0
463 86 2 0.142 6.4363386333530475 21.413367447781525 2.5192161626952174 0 0 0
468 87 2 0.142 2.5192160499520995 23.407356976492917 4.4423492173910795 0 0 0
472 87 2 0.142 2.519216049952397 21.413367447783255 6.436338746100818 0 0 0
475 86 2 0.142 4.442349104643464 23.40735697649131 2.519216162695435 0 0 0
480 35 2 0.142 6.4363386333513555 19.49023439308673 4.442349217387721 0 0 0
481 84 3 0.1145 1.6327184435854896 18.60373678672243 7.536129083434296 0 0 0
485 85 3 0.1145 7.536128970690932 18.603736786720994 1.6327185563280933 0 0 0
486 83 3 0.1145 1.6327184435847522 24.507147313827325 1.6327185563300115 0 0 0
532 35 4 -0.1504 5.23536522677516 18.764460921161145 6.2203390052276335 0 0 0
535 86 4 -0.1504 6.220338892482946 22.206383569914518 1.7934426907697911 0 0 0
540 87 4 -0.1504 1.793442578025993 23.191357235621876 5.235365339523196 0 0 0
544 87 4 -0.1504 1.7934425780261358 22.20638356991525 6.220339005229858 0 0 0
547 86 4 -0.1504 5.2353652267763575 23.191357235621208 1.7934426907699021 0 0 0
552 35 4 -0.1504 6.220338892481796 18.764460921161437 5.235365339520987 0 0 0
768 92 5 -0.0519 16.96666874204308 23.428246539743068 6.457228309351405 0 0 0
111 4 5 -0.0519 10.513789372020362 16.9753671697213 6.457228309351946 0 0 0
621 1 1 0.5212 16.97101778431367 21.21377262745058 8.485508897058889 0 0 0
592 35 6 -0.1532 5.4018132317678145 17.625903335377988 6.998425478415951 0 0 0
595 86 6 -0.1532 6.998425365670701 22.372831574906346 0.6548851049861274 0 0 0
600 87 6 -0.1532 0.6548849922411607 23.969443708808207 5.4018133445136804 0 0 0
604 87 6 -0.1532 0.6548849922413827 22.372831574905582 6.99842547841634 0 0 0
607 86 6 -0.1532 5.401813231768147 23.969443708809084 0.6548851049863124 0 0 0
612 35 6 -0.1532 6.998425365670453 17.625903335378464 5.401813344513295 0 0 0
553 83 5 -0.0519 2.028280372020619 25.45217808518092 2.0282804847661553 0 0 0
422 66 2 0.142 12.927858104645011 22.937310861812712 2.0491700480170434 0 0 0
440 78 2 0.142 12.927858104643652 19.020188278410963 5.966292631422087 0 0 0
456 4 3 0.1145 10.118227443583459 17.920397941074068 6.85279023778903 0 0 0
462 85 2 0.142 11.004725049948545 19.020188278413876 4.043159576730495 0 0 0
467 78 2 0.142 14.921847633353357 21.014177807120646 5.966292631422036 0 0 0
469 85 2 0.142 11.004725049948508 21.014177807123488 2.0491700480207773 0 0 0
478 66 2 0.142 14.921847633354552 22.937310861812357 4.043159576726898 0 0 0
483 89 3 0.1145 10.118227443585424 23.823808468179724 0.9493797106829566 0 0 0
489 92 3 0.1145 16.02163797068897 23.823808468178424 6.852790237786824 0 0 0
494 66 4 -0.1504 13.720874226777354 23.66308433373861 2.2651697888879245 0 0 0
512 78 4 -0.1504 13.720874226776518 19.23618801928117 6.692066103347624 0 0 0
601 85 6 -0.1532 9.140393992240613 20.054713679997228 1.4870833157016004 0 0 0
534 85 4 -0.1504 10.278951578023504 19.23618801928336 3.2501434545969787 0 0 0
539 78 4 -0.1504 14.705847892483177 20.22116168498779 6.69206610334759 0 0 0
541 85 4 -0.1504 10.278951578023484 20.221161684989976 2.2651697888903164 0 0 0
550 66 4 -0.1504 14.705847892483924 23.663084333738432 3.2501434545946437 0 0 0
610 66 6 -0.1532 15.483934365670851 24.801641919522833 3.0836954496039897 0 0 0
558 85 5 -0.0519 8.481159742043426 18.99929871515834 2.028280484765393 0 0 0
566 66 6 -0.1532 13.887322231768316 24.80164191952314 1.487083315701238 0 0 0
584 78 6 -0.1532 13.887322231768199 18.458101546093506 7.830623689131373 0 0 0
594 85 6 -0.1532 9.140393992240636 18.45810154609463 3.0836954496043063 0 0 0
599 78 6 -0.1532 15.483934365670875 20.05471367999611 7.83062368913131 0 0 0
416 1 1 0.5212 4.24275428431349 16.9710181274503 8.485508897058835 0 0 0
557 84 5 -0.0519 2.0282803720210456 18.999298715157888 8.481159854788311 0 0 0
409 1 1 0.5212 12.728263284313494 16.97101812745083 8.485508897058828 0 0 0
1377 89 5 -0.0519 10.513789372020971 23.428246539744055 0.004348939329023504 0 0 1
110 18 5 -0.0519 6.45722819660639 16.97536716972103 10.51378948476595 0 0 0
428 71 2 0.142 5.966292518677685 19.020188278412874 12.927858217387625 0 0 0
441 79 2 0.142 2.049169935276166 22.937310861815693 12.927858217387278 0 0 0
454 18 3 0.1145 6.852790125042604 17.920397941074356 10.118227556329508 0 0 0
459 79 2 0.142 4.043159463985767 22.93731086181629 14.92184774609705 0 0 0
461 84 2 0.142 2.049169935271855 21.01417780711818 11.004725162697314 0 0 0
471 71 2 0.142 5.966292518677663 21.014177807122586 14.92184774609726 0 0 0
473 84 2 0.142 4.04315946398135 19.020188278408266 11.004725162697305 0 0 0
482 88 3 0.1145 6.852790125043067 23.823808468181397 16.021638083435473 0 0 0
487 91 3 0.1145 0.9493795979362165 23.82380846818096 10.118227556328588 0 0 0
500 71 4 -0.1504 6.6920659906029 19.236188019282643 13.720874339520899 0 0 0
513 79 4 -0.1504 2.265169676145587 23.66308433374089 13.720874339520668 0 0 0
524 71 5 -0.0519 8.489857826583451 18.999298715158314 14.942737309351926 0 0 0
531 79 4 -0.1504 3.2501433418521914 23.663084333741192 14.705848005227343 0 0 0
533 84 4 -0.1504 2.2651696761427282 20.221161684986054 10.278951690771164 0 0 0
543 71 4 -0.1504 6.692065990602894 20.221161684989315 14.705848005227509 0 0 0
545 84 4 -0.1504 3.250143341849269 19.236188019279307 10.278951690771159 0 0 0
766 91 5 -0.0519 0.004348826583603366 23.428246539743746 10.513789484765741 1 0 0
520 67 5 -0.0519 14.942737196606616 25.45217808518075 14.942737309351571 0 0 0
572 71 6 -0.1532 7.830623576386092 18.458101546094316 13.887322344513258 0 0 0
585 79 6 -0.1532 1.4870832029567136 24.80164191952369 13.887322344513162 0 0 0
591 79 6 -0.1532 3.0836953368593303 24.8016419195242 15.483934478415831 0 0 0
593 84 6 -0.1532 1.487083202956224 20.054713679995647 9.14039410498644 0 0 0
603 71 6 -0.1532 7.830623576386092 20.054713679997025 15.483934478415849 0 0 0
605 84 6 -0.1532 3.083695336858704 18.45810154609285 9.140394104986425 0 0 0
587 80 6 -0.1532 11.569204336858848 23.969443708808743 16.31613268913106 0 0 0
414 1 1 0.5212 8.48550878431349 16.97101812745132 12.728263397058901 0 0 0
421 22 2 0.142 12.528668463983886 19.490234393087377 10.534679048019258 0 0 0
430 73 2 0.142 14.451801518678145 23.407356976488714 12.528668576730446 0 0 0
438 22 2 0.142 10.534678935274238 19.490234393087626 12.52866857672898 0 0 0
443 80 2 0.142 12.528668463981903 23.40735697649253 14.451801631420636 0 0 0
448 78 3 0.1145 15.33829912504307 18.60373678672129 9.434888710682152 0 0 0
452 67 3 0.1145 15.338299125042836 24.50714731382739 15.338299237787922 0 0 0
455 71 3 0.1145 9.434888597936217 18.603736786721328 15.338299237788943 0 0 0
465 80 2 0.142 10.53467893527201 21.413367447783013 14.451801631420727 0 0 0
470 73 2 0.142 14.451801518678076 21.413367447779034 10.534679048020763 0 0 0
493 22 4 -0.1504 11.735652341850876 18.76446092116198 10.750678788889394 0 0 0
502 73 4 -0.1504 15.177574990603253 23.19135723561905 11.735652454597044 0 0 0
510 22 4 -0.1504 10.750678676144245 18.764460921162108 11.735652454596043 0 0 0
515 80 4 -0.1504 11.73565234184958 23.191357235621876 15.177575103346632 0 0 0
597 80 6 -0.1532 9.972592202956058 22.372831574906254 16.31613268913114 0 0 0
537 80 4 -0.1504 10.750678676142835 22.20638356991533 15.177575103346673 0 0 0
542 73 4 -0.1504 15.177574990603224 22.2063835699124 10.750678788890413 0 0 0
582 22 6 -0.1532 9.972592202956296 17.625903335378574 11.569204449604252 0 0 0
602 73 6 -0.1532 16.31613257638625 22.372831574904904 9.972592315701867 0 0 0
565 22 6 -0.1532 11.569204336858954 17.625903335378347 9.972592315701617 0 0 0
574 73 6 -0.1532 16.316132576386305 23.96944370880755 11.569204449604504 0 0 0
1375 88 5 -0.0519 6.4572281966064855 23.428246539744794 16.96666885478858 0 0 0
1235 1 1 0.5212 8.485508784313375 21.21377262745162 16.97101789705871 0 0 0
527 78 5 -0.0519 14.942737196606574 18.99929871515778 8.489857939328965 0 0 0
1234 1 1 0.5212 8.48550878431344 16.971018127451483 21.213772397058833 0 0 0
1276 139 2 0.142 4.44234910464059 19.49023439308521 23.40735674609636 0 0 0
1279 88 2 0.142 6.436338633353032 21.41336744778157 19.490234162695213 0 0 0
1284 178 2 0.142 2.5192160499531417 23.407356976493844 21.413367217392267 0 0 0
1288 178 2 0.142 2.51921604995332 21.413367447784285 23.407356746102128 0 0 0
1291 88 2 0.142 4.442349104643394 23.407356976491315 19.490234162695316 0 0 0
1296 139 2 0.142 6.436338633350319 19.49023439308571 21.413367217386757 0 0 0
1297 176 3 0.1145 1.632718443585659 18.603736786722685 24.50714708343416 0 0 0
1301 177 3 0.1145 7.536128970691788 18.603736786719956 18.603736556327092 0 0 0
1302 175 3 0.1145 1.6327184435853146 24.507147313826824 18.603736556330453 0 0 0
1348 139 4 -0.1504 5.235365226774417 18.76446092116048 23.19135700522701 0 0 0
1351 88 4 -0.1504 6.2203388924829195 22.206383569914532 18.764460690769752 0 0 0
1356 178 4 -0.1504 1.7934425780266994 23.191357235622483 22.20638333952399 0 0 0
1360 178 4 -0.1504 1.7934425780267838 22.206383569915907 23.191357005230703 0 0 0
1363 88 4 -0.1504 5.23536522677631 23.191357235621208 18.76446069076981 0 0 0
1368 139 4 -0.1504 6.220338892481081 18.764460921160733 22.206383339520396 0 0 0
1584 180 5 -0.0519 16.96666874204308 23.428246539742933 23.428246309351298 0 0 0
927 116 5 -0.0519 10.51378937202019 16.97536716972102 23.428246309352247 0 0 0
1437 1 1 0.5212 16.9710177843137 21.213772627450627 25.45652689705898 0 0 0
1408 139 6 -0.1532 5.401813231767597 17.625903335377817 23.969443478415936 0 0 0
1411 88 6 -0.1532 6.998425365670689 22.372831574906336 17.6259031049861 0 0 0
1416 178 6 -0.1532 0.6548849922413841 23.96944370880825 22.37283134451379 0 0 0
1420 178 6 -0.1532 0.6548849922415061 22.372831574905703 23.969443478416533 0 0 0
1423 88 6 -0.1532 5.40181323176811 23.969443708809045 17.6259031049862 0 0 0
1428 139 6 -0.1532 6.998425365670276 17.625903335378215 22.37283134451332 0 0 0
1369 175 5 -0.0519 2.0282803720208236 25.45217808518073 18.99929848476621 0 0 0
1238 162 2 0.142 12.927858104646855 22.937310861811344 19.020188048015186 0 0 0
1256 172 2 0.142 12.927858104643729 19.020188278410917 22.93731063142215 0 0 0
1272 116 3 0.1145 10.118227443582667 17.92039794107324 23.823808237790033 0 0 0
1278 177 2 0.142 11.004725049947055 19.02018827841549 21.01417757673241 0 0 0
1283 172 2 0.142 14.921847633353327 21.01417780712071 22.937310631422136 0 0 0
1285 177 2 0.142 11.00472504994712 21.014177807125165 19.02018804802278 0 0 0
1294 162 2 0.142 14.921847633356386 22.937310861810893 21.01417757672508 0 0 0
1299 80 3 0.1145 10.118227443585189 23.823808468179966 17.920397710682856 0 0 0
1305 180 3 0.1145 16.02163797068872 23.823808468178033 23.823808237786377 0 0 0
1310 162 4 -0.1504 13.720874226778623 23.66308433373769 19.236187788886703 0 0 0
1328 172 4 -0.1504 13.720874226776594 19.236188019281144 23.663084103347682 0 0 0
1417 177 6 -0.1532 9.14039399224048 20.05471367999742 18.45810131570196 0 0 0
1350 177 4 -0.1504 10.278951578022511 19.23618801928442 20.221161454598292 0 0 0
1355 172 4 -0.1504 14.705847892483204 20.221161684987816 23.66308410334766 0 0 0
1357 177 4 -0.1504 10.278951578022543 20.221161684991067 19.236187788891662 0 0 0
1366 162 4 -0.1504 14.705847892485188 23.663084333737462 20.22116145459343 0 0 0
1426 162 6 -0.1532 15.483934365671203 24.801641919522627 20.054713449603746 0 0 0
1374 177 5 -0.0519 8.481159742043639 18.999298715158034 18.999298484765202 0 0 0
1382 162 6 -0.1532 13.887322231768671 24.80164191952302 18.458101315700997 0 0 0
1400 172 6 -0.1532 13.887322231768332 18.458101546093452 24.801641689131397 0 0 0
1410 177 6 -0.1532 9.140393992240412 18.458101546094774 20.054713449604616 0 0 0
1415 172 6 -0.1532 15.483934365670933 20.05471367999613 24.801641689131365 0 0 0
1232 1 1 0.5212 4.242754284313362 16.97101812745022 25.456526897058936 0 0 0
1373 176 5 -0.0519 2.028280372021027 18.999298715157938 25.45217785478834 0 0 0
1225 1 1 0.5212 12.728263284313659 16.97101812745073 25.456526897058772 0 0 0
561 80 5 -0.0519 10.513789372020916 23.428246539744116 16.975366939329078 0 0 0
926 128 5 -0.0519 6.457228196606447 16.975367169720954 27.48480748476584 0 0 0
1244 166 2 0.142 5.966292518678916 19.020188278414377 29.89887621738594 0 0 0
1257 173 2 0.142 2.0491699352763155 22.93731086181577 29.898876217387343 0 0 0
1270 128 3 0.1145 6.852790125042811 17.920397941074118 27.08924555632916 0 0 0
1275 173 2 0.142 4.043159463985862 22.93731086181637 31.892865746097165 0 0 0
1277 176 2 0.142 2.0491699352713635 21.014177807117694 27.975743162697775 0 0 0
1287 166 2 0.142 5.966292518678764 21.014177807124096 31.892865746095556 0 0 0
1289 176 2 0.142 4.043159463980784 19.020188278407698 27.97574316269778 0 0 0
1298 86 3 0.1145 6.852790125043086 23.823808468181483 32.99265608343557 0 0 0
1303 179 3 0.1145 0.9493795979362236 23.823808468180946 27.08924555632869 0 0 0
1316 166 4 -0.1504 6.692065990603697 19.23618801928367 30.691892339519747 0 0 0
1329 173 4 -0.1504 2.2651696761456885 23.66308433374095 30.691892339520763 0 0 0
1340 166 5 -0.0519 8.489857826583211 18.99929871515816 31.913755309352073 0 0 0
1347 173 4 -0.1504 3.2501433418522696 23.663084333741256 31.67686600522746 0 0 0
1349 176 4 -0.1504 2.265169676142367 20.221161684985713 27.249969690771504 0 0 0
1359 166 4 -0.1504 6.69206599060363 20.22116168499035 31.676866005226344 0 0 0
1361 176 4 -0.1504 3.2501433418488754 19.236188019278938 27.2499696907715 0 0 0
1582 179 5 -0.0519 0.004348826583603366 23.42824653974375 27.48480748476584 1 0 0
1336 163 5 -0.0519 14.942737196606428 25.452178085180517 31.9137553093514 0 0 0
1388 166 6 -0.1532 7.830623576386238 18.458101546094568 30.858340344512953 0 0 0
1401 173 6 -0.1532 1.487083202956771 24.801641919523714 30.858340344513277 0 0 0
1407 173 6 -0.1532 3.0836953368593556 24.801641919524243 32.454952478415976 0 0 0
1409 176 6 -0.1532 1.4870832029561065 20.054713679995583 26.111412104986567 0 0 0
1419 166 6 -0.1532 7.830623576386131 20.054713679997285 32.454952478415535 0 0 0
1421 176 6 -0.1532 3.0836953368585394 18.458101546092735 26.111412104986556 0 0 0
1403 89 6 -0.1532 11.569204336858787 23.969443708808797 33.28715068913092 0 0 0
1230 1 1 0.5212 8.48550878431358 16.971018127451387 29.6992813970588 0 0 0
1237 130 2 0.142 12.528668463984204 19.49023439308716 27.50569704801933 0 0 0
1246 168 2 0.142 14.451801518678062 23.407356976488792 29.499686576730458 0 0 0
1254 130 2 0.142 10.534678935274504 19.490234393087473 29.499686576729 0 0 0
1259 89 2 0.142 12.528668463981456 23.407356976492956 31.42281963142018 0 0 0
1264 172 3 0.1145 15.338299125043225 18.603736786721246 26.40590671068216 0 0 0
1268 163 3 0.1145 15.338299125042036 24.50714731382664 32.309317237787134 0 0 0
1271 166 3 0.1145 9.434888597935412 18.60373678672055 32.309317237789806 0 0 0
1281 89 2 0.142 10.534678935271542 21.413367447783454 31.422819631420275 0 0 0
1286 168 2 0.142 14.451801518678009 21.41336744777913 27.505697048020753 0 0 0
1309 130 4 -0.1504 11.735652341851118 18.76446092116182 27.721696788889385 0 0 0
1318 168 4 -0.1504 15.177574990603205 23.191357235619098 28.7066704545971 0 0 0
1326 130 4 -0.1504 10.750678676144469 18.764460921161984 28.706670454596022 0 0 0
1331 89 4 -0.1504 11.735652341849278 23.191357235622164 32.14859310334629 0 0 0
1413 89 6 -0.1532 9.972592202955973 22.372831574906336 33.28715068913099 0 0 0
1353 89 4 -0.1504 10.750678676142522 22.20638356991563 32.148593103346336 0 0 0
1358 168 4 -0.1504 15.177574990603182 22.206383569912465 27.721696788890448 0 0 0
1398 130 6 -0.1532 9.972592202956418 17.62590333537853 28.540222449604148 0 0 0
1418 168 6 -0.1532 16.31613257638625 22.37283157490493 26.94361031570196 0 0 0
1381 130 6 -0.1532 11.569204336859103 17.62590333537825 26.94361031570154 0 0 0
1390 168 6 -0.1532 16.316132576386305 23.969443708807542 28.540222449604634 0 0 0
559 86 5 -0.0519 6.457228196606504 23.42824653974484 33.93768685478866 0 0 -1
419 1 1 0.5212 8.48550878431335 21.213772627451643 33.942035897058595 0 0 -1
1343 172 5 -0.0519 14.942737196606691 18.99929871515776 25.46087593932899 0 0 0
554 66 5 -0.0519 14.942737196606219 25.46087616972098 2.028280484766137 0 0 0
429 72 2 0.142 2.049169935273198 29.898876447781003 5.966292631421596 0 0 0
434 76 2 0.142 5.966292518679722 29.89887644777815 2.049170048022276 0 0 0
457 83 2 0.142 4.043159463981898 27.97574339308912 2.0491700480184427 0 0 0
466 76 2 0.142 5.9662925186793725 31.892865976487872 4.0431595767319015 0 0 0
474 83 2 0.142 2.049169935272159 27.975743393088603 4.043159576728095 0 0 0
479 72 2 0.142 4.043159463982991 31.892865976490587 5.96629263142186 0 0 0
484 90 3 0.1145 6.85279012504515 27.089245786720184 0.9493797106805988 0 0 0
488 26 3 0.1145 6.852790125043592 32.99265631382801 6.852790237788746 0 0 0
491 93 3 0.1145 0.9493795979375358 27.089245786722522 6.852790237786724 0 0 0
501 72 4 -0.1504 2.2651696761435174 30.691892569913662 6.692066103347322 0 0 0
506 76 4 -0.1504 6.692065990604321 30.691892569912163 2.2651697888914173 0 0 0
624 1 1 0.5212 16.971017784313354 25.456527127450457 4.24275439705884 0 0 0
526 76 5 -0.0519 8.489857826583462 31.913755539744972 2.0282804847655242 0 0 0
529 83 4 -0.1504 3.2501433418495047 27.249969921163146 2.2651697888889073 0 0 0
538 76 4 -0.1504 6.692065990604154 31.676866235618824 3.2501434545980343 0 0 0
546 83 4 -0.1504 2.265169676142836 27.249969921162887 3.250143454595526 0 0 0
551 72 4 -0.1504 3.2501433418502157 31.676866235620253 6.692066103347458 0 0 0
764 93 5 -0.0519 0.004348826583512926 27.484807715158006 6.457228309351206 1 0 0
573 72 6 -0.1532 1.4870832029559822 30.8583405749051 7.830623689131194 0 0 0
578 76 6 -0.1532 7.830623576386678 30.85834057490565 1.4870833157021035 0 0 0
589 83 6 -0.1532 3.0836953368585833 26.111412335379 1.4870833157016645 0 0 0
598 76 6 -0.1532 7.83062357638641 32.45495270880832 3.0836954496047166 0 0 0
606 83 6 -0.1532 1.48708320295589 26.111412335378585 3.0836954496042557 0 0 0
611 72 6 -0.1532 3.083695336858748 32.45495270880763 7.830623689131435 0 0 0
148 26 5 -0.0519 6.457228196606561 33.937687085180876 6.4572283093520335 0 -1 0
423 24 2 0.142 12.52866846398579 31.422819861816553 6.436338746095785 0 0 0
425 68 2 0.142 10.534678935272973 29.499686807119854 2.5192161626965075 0 0 0
435 77 2 0.142 14.451801518675282 29.49968680711906 6.436338746099694 0 0 0
437 68 2 0.142 12.528668463982594 27.50569727841009 2.519216162696439 0 0 0
446 70 3 0.1145 15.33829912504333 32.309317468180524 7.536129083435816 0 0 0
451 76 3 0.1145 9.434888597935478 32.30931746818294 1.6327185563277025 0 0 0
464 77 2 0.142 14.451801518675323 27.505697278409276 4.442349217390066 0 0 0
477 24 2 0.142 10.534678935276087 31.422819861816972 4.442349217386138 0 0 0
490 66 3 0.1145 15.338299125042115 26.405906941074768 1.6327185563304767 0 0 0
495 24 4 -0.1504 11.735652341852123 32.14859333374151 6.220339005226575 0 0 0
497 68 4 -0.1504 10.750678676143561 28.70667068498744 1.7934426907705943 0 0 0
507 77 4 -0.1504 15.177574990601206 28.70667068498667 6.2203390052290635 0 0 0
509 68 4 -0.1504 11.735652341850166 27.721697019280757 1.7934426907705643 0 0 0
596 77 6 -0.1532 16.316132576385566 26.94361054609304 5.401813344513465 0 0 0
581 68 6 -0.1532 11.569204336859125 26.94361054609379 0.6548851049862471 0 0 0
536 77 4 -0.1504 15.177574990601224 27.721697019279983 5.235365339522461 0 0 0
549 24 4 -0.1504 10.75067867614547 32.148593333741715 5.235365339519953 0 0 0
609 24 6 -0.1532 9.972592202956523 33.287150919524365 5.401813344513144 0 0 0
567 24 6 -0.1532 11.569204336859181 33.28715091952402 6.9984254784157764 0 0 0
569 68 6 -0.1532 9.972592202956553 28.54022267999651 0.6548851049862884 0 0 0
579 77 6 -0.1532 16.31613257638556 28.54022267999577 6.998425478416013 0 0 0
617 1 1 0.5212 16.971017784313208 29.699281627450503 8.485508897058574 0 0 0
523 70 5 -0.0519 14.942737196606455 31.913755539743693 8.481159854788705 0 0 0
1379 90 5 -0.0519 6.457228196607187 27.484807715158208 0.004348939328661745 0 0 1
1226 1 1 0.5212 12.728263284313835 25.456527127451118 16.971017897058683 0 0 0
588 67 6 -0.1532 15.483934365671075 26.111412335378354 13.887322344513295 0 0 0
426 69 2 0.142 2.5192160499522687 27.505697278408228 12.528668576725734 0 0 0
431 74 2 0.142 6.436338633350987 29.499686807124352 14.451801631424404 0 0 0
433 69 2 0.142 2.519216049952093 29.49968680711793 10.534679048016018 0 0 0
442 23 2 0.142 6.436338633353652 31.422819861814244 12.528668576729137 0 0 0
447 72 3 0.1145 1.6327184435841204 32.30931746817945 9.434888710682415 0 0 0
453 75 3 0.1145 7.536128970689232 32.30931746817948 15.338299237787302 0 0 0
458 23 2 0.142 4.442349104643899 31.422819861813757 10.534679048019521 0 0 0
476 74 2 0.142 4.442349104641026 27.505697278414974 14.451801631424365 0 0 0
492 79 3 0.1145 1.6327184435829034 26.405906941073678 15.338299237789077 0 0 0
498 69 4 -0.1504 1.7934425780259609 27.72169701927931 11.735652454593811 0 0 0
503 74 4 -0.1504 6.220338892481631 28.706670684990588 15.1775751033492 0 0 0
505 69 4 -0.1504 1.7934425780258747 28.706670684985944 10.750678788887159 0 0 0
514 23 4 -0.1504 6.220338892483331 32.14859333373969 11.735652454596226 0 0 0
726 82 5 -0.0519 16.9666687420429 27.48480771515796 10.513789484766006 0 0 0
583 70 6 -0.1532 13.887322231767918 32.45495270880783 9.140394104986168 0 0 0
530 23 4 -0.1504 5.235365226776663 32.14859333373944 10.750678788889607 0 0 0
548 74 4 -0.1504 5.235365226774857 27.721697019284075 15.177575103349168 0 0 0
555 79 5 -0.0519 2.0282803720203617 25.460876169721168 14.942737309351937 0 0 0
570 69 6 -0.1532 0.6548849922410591 26.94361054609302 11.569204449603621 0 0 0
575 74 6 -0.1532 6.998425365670756 28.540222679997303 16.316132689131717 0 0 0
577 69 6 -0.1532 0.6548849922409201 28.540222679995637 9.972592315700966 0 0 0
586 23 6 -0.1532 6.998425365670829 33.28715091952353 11.569204449604428 0 0 0
590 23 6 -0.1532 5.401813231768161 33.287150919523114 9.972592315701796 0 0 0
608 74 6 -0.1532 5.401813231767907 26.943610546094856 16.316132689131653 0 0 0
424 67 2 0.142 12.927858104644445 27.975743393088237 14.921847746098743 0 0 0
427 70 2 0.142 14.9218476333521 29.898876447779745 11.004725162694756 0 0 0
432 75 2 0.142 11.004725049952054 31.892865976493532 12.927858217391199 0 0 0
436 75 2 0.142 11.004725049952315 29.898876447783824 14.921847746100882 0 0 0
439 70 2 0.142 12.927858104642587 31.89286597648959 11.004725162694825 0 0 0
444 67 2 0.142 14.921847633354144 27.975743393087967 12.927858217389062 0 0 0
445 81 3 0.1145 10.118227443585194 27.08924578672246 16.021638083434908 0 0 0
449 82 3 0.1145 16.02163797068883 27.08924578672247 10.118227556330623 0 0 0
450 2 3 0.1145 10.118227443583928 32.99265631382779 10.118227556329483 0 0 0
496 67 4 -0.1504 13.7208742267771 27.249969921162496 14.705848005228448 0 0 0
499 70 4 -0.1504 14.705847892482273 30.691892569912937 10.278951690769462 0 0 0
504 75 4 -0.1504 10.278951578025987 31.67686623562255 13.72087433952337 0 0 0
508 75 4 -0.1504 10.278951578026117 30.691892569915908 14.705848005230012 0 0 0
511 70 4 -0.1504 13.720874226775724 31.67686623561967 10.278951690769503 0 0 0
516 67 4 -0.1504 14.70584789248374 27.249969921162357 13.720874339521805 0 0 0
109 2 5 -0.0519 10.513789372020534 33.93768708518093 10.513789484765965 0 -1 0
616 1 1 0.5212 16.971017784313734 25.45652712745063 12.728263397058702 0 0 0
528 75 5 -0.0519 8.481159742043236 31.913755539744024 14.942737309351722 0 0 0
568 67 6 -0.1532 13.887322231768467 26.11141233537861 15.483934478415971 0 0 0
571 70 6 -0.1532 15.483934365670427 30.858340574905043 9.140394104986111 0 0 0
576 75 6 -0.1532 9.140393992241236 32.45495270880898 13.887322344513947 0 0 0
580 75 6 -0.1532 9.140393992241446 30.858340574906332 15.483934478416591 0 0 0
1231 1 1 0.5212 4.242754284313495 25.456527127451835 16.971017897058843 0 0 0
1227 1 1 0.5212 8.485508784314012 29.699281627451334 16.971017897059074 0 0 0
1337 81 5 -0.0519 10.513789372021213 27.48480771515843 16.966668854788516 0 0 0
525 72 5 -0.0519 2.0282803720204394 31.91375553974323 8.489857939329038 0 0 0
1370 162 5 -0.0519 14.942737196606094 25.460876169721203 18.99929848476641 0 0 0
1245 167 2 0.142 2.04916993527334 29.898876447780808 22.937310631421596 0 0 0
1250 170 2 0.142 5.966292518680423 29.89887644777723 19.02018804802324 0 0 0
1273 175 2 0.142 4.043159463981096 27.975743393089747 19.020188048017438 0 0 0
1282 170 2 0.142 5.966292518680096 31.892865976486977 21.014177576732816 0 0 0
1290 175 2 0.142 2.049169935271435 27.97574339308919 21.014177576727185 0 0 0
1295 167 2 0.142 4.043159463983035 31.89286597649049 22.937310631421962 0 0 0
1300 74 3 0.1145 6.852790125044719 27.089245786720458 17.92039771068088 0 0 0
1304 134 3 0.1145 6.852790125044345 32.992656313828775 23.82380823778993 0 0 0
1307 181 3 0.1145 0.9493795979378169 27.0892457867227 23.82380823778631 0 0 0
1317 167 4 -0.1504 2.2651696761435676 30.6918925699135 23.663084103347323 0 0 0
1322 170 4 -0.1504 6.692065990604794 30.691892569911538 19.23618778889205 0 0 0
1440 1 1 0.5212 16.971017784313478 25.456527127450354 21.213772397058822 0 0 0
1342 170 5 -0.0519 8.48985782658336 31.913755539745043 18.99929848476541 0 0 0
1345 175 4 -0.1504 3.2501433418490078 27.249969921163533 19.23618778888822 0 0 0
1354 170 4 -0.1504 6.692065990604638 31.676866235618213 20.22116145459865 0 0 0
1362 175 4 -0.1504 2.2651696761423765 27.249969921163263 20.22116145459488 0 0 0
1367 167 4 -0.1504 3.250143341850214 31.676866235620135 23.6630841033475 0 0 0
1580 181 5 -0.0519 0.004348826583610903 27.484807715157956 23.428246309351014 1 0 0
1389 167 6 -0.1532 1.487083202955932 30.858340574904926 24.801641689131124 0 0 0
1394 170 6 -0.1532 7.830623576386758 30.85834057490547 18.458101315702258 0 0 0
1405 175 6 -0.1532 3.0836953368585176 26.111412335379008 18.458101315701438 0 0 0
1414 170 6 -0.1532 7.830623576386512 32.454952708808165 20.05471344960485 0 0 0
1422 175 6 -0.1532 1.4870832029558878 26.111412335378578 20.05471344960409 0 0 0
1427 167 6 -0.1532 3.0836953368586104 32.45495270880755 24.801641689131436 0 0 0
964 134 5 -0.0519 6.457228196606642 33.93768708518104 23.42824630935243 0 -1 0
1239 132 2 0.142 12.528668463986865 31.42281986181727 23.407356746094603 0 0 0
1241 81 2 0.142 10.53467893527317 29.49968680712001 19.490234162696474 0 0 0
1251 171 2 0.142 14.451801518674477 29.4996868071178 23.407356746100877 0 0 0
1253 81 2 0.142 12.528668463982859 27.5056972784103 19.490234162696428 0 0 0
1262 165 3 0.1145 15.338299125043545 32.309317468180346 24.507147083435786 0 0 0
1267 170 3 0.1145 9.43488859793506 32.30931746818338 18.603736556327203 0 0 0
1280 171 2 0.142 14.451801518674488 27.505697278408064 21.41336721739118 0 0 0
1293 132 2 0.142 10.534678935276984 31.422819861817736 21.41336721738515 0 0 0
1306 162 3 0.1145 15.338299125041246 26.40590694107564 18.603736556331548 0 0 0
1311 132 4 -0.1504 11.735652341852838 32.148593333741964 23.191357005225836 0 0 0
1313 81 4 -0.1504 10.750678676143734 28.70667068498753 18.764460690770616 0 0 0
1323 171 4 -0.1504 15.177574990600695 28.706670684985788 23.191357005229822 0 0 0
1325 81 4 -0.1504 11.73565234185036 27.72169701928087 18.7644606907706 0 0 0
1412 171 6 -0.1532 16.316132576385538 26.94361054609278 22.37283134451357 0 0 0
1397 81 6 -0.1532 11.569204336859244 26.94361054609379 17.62590310498637 0 0 0
1352 171 4 -0.1504 15.177574990600702 27.72169701927913 22.206383339523192 0 0 0
1365 132 4 -0.1504 10.750678676146094 32.14859333374219 22.206383339519306 0 0 0
1425 132 6 -0.1532 9.972592202956626 33.28715091952439 22.372831344513123 0 0 0
1383 132 6 -0.1532 11.569204336859416 33.287150919524 23.96944347841562 0 0 0
1385 81 6 -0.1532 9.972592202956623 28.54022267999646 17.625903104986396 0 0 0
1395 171 6 -0.1532 16.316132576385545 28.54022267999546 23.969443478416164 0 0 0
1433 1 1 0.5212 16.971017784313275 29.6992816274503 25.456526897058602 0 0 0
1339 165 5 -0.0519 14.942737196606625 31.913755539743555 25.452177854788673 0 0 0
563 74 5 -0.0519 6.457228196607098 27.484807715158222 16.975366939328698 0 0 0
1404 163 6 -0.1532 15.483934365671294 26.111412335378436 30.858340344513532 0 0 0
1399 165 6 -0.1532 13.88732223176809 32.45495270880775 26.111412104986087 0 0 0
1242 164 2 0.142 2.5192160499529477 27.505697278407535 29.499686576724955 0 0 0
1247 90 2 0.142 6.43633863335015 29.49968680712503 31.42281963142494 0 0 0
1249 164 2 0.142 2.519216049952684 29.49968680711716 27.50569704801514 0 0 0
1258 131 2 0.142 6.436338633353584 31.42281986181429 29.4996865767291 0 0 0
1263 167 3 0.1145 1.6327184435838726 32.309317468179344 26.405906710682306 0 0 0
1269 169 3 0.1145 7.536128970689065 32.30931746817937 32.309317237786914 0 0 0
1274 131 2 0.142 4.44234910464366 31.422819861813842 27.50569704801968 0 0 0
1292 90 2 0.142 4.44234910464022 27.505697278415628 31.422819631425057 0 0 0
1308 173 3 0.1145 1.6327184435828808 26.405906941073674 32.30931723778924 0 0 0
1314 164 4 -0.1504 1.7934425780264178 27.721697019278828 28.70667045459329 0 0 0
1319 90 4 -0.1504 6.220338892481065 28.70667068499106 32.1485931033496 0 0 0
1321 164 4 -0.1504 1.793442578026288 28.706670684985422 27.72169678888659 0 0 0
1330 131 4 -0.1504 6.220338892483258 32.14859333373971 28.706670454596168 0 0 0
1542 174 5 -0.0519 16.96666874204294 27.484807715157935 27.48480748476618 0 0 0
1396 169 6 -0.1532 9.140393992241414 30.858340574906403 32.454952478416494 0 0 0
1346 131 4 -0.1504 5.235365226776508 32.14859333373948 27.72169678888963 0 0 0
1364 90 4 -0.1504 5.2353652267743085 27.72169701928454 32.14859310334964 0 0 0
1371 173 5 -0.0519 2.028280372020379 25.460876169721182 31.913755309352076 0 0 0
1386 164 6 -0.1532 0.6548849922411958 26.94361054609291 28.54022244960355 0 0 0
1391 90 6 -0.1532 6.9984253656706095 28.54022267999747 33.28715068913178 0 0 0
1393 164 6 -0.1532 0.6548849922409838 28.54022267999546 26.94361031570084 0 0 0
1402 131 6 -0.1532 6.99842536567083 33.287150919523484 28.540222449604233 0 0 0
1406 131 6 -0.1532 5.40181323176804 33.28715091952308 26.943610315701722 0 0 0
1424 90 6 -0.1532 5.401813231767786 26.943610546094995 33.287150689131835 0 0 0
410 1 1 0.5212 12.728263284313766 25.456527127451125 33.94203589705866 0 0 -1
1240 163 2 0.142 12.927858104645813 27.97574339308926 31.892865746100128 0 0 0
1243 165 2 0.142 14.921847633352105 29.89887644777967 27.97574316269477 0 0 0
1248 169 2 0.142 11.004725049952274 31.892865976493702 29.898876217391326 0 0 0
1252 169 2 0.142 11.004725049952457 29.898876447784065 31.89286574610109 0 0 0
1255 165 2 0.142 12.92785810464269 31.892865976489613 27.975743162694737 0 0 0
1260 163 2 0.142 14.92184763335556 27.97574339308901 29.898876217390473 0 0 0
1261 68 3 0.1145 10.118227443585246 27.089245786722667 32.99265608343465 0 0 0
1265 174 3 0.1145 16.02163797068872 27.089245786722607 27.089245556330983 0 0 0
1266 114 3 0.1145 10.118227443583901 32.992656313827865 27.089245556329004 0 0 0
1312 163 4 -0.1504 13.720874226778017 27.249969921163164 31.67686600522938 0 0 0
1315 165 4 -0.1504 14.705847892482337 30.69189256991285 27.249969690769454 0 0 0
1320 169 4 -0.1504 10.278951578026124 31.676866235622676 30.691892339523406 0 0 0
1324 169 4 -0.1504 10.278951578026218 30.691892569916067 31.67686600523009 0 0 0
1327 165 4 -0.1504 13.720874226775836 31.67686623561963 27.24996969076944 0 0 0
1332 163 4 -0.1504 14.705847892484686 27.24996992116304 30.69189233952276 0 0 0
925 114 5 -0.0519 10.513789372020623 33.93768708518088 27.484807484765668 0 -1 0
1432 1 1 0.5212 16.971017784313805 25.456527127450588 29.69928139705882 0 0 0
1344 169 5 -0.0519 8.481159742043173 31.913755539744006 31.913755309351494 0 0 0
1384 163 6 -0.1532 13.887322231768644 26.111412335378663 32.45495247841617 0 0 0
1387 165 6 -0.1532 15.483934365670537 30.8583405749049 26.111412104986126 0 0 0
1392 169 6 -0.1532 9.140393992241263 32.45495270880899 30.85834034451379 0 0 0
415 1 1 0.5212 4.2427542843134995 25.456527127451874 33.942035897059014 0 0 -1
411 1 1 0.5212 8.485508784313968 29.699281627451445 33.942035897059 0 0 -1
521 68 5 -0.0519 10.513789372021167 27.484807715158524 33.937686854788346 0 0 -1
1341 167 5 -0.0519 2.0282803720202836 31.913755539743107 25.46087593932898 0 0 0
214 1 1 0.5212 25.456526784313397 1.2745166494170957e-07 4.242754397058964 0 0 0
256 58 2 0.142 21.41336710464102 2.519216393085754 6.436338746097128 0 0 0
259 61 2 0.142 23.407356633352983 4.442349447781271 2.51921616269524 0 0 0
264 36 2 0.142 19.490234049951535 6.436338976492144 4.442349217390531 0 0 0
268 36 2 0.142 19.490234049951795 4.442349447782557 6.4363387461003265 0 0 0
271 61 2 0.142 21.413367104643378 6.436338976491033 2.5192161626954794 0 0 0
276 58 2 0.142 23.40735663335063 2.5192163930863596 4.442349217387409 0 0 0
277 59 3 0.1145 18.603736443585298 1.6327187867222521 7.536129083434617 0 0 0
281 60 3 0.1145 24.50714697069049 1.632718786721407 1.6327185563285087 0 0 0
282 57 3 0.1145 18.603736443585138 7.536129313826782 1.6327185563303424 0 0 0
328 58 4 -0.1504 22.20638322677469 1.7934429211609197 6.220339005227539 0 0 0
331 61 4 -0.1504 23.1913568924829 5.235365569914298 1.7934426907698462 0 0 0
336 36 4 -0.1504 18.764460578025595 6.220339235621372 5.235365339522872 0 0 0
340 36 4 -0.1504 18.76446057802572 5.235365569914774 6.2203390052295635 0 0 0
343 61 4 -0.1504 22.206383226776307 6.220339235620983 1.793442690769968 0 0 0
348 58 4 -0.1504 23.191356892481306 1.7934429211612197 5.2353653395208735 0 0 0
156 30 5 -0.0519 33.93768674204322 6.457228539743494 6.457228309351656 -1 0 0
723 56 5 -0.0519 27.48480737202006 0.00434916972120844 6.457228309352483 0 1 0
406 39 6 -0.1532 32.454952365670835 7.830623919523017 3.083695449603751 0 0 0
388 58 6 -0.1532 22.37283123176768 0.6548853353780251 6.99842547841617 0 0 0
391 61 6 -0.1532 23.969443365670703 5.401813574906199 0.6548851049862262 0 0 0
396 36 6 -0.1532 17.625902992241063 6.998425708808079 5.401813344513674 0 0 0
400 36 6 -0.1532 17.625902992241265 5.401813574905506 6.998425478416391 0 0 0
403 61 6 -0.1532 22.372831231768142 6.99842570880892 0.6548851049864288 0 0 0
408 58 6 -0.1532 23.969443365670287 0.6548853353785091 5.401813344513478 0 0 0
9 1 1 0.5212 33.942035784313866 4.2427546274507595 8.485508897058942 -1 0 0
397 60 6 -0.1532 26.11141199224062 3.0836956799971 1.4870833157015826 0 0 0
349 57 5 -0.0519 18.999298372020696 8.481160085180617 2.028280484766227 0 0 0
218 39 2 0.142 29.89887610464588 5.966292861812094 2.049170048016056 0 0 0
236 49 2 0.142 29.898876104643463 2.049170278411472 5.966292631422607 0 0 0
252 56 3 0.1145 27.089245443582254 0.9493799410732084 6.852790237790506 0 0 0
258 60 2 0.142 27.97574304994885 2.049170278413165 4.043159576730022 0 0 0
263 49 2 0.142 31.892865633353203 4.043159807121113 5.966292631422527 0 0 0
265 60 2 0.142 27.975743049948978 4.043159807122751 2.0491700480202586 0 0 0
274 39 2 0.142 31.892865633355484 5.966292861811853 4.0431595767258734 0 0 0
279 63 3 0.1145 27.08924544358556 6.8527904681795375 0.949379710683115 0 0 0
285 30 3 0.1145 32.99265597068971 6.8527904681795535 6.852790237787827 0 0 0
290 39 4 -0.1504 30.69189222677788 6.692066333738279 2.265169788887228 0 0 0
308 49 4 -0.1504 30.691892226776474 2.265170019281526 6.692066103348031 0 0 0
390 60 6 -0.1532 26.111411992240498 1.4870835460945468 3.083695449604325 0 0 0
330 60 4 -0.1504 27.249969578023688 2.2651700192828867 3.250143454596681 0 0 0
335 49 4 -0.1504 31.676865892483143 3.250143684988139 6.692066103347986 0 0 0
337 60 4 -0.1504 27.249969578023748 3.2501436849894834 2.265169788889999 0 0 0
346 39 4 -0.1504 31.67686589248448 6.692066333738157 3.250143454593925 0 0 0
395 49 6 -0.1532 32.454952365671055 3.0836956799962447 7.830623689131528 0 0 0
354 60 5 -0.0519 25.452177742043215 2.028280715158437 2.028280484765552 0 0 0
362 39 6 -0.1532 30.858340231768267 7.830623919523224 1.4870833157010372 0 0 0
380 49 6 -0.1532 30.85834023176837 1.487083546093656 7.830623689131605 0 0 0
212 1 1 0.5212 21.21377228431341 1.2745033847057548e-07 8.485508897059105 0 0 0
353 59 5 -0.0519 18.999298372020913 2.0282807151578495 8.48115985478855 0 0 0
205 1 1 0.5212 29.699281284313653 1.274509578597256e-07 8.485508897058946 0 0 0
1173 63 5 -0.0519 27.484807372020946 6.457228539744019 0.004348939329053651 0 0 1
722 55 5 -0.0519 23.42824619660646 0.0043491697210275605 10.513789484766074 0 1 0
224 44 2 0.142 22.937310518677336 2.049170278412275 12.927858217388206 0 0 0
237 50 2 0.142 19.020187935276564 5.966292861816004 12.927858217386948 0 0 0
250 55 3 0.1145 23.82380812504276 0.9493799410742741 10.118227556329517 0 0 0
255 50 2 0.142 21.01417746398613 5.96629286181647 14.921847746096738 0 0 0
257 59 2 0.142 19.02018793527184 4.043159807118465 11.00472516269729 0 0 0
267 44 2 0.142 22.937310518677243 4.043159807122001 14.921847746097853 0 0 0
269 59 2 0.142 21.014177463981397 2.049170278408614 11.0047251626974 0 0 0
278 62 3 0.1145 23.82380812504303 6.852790468181267 16.021638083435555 0 0 0
283 11 3 0.1145 17.920397597936297 6.852790468180955 10.118227556328645 0 0 0
296 44 4 -0.1504 23.66308399060268 2.2651700192822632 13.72087433952131 0 0 0
309 50 4 -0.1504 19.236187676145867 6.692066333741078 13.720874339520481 0 0 0
320 44 5 -0.0519 25.46087582658358 2.0282807151584157 14.942737309351918 0 0 0
327 50 4 -0.1504 20.221161341852465 6.692066333741313 14.705848005227166 0 0 0
329 59 4 -0.1504 19.23618767614269 3.2501436849862513 10.278951690771231 0 0 0
339 44 4 -0.1504 23.663083990602637 3.2501436849889327 14.705848005227924 0 0 0
341 59 4 -0.1504 20.221161341849253 2.265170019279531 10.278951690771283 0 0 0
154 11 5 -0.0519 16.975366826583652 6.45722853974383 10.513789484765798 0 0 0
316 41 5 -0.0519 31.913755196606314 8.48116008518076 14.94273730935146 0 0 0
368 44 6 -0.1532 24.801641576386125 1.487083546094252 13.887322344513393 0 0 0
381 50 6 -0.1532 18.45810120295685 7.830623919523746 13.887322344513187 0 0 0
387 50 6 -0.1532 20.054713336859447 7.830623919524152 15.483934478415875 0 0 0
389 59 6 -0.1532 18.458101202956115 3.0836956799956843 9.14039410498658 0 0 0
399 44 6 -0.1532 24.801641576386064 3.0836956799969517 15.483934478415987 0 0 0
401 59 6 -0.1532 20.054713336858626 1.4870835460929137 9.140394104986665 0 0 0
383 52 6 -0.1532 28.540222336858772 6.998425708808778 16.316132689130995 0 0 0
210 1 1 0.5212 25.456526784313613 1.2745136039083736e-07 12.728263397058983 0 0 0
217 38 2 0.142 29.499686463984172 2.5192163930873424 10.534679048019534 0 0 0
226 34 2 0.142 31.42281951867812 6.436338976488901 12.528668576730327 0 0 0
234 38 2 0.142 27.505696935274518 2.519216393087584 12.528668576729249 0 0 0
239 52 2 0.142 29.499686463981632 6.436338976492717 14.451801631420423 0 0 0
244 49 3 0.1145 32.30931712504355 1.632718786721154 9.434888710682143 0 0 0
248 41 3 0.1145 32.30931712504217 7.5361293138271055 15.338299237787478 0 0 0
251 44 3 0.1145 26.405906597936546 1.6327187867216901 15.338299237788705 0 0 0
261 52 2 0.142 27.50569693527177 4.442349447783168 14.451801631420585 0 0 0
266 34 2 0.142 31.422819518678246 4.442349447779215 10.53467904802065 0 0 0
289 38 4 -0.1504 28.7066703418511 1.7934429211619909 10.750678788889603 0 0 0
298 34 4 -0.1504 32.14859299060329 6.220339235619256 11.735652454596975 0 0 0
306 38 4 -0.1504 27.721696676144468 1.7934429211621132 11.735652454596252 0 0 0
311 52 4 -0.1504 28.7066703418494 6.220339235621993 15.177575103346495 0 0 0
393 52 6 -0.1532 26.943610202956027 5.401813574906246 16.316132689131145 0 0 0
333 52 4 -0.1504 27.721696676142674 5.235365569915433 15.17757510334657 0 0 0
338 34 4 -0.1504 32.148592990603355 5.235365569912608 10.750678788890342 0 0 0
378 38 6 -0.1532 26.943610202956428 0.6548853353786547 11.569204449604364 0 0 0
398 34 6 -0.1532 33.28715057638643 5.401813574905132 9.972592315701876 0 0 0
361 38 6 -0.1532 28.540222336859088 0.6548853353784295 9.972592315701737 0 0 0
370 34 6 -0.1532 33.287150576386324 6.998425708807791 11.569204449604504 0 0 0
1171 62 5 -0.0519 23.42824619660649 6.457228539744697 16.966668854788693 0 0 0
1031 1 1 0.5212 25.456526784313407 4.242754627451585 16.97101789705878 0 0 0
323 49 5 -0.0519 31.913755196606857 2.028280715157816 8.489857939329102 0 0 0
1030 1 1 0.5212 25.456526784313308 1.2745159557562142e-07 21.21377239705902 0 0 0
1072 158 2 0.142 21.413367104639548 2.5192163930846303 23.407356746095672 0 0 0
1075 62 2 0.142 23.407356633353213 4.442349447781571 19.49023416269541 0 0 0
1080 140 2 0.142 19.49023404995277 6.436338976493298 21.413367217391844 0 0 0
1084 140 2 0.142 19.490234049952903 4.442349447783777 23.40735674610173 0 0 0
1087 62 2 0.142 21.413367104643537 6.436338976491276 19.490234162695543 0 0 0
1092 158 2 0.142 23.407356633349227 2.5192163930851534 21.413367217386035 0 0 0
1093 159 3 0.1145 18.603736443585525 1.6327187867226172 24.507147083434383 0 0 0
1097 160 3 0.1145 24.50714697069143 1.6327187867203594 18.603736556327487 0 0 0
1098 157 3 0.1145 18.60373644358558 7.536129313826547 18.603736556330738 0 0 0
1144 158 4 -0.1504 22.206383226773685 1.793442921160149 23.191357005226614 0 0 0
1147 62 4 -0.1504 23.191356892483036 5.2353655699144985 18.764460690769926 0 0 0
1152 140 4 -0.1504 18.764460578026462 6.220339235622145 22.206383339523747 0 0 0
1156 140 4 -0.1504 18.764460578026522 5.2353655699155786 23.191357005230472 0 0 0
1159 62 4 -0.1504 22.206383226776417 6.22033923562116 18.764460690769997 0 0 0
1164 158 4 -0.1504 23.19135689248033 1.7934429211604106 22.20638333951998 0 0 0
972 137 5 -0.0519 33.937686742043084 6.457228539743245 23.428246309351326 -1 0 0
1539 156 5 -0.0519 27.484807372020004 0.004349169721087854 23.42824630935257 0 1 0
1222 143 6 -0.1532 32.454952365671254 7.830623919522741 20.054713449603547 0 0 0
1204 158 6 -0.1532 22.37283123176738 0.6548853353778904 23.969443478416025 0 0 0
1207 62 6 -0.1532 23.96944336567074 5.401813574906272 17.62590310498623 0 0 0
1212 140 6 -0.1532 17.625902992241393 6.998425708808217 22.372831344513816 0 0 0
1216 140 6 -0.1532 17.62590299224148 5.401813574905688 23.969443478416576 0 0 0
1219 62 6 -0.1532 22.372831231768146 6.998425708808956 17.62590310498635 0 0 0
1224 158 6 -0.1532 23.969443365670035 0.6548853353783092 22.37283134451338 0 0 0
825 1 1 0.5212 33.94203578431382 4.242754627450894 25.456526897059007 -1 0 0
1213 160 6 -0.1532 26.11141199224051 3.083695679997353 18.458101315701978 0 0 0
1165 157 5 -0.0519 18.999298372020913 8.481160085180598 18.999298484766328 0 0 0
1034 143 2 0.142 29.898876104647847 5.966292861810597 19.020188048014198 0 0 0
1052 151 2 0.142 29.898876104643513 2.049170278411523 22.93731063142249 0 0 0
1068 156 3 0.1145 27.08924544358199 0.9493799410728848 23.82380823779087 0 0 0
1074 160 2 0.142 27.975743049947347 2.0491702784149006 21.014177576732035 0 0 0
1079 151 2 0.142 31.89286563335312 4.043159807121297 22.937310631422463 0 0 0
1081 160 2 0.142 27.975743049947553 4.043159807124566 19.020188048022376 0 0 0
1090 143 2 0.142 31.892865633357466 5.966292861810261 21.014177576724027 0 0 0
1095 52 3 0.1145 27.08924544358531 6.85279046817984 17.920397710682952 0 0 0
1101 137 3 0.1145 32.99265597068884 6.852790468178482 23.823808237786555 0 0 0
1106 143 4 -0.1504 30.691892226779245 6.692066333737253 19.236187788886028 0 0 0
1124 151 4 -0.1504 30.69189222677651 2.26517001928161 23.663084103347916 0 0 0
1206 160 6 -0.1532 26.111411992240313 1.4870835460947458 20.05471344960467 0 0 0
1146 160 4 -0.1504 27.249969578022696 2.2651700192840436 20.221161454598068 0 0 0
1151 151 4 -0.1504 31.676865892483118 3.250143684988285 23.663084103347902 0 0 0
1153 160 4 -0.1504 27.249969578022796 3.2501436849906753 19.236187788891424 0 0 0
1162 143 4 -0.1504 31.676865892485846 6.692066333737081 20.221161454592718 0 0 0
1211 151 6 -0.1532 32.45495236567105 3.083695679996401 24.80164168913144 0 0 0
1170 160 5 -0.0519 25.452177742043485 2.028280715158163 18.999298484765376 0 0 0
1178 143 6 -0.1532 30.858340231768675 7.830623919523031 18.45810131570085 0 0 0
1196 151 6 -0.1532 30.858340231768448 1.487083546093719 24.801641689131475 0 0 0
1028 1 1 0.5212 21.21377228431327 1.2745029839287158e-07 25.45652689705912 0 0 0
1169 159 5 -0.0519 18.99929837202092 2.028280715157955 25.452177854788513 0 0 0
1021 1 1 0.5212 29.69928128431379 1.2745095374269576e-07 25.456526897058787 0 0 0
357 52 5 -0.0519 27.48480737202094 6.45722853974407 16.9753669393291 0 0 0
1538 155 5 -0.0519 23.428246196606477 0.004349169721004951 27.484807484765927 0 1 0
1040 147 2 0.142 22.93731051867862 2.049170278413833 29.89887621738641 0 0 0
1053 152 2 0.142 19.020187935276482 5.966292861815765 29.89887621738727 0 0 0
1066 155 3 0.1145 23.823808125042817 0.9493799410741948 27.089245556329267 0 0 0
1071 152 2 0.142 21.01417746398599 5.966292861816284 31.892865746097122 0 0 0
1073 159 2 0.142 19.02018793527129 4.043159807117914 27.975743162697785 0 0 0
1083 147 2 0.142 22.93731051867841 4.043159807123545 31.892865746096042 0 0 0
1085 159 2 0.142 21.01417746398078 2.0491702784079844 27.975743162697867 0 0 0
1094 61 3 0.1145 23.823808125043154 6.852790468181415 32.99265608343574 0 0 0
1099 122 3 0.1145 17.920397597936237 6.8527904681809835 27.08924555632872 0 0 0
1112 147 4 -0.1504 23.663083990603514 2.265170019283307 30.691892339520056 0 0 0
1125 152 4 -0.1504 19.236187676145825 6.692066333740905 30.691892339520727 0 0 0
1136 147 5 -0.0519 25.46087582658334 2.0282807151582207 31.913755309352002 0 0 0
1143 152 4 -0.1504 20.221161341852394 6.692066333741172 31.676866005227442 0 0 0
1145 159 4 -0.1504 19.2361876761423 3.2501436849858862 27.24996969077157 0 0 0
1155 147 4 -0.1504 23.66308399060342 3.250143684989975 31.676866005226668 0 0 0
1157 159 4 -0.1504 20.22116134184883 2.265170019279128 27.249969690771607 0 0 0
970 122 5 -0.0519 16.975366826583606 6.457228539743823 27.48480748476588 0 0 0
1132 145 5 -0.0519 31.913755196606104 8.481160085180589 31.91375530935124 0 0 0
1184 147 6 -0.1532 24.801641576386288 1.4870835460944867 30.85834034451301 0 0 0
1197 152 6 -0.1532 18.458101202956893 7.830623919523655 30.858340344513287 0 0 0
1203 152 6 -0.1532 20.054713336859454 7.8306239195241165 32.45495247841601 0 0 0
1205 159 6 -0.1532 18.458101202956005 3.0836956799956443 26.11141210498668 0 0 0
1215 147 6 -0.1532 24.80164157638612 3.0836956799971778 32.45495247841561 0 0 0
1217 159 6 -0.1532 20.054713336858466 1.487083546092829 26.111412104986737 0 0 0
1199 63 6 -0.1532 28.54022233685863 6.998425708808879 33.28715068913084 0 0 0
1026 1 1 0.5212 25.456526784313688 1.2745139684663246e-07 29.6992813970588 0 0 0
1033 142 2 0.142 29.499686463984435 2.5192163930871914 27.50569704801953 0 0 0
1042 138 2 0.142 31.422819518678168 6.436338976488736 29.49968657673062 0 0 0
1050 142 2 0.142 27.505696935274756 2.519216393087423 29.499686576729218 0 0 0
1055 63 2 0.142 29.49968646398101 6.436338976493309 31.422819631419866 0 0 0
1060 151 3 0.1145 32.30931712504363 1.6327187867212496 26.405906710682007 0 0 0
1064 145 3 0.1145 32.30931712504139 7.536129313826448 32.30931723778667 0 0 0
1067 147 3 0.1145 26.405906597935726 1.6327187867208306 32.30931723778953 0 0 0
1077 63 2 0.142 27.50569693527115 4.442349447783757 31.422819631420023 0 0 0
1082 138 2 0.142 31.422819518678256 4.442349447779101 27.50569704802089 0 0 0
1105 142 4 -0.1504 28.7066703418513 1.793442921161884 27.72169678888953 0 0 0
1114 138 4 -0.1504 32.14859299060329 6.2203392356191545 28.706670454597212 0 0 0
1122 142 4 -0.1504 27.72169667614466 1.793442921162001 28.706670454596168 0 0 0
1127 63 4 -0.1504 28.706670341848962 6.220339235622402 32.14859310334609 0 0 0
1209 63 6 -0.1532 26.943610202955885 5.401813574906354 33.287150689130975 0 0 0
1149 63 4 -0.1504 27.721696676142237 5.235365569915839 32.14859310334616 0 0 0
1154 138 4 -0.1504 32.14859299060334 5.2353655699125285 27.721696788890558 0 0 0
1194 142 6 -0.1532 26.94361020295653 0.654885335378615 28.540222449604173 0 0 0
1214 138 6 -0.1532 33.28715057638634 5.4018135749051535 26.943610315702003 0 0 0
1177 142 6 -0.1532 28.54022233685922 0.6548853353783948 26.943610315701576 0 0 0
1186 138 6 -0.1532 33.28715057638627 6.998425708807762 28.540222449604673 0 0 0
355 61 5 -0.0519 23.428246196606526 6.457228539744722 33.93768685478879 0 0 -1
215 1 1 0.5212 25.45652678431336 4.242754627451572 33.94203589705863 0 0 -1
1139 151 5 -0.0519 31.91375519660691 2.0282807151579205 25.460875939328982 0 0 0
350 39 5 -0.0519 31.913755196605884 8.48985816972133 2.028280484766171 0 0 0
225 45 2 0.142 19.020187935273743 12.927858447780606 5.966292631422041 0 0 0
230 48 2 0.142 22.93731051867865 12.927858447779649 2.049170048021001 0 0 0
253 57 2 0.142 21.01417746398122 11.004725393089426 2.0491700480179027 0 0 0
262 48 2 0.142 22.937310518678466 14.921847976489413 4.043159576730598 0 0 0
270 57 2 0.142 19.02018793527138 11.00472539308886 4.043159576727469 0 0 0
275 45 2 0.142 21.01417746398356 14.921847976490174 5.966292631422264 0 0 0
280 64 3 0.1145 23.82380812504489 10.11822778672049 0.9493797106808877 0 0 0
284 65 3 0.1145 23.823808125044362 16.02163831382875 6.8527902377895735 0 0 0
287 15 3 0.1145 17.920397597936674 10.11822778672132 6.852790237787981 0 0 0
297 45 4 -0.1504 19.236187676143917 13.720874569913438 6.692066103347623 0 0 0
302 48 4 -0.1504 23.663083990603635 13.720874569913203 2.2651697888905353 0 0 0
12 1 1 0.5212 33.9420357843132 8.485509127450612 4.242754397058769 -1 0 0
322 48 5 -0.0519 25.460875826583692 14.942737539744853 2.0282804847656304 0 0 0
325 57 4 -0.1504 20.22116134184903 10.278951921163278 2.265169788888527 0 0 0
334 48 4 -0.1504 23.66308399060355 14.70584823561988 3.2501434545971373 0 0 0
342 57 4 -0.1504 19.236187676142322 10.278951921162996 3.2501434545951047 0 0 0
347 45 4 -0.1504 20.22116134185062 14.705848235620012 6.692066103347738 0 0 0
152 15 5 -0.0519 16.975366826583382 10.513789715157678 6.457228309351604 0 0 0
369 45 6 -0.1532 18.458101202956133 13.887322574905152 7.830623689131282 0 0 0
374 48 6 -0.1532 24.80164157638655 13.887322574905923 1.4870833157018797 0 0 0
385 57 6 -0.1532 20.054713336858487 9.140394335378861 1.4870833157016012 0 0 0
394 48 6 -0.1532 24.801641576386416 15.48393470880862 3.0836954496044675 0 0 0
402 57 6 -0.1532 18.458101202955742 9.140394335378403 3.083695449604135 0 0 0
407 45 6 -0.1532 20.0547133368589 15.483934708807672 7.830623689131482 0 0 0
760 65 5 -0.0519 23.42824619660678 16.966669085181145 6.457228309352272 0 0 0
219 40 2 0.142 29.499686463985523 14.451801861816355 6.4363387460960855 0 0 0
221 42 2 0.142 27.50569693527312 12.528668807120239 2.5192161626962966 0 0 0
231 37 2 0.142 31.42281951867484 12.528668807118729 6.436338746100243 0 0 0
233 42 2 0.142 29.49968646398274 10.534679278410476 2.5192161626962317 0 0 0
242 43 3 0.1145 32.3093171250433 15.338299468180697 7.536129083435816 0 0 0
247 48 3 0.1145 26.4059065979362 15.338299468182178 1.6327185563283504 0 0 0
260 37 2 0.142 31.422819518674803 10.53467927840899 4.442349217390577 0 0 0
273 40 2 0.142 27.50569693527582 14.45180186181675 4.442349217386445 0 0 0
286 39 3 0.1145 32.30931712504128 9.434888941075496 1.6327185563309181 0 0 0
291 40 4 -0.1504 28.70667034185195 15.177575333741386 6.220339005226776 0 0 0
293 42 4 -0.1504 27.721696676143615 11.735652684987723 1.7934426907704595 0 0 0
303 37 4 -0.1504 32.148592990600875 11.735652684986485 6.220339005229424 0 0 0
305 42 4 -0.1504 28.70667034185022 10.750679019281042 1.7934426907704302 0 0 0
392 37 6 -0.1532 33.28715057638541 9.97259254609312 5.401813344513505 0 0 0
377 42 6 -0.1532 28.540222336859024 9.972592546093926 0.6548851049862405 0 0 0
332 37 4 -0.1504 32.148592990600854 10.750679019279819 5.235365339522802 0 0 0
345 40 4 -0.1504 27.7216966761453 15.17757533374158 5.235365339520153 0 0 0
405 40 6 -0.1532 26.943610202956503 16.31613291952436 5.401813344513172 0 0 0
363 40 6 -0.1532 28.54022233685915 16.31613291952403 6.998425478415812 0 0 0
365 42 6 -0.1532 26.943610202956457 11.569204679996648 0.6548851049862748 0 0 0
375 37 6 -0.1532 33.28715057638544 11.569204679995803 6.998425478416099 0 0 0
5 1 1 0.5212 33.942035784313184 12.728263627450616 8.48550889705856 -1 0 0
319 43 5 -0.0519 31.913755196606445 14.942737539743838 8.481159854788702 0 0 0
1175 64 5 -0.0519 23.428246196607084 10.513789715158268 0.004348939328782332 0 0 1
1022 1 1 0.5212 29.699281284313695 8.485509127451166 16.971017897058672 0 0 0
384 41 6 -0.1532 32.45495236567102 9.140394335378543 13.887322344513427 0 0 0
222 21 2 0.142 19.490234049951635 10.534679278409385 12.528668576726764 0 0 0
227 46 2 0.142 23.407356633350975 12.52866880712409 14.451801631424242 0 0 0
229 21 2 0.142 19.49023404995141 12.528668807119043 10.534679048017017 0 0 0
238 51 2 0.142 23.407356633353874 14.451801861814278 12.528668576729011 0 0 0
243 45 3 0.1145 18.603736443583912 15.338299468179915 9.434888710682168 0 0 0
249 47 3 0.1145 24.50714697068964 15.338299468179988 15.338299237787703 0 0 0
254 51 2 0.142 21.413367104644127 14.451801861813816 10.534679048019395 0 0 0
272 46 2 0.142 21.413367104641136 10.534679278414593 14.451801631424308 0 0 0
288 50 3 0.1145 18.60373644358284 9.434888941073487 15.338299237789396 0 0 0
294 21 4 -0.1504 18.764460578025577 10.750679019280104 11.735652454594511 0 0 0
299 46 4 -0.1504 23.191356892481625 11.735652684990397 15.17757510334912 0 0 0
301 21 4 -0.1504 18.76446057802547 11.73565268498672 10.750678788887843 0 0 0
310 51 4 -0.1504 23.191356892483523 15.177575333739767 11.735652454596144 0 0 0
114 7 5 -0.0519 33.93768674204298 10.51378971515797 10.513789484765914 -1 0 0
379 43 6 -0.1532 30.85834023176791 15.48393470880795 9.140394104986182 0 0 0
326 51 4 -0.1504 22.206383226776854 15.177575333739528 10.750678788889529 0 0 0
344 46 4 -0.1504 22.2063832267749 10.750679019283837 15.177575103349144 0 0 0
351 50 5 -0.0519 18.999298372020412 8.489858169721092 14.942737309352086 0 0 0
366 21 6 -0.1532 17.62590299224112 9.972592546093267 11.569204449603818 0 0 0
371 46 6 -0.1532 23.9694433656707 11.569204679997283 16.316132689131695 0 0 0
373 21 6 -0.1532 17.625902992240945 11.569204679995858 9.972592315701135 0 0 0
382 51 6 -0.1532 23.96944336567095 16.31613291952367 11.569204449604428 0 0 0
386 51 6 -0.1532 22.372831231768284 16.31613291952326 9.972592315701792 0 0 0
404 46 6 -0.1532 22.37283123176793 9.972592546094758 16.316132689131727 0 0 0
220 41 2 0.142 29.89887610464502 11.004725393088952 14.92184774609949 0 0 0
223 43 2 0.142 31.892865633352102 12.927858447779839 11.004725162694712 0 0 0
228 47 2 0.142 27.97574304995157 14.921847976492815 12.927858217390522 0 0 0
232 47 2 0.142 27.975743049951713 12.927858447783068 14.92184774610016 0 0 0
235 43 2 0.142 29.8988761046426 14.921847976489696 11.004725162694834 0 0 0
240 41 2 0.142 31.89286563335478 11.004725393088695 12.927858217389847 0 0 0
241 53 3 0.1145 27.089245443585128 10.11822778672252 16.0216380834349 0 0 0
245 7 3 0.1145 32.99265597068926 10.118227786722034 10.118227556330108 0 0 0
246 54 3 0.1145 27.089245443583735 16.021638313828106 10.118227556329193 0 0 0
292 41 4 -0.1504 30.691892226777426 10.278951921163014 14.705848005228948 0 0 0
295 43 4 -0.1504 31.676865892482283 13.720874569913047 10.27895169076944 0 0 0
300 47 4 -0.1504 27.249969578025667 14.705848235622087 13.720874339522911 0 0 0
304 47 4 -0.1504 27.249969578025745 13.720874569915425 14.705848005229537 0 0 0
307 43 4 -0.1504 30.691892226775728 14.705848235619774 10.278951690769503 0 0 0
312 41 4 -0.1504 31.676865892484095 10.278951921162884 13.720874339522327 0 0 0
721 54 5 -0.0519 27.48480737202055 16.96666908518108 10.51378948476588 0 0 0
4 1 1 0.5212 33.94203578431363 8.48550912745085 12.728263397058782 -1 0 0
324 47 5 -0.0519 25.452177742043375 14.94273753974419 14.942737309351822 0 0 0
364 41 6 -0.1532 30.85834023176837 9.140394335378781 15.483934478416053 0 0 0
367 43 6 -0.1532 32.45495236567043 13.88732257490518 9.140394104986088 0 0 0
372 47 6 -0.1532 26.111411992241262 15.483934708808942 13.887322344513871 0 0 0
376 47 6 -0.1532 26.111411992241376 13.887322574906262 15.483934478416476 0 0 0
1027 1 1 0.5212 21.21377228431355 8.485509127451733 16.97101789705895 0 0 0
1023 1 1 0.5212 25.456526784313922 12.728263627451376 16.971017897059014 0 0 0
1133 53 5 -0.0519 27.484807372021116 10.513789715158484 16.966668854788523 0 0 0
321 45 5 -0.0519 18.999298372020455 14.94273753974343 8.489857939329 0 0 0
1166 143 5 -0.0519 31.913755196605788 8.489858169721503 18.99929848476651 0 0 0
1041 148 2 0.142 19.020187935273533 12.927858447780704 22.937310631421834 0 0 0
1046 150 2 0.142 22.937310518679308 12.927858447778771 19.020188048021872 0 0 0
1069 157 2 0.142 21.014177463980786 11.004725393089934 19.020188048017157 0 0 0
1078 150 2 0.142 22.93731051867913 14.921847976488582 21.014177576731402 0 0 0
1086 157 2 0.142 19.020187935271068 11.004725393089416 21.014177576726855 0 0 0
1091 148 2 0.142 21.014177463983277 14.92184797649035 22.937310631422086 0 0 0
1096 46 3 0.1145 23.823808125044646 10.118227786720611 17.92039771068102 0 0 0
1100 161 3 0.1145 23.82380812504474 16.021638313829023 23.823808237790136 0 0 0
1103 125 3 0.1145 17.920397597937487 10.118227786722104 23.823808237787045 0 0 0
1113 148 4 -0.1504 19.236187676143754 13.720874569913454 23.66308410334749 0 0 0
1118 150 4 -0.1504 23.66308399060409 13.72087456991259 19.236187788891108 0 0 0
828 1 1 0.5212 33.942035784313404 8.485509127450564 21.213772397058722 -1 0 0
1138 150 5 -0.0519 25.460875826583624 14.942737539744876 18.999298484765525 0 0 0
1141 157 4 -0.1504 20.2211613418488 10.27895192116364 19.23618778888805 0 0 0
1150 150 4 -0.1504 23.663083990604004 14.705848235619293 20.221161454597677 0 0 0
1158 157 4 -0.1504 19.236187676142148 10.278951921163381 20.22116145459469 0 0 0
1163 148 4 -0.1504 20.221161341850426 14.705848235620069 23.663084103347614 0 0 0
968 125 5 -0.0519 16.975366826583645 10.513789715157811 23.428246309351334 0 0 0
1185 148 6 -0.1532 18.458101202956083 13.887322574905006 24.801641689131248 0 0 0
1190 150 6 -0.1532 24.80164157638665 13.887322574905715 18.45810131570202 0 0 0
1201 157 6 -0.1532 20.054713336858516 9.14039433537895 18.458101315701466 0 0 0
1210 150 6 -0.1532 24.80164157638653 15.483934708808443 20.054713449604577 0 0 0
1218 157 6 -0.1532 18.45810120295586 9.140394335378538 20.05471344960409 0 0 0
1223 148 6 -0.1532 20.054713336858786 15.483934708807588 24.80164168913147 0 0 0
1576 161 5 -0.0519 23.42824619660684 16.966669085181135 23.428246309352478 0 0 0
1035 144 2 0.142 29.4996864639868 14.45180186181724 23.40735674609472 0 0 0
1037 53 2 0.142 27.50569693527299 12.52866880712002 19.49023416269652 0 0 0
1047 141 2 0.142 31.42281951867427 12.528668807117896 23.4073567461009 0 0 0
1049 53 2 0.142 29.49968646398269 10.53467927841033 19.49023416269649 0 0 0
1058 146 3 0.1145 32.30931712504338 15.338299468180493 24.507147083435783 0 0 0
1063 150 3 0.1145 26.405906597935846 15.338299468182537 18.60373655632789 0 0 0
1076 141 2 0.142 31.422819518674277 10.534679278408221 21.413367217391144 0 0 0
1089 144 2 0.142 27.505696935277022 14.451801861817685 21.413367217385183 0 0 0
1102 143 3 0.1145 32.30931712504041 9.434888941076336 18.603736556332073 0 0 0
1107 144 4 -0.1504 28.706670341852814 15.177575333741949 23.191357005225886 0 0 0
1109 53 4 -0.1504 27.721696676143573 11.735652684987556 18.764460690770655 0 0 0
1119 141 4 -0.1504 32.148592990600505 11.735652684985913 23.191357005229797 0 0 0
1121 53 4 -0.1504 28.70667034185021 10.750679019280904 18.76446069077065 0 0 0
1208 141 6 -0.1532 33.287150576385386 9.972592546092965 22.372831344513457 0 0 0
1193 53 6 -0.1532 28.54022233685912 9.972592546093832 17.62590310498641 0 0 0
1148 141 4 -0.1504 32.14859299060051 10.750679019279277 22.206383339523136 0 0 0
1161 144 4 -0.1504 27.72169667614611 15.177575333742169 22.206383339519313 0 0 0
1221 144 6 -0.1532 26.94361020295668 16.31613291952441 22.372831344513042 0 0 0
1179 144 6 -0.1532 28.540222336859394 16.316132919524023 23.969443478415617 0 0 0
1181 53 6 -0.1532 26.94361020295651 11.569204679996508 17.625903104986406 0 0 0
1191 141 6 -0.1532 33.28715057638539 11.569204679995606 23.96944347841609 0 0 0
821 1 1 0.5212 33.94203578431318 12.728263627450426 25.456526897058513 -1 0 0
1135 146 5 -0.0519 31.913755196606516 14.942737539743673 25.452177854788676 0 0 0
359 46 5 -0.0519 23.428246196607056 10.513789715158248 16.97536693932877 0 0 0
1200 145 6 -0.1532 32.454952365671204 9.140394335378682 30.8583403445136 0 0 0
1195 146 6 -0.1532 30.858340231768 15.483934708807839 26.11141210498614 0 0 0
1038 129 2 0.142 19.49023404995229 10.53467927840862 29.499686576726123 0 0 0
1043 64 2 0.142 23.407356633350393 12.528668807124525 31.422819631424606 0 0 0
1045 129 2 0.142 19.490234049952036 12.528668807118237 27.505697048016327 0 0 0
1054 153 2 0.142 23.40735663335356 14.451801861814571 29.499686576729342 0 0 0
1059 148 3 0.1145 18.603736443583976 15.338299468179596 26.405906710682288 0 0 0
1065 149 3 0.1145 24.50714697068934 15.33829946817984 32.309317237787255 0 0 0
1070 153 2 0.142 21.413367104643736 14.451801861814024 27.505697048019822 0 0 0
1088 64 2 0.142 21.413367104640606 10.534679278414984 31.42281963142478 0 0 0
1104 152 3 0.1145 18.603736443582967 9.434888941073545 32.30931723778932 0 0 0
1110 129 4 -0.1504 18.764460578026032 10.750679019279557 28.706670454594118 0 0 0
1115 64 4 -0.1504 23.191356892481224 11.735652684990702 32.1485931033494 0 0 0
1117 129 4 -0.1504 18.76446057802591 11.735652684986153 27.721696788887424 0 0 0
1126 153 4 -0.1504 23.19135689248329 15.17757533373994 28.70667045459635 0 0 0
930 118 5 -0.0519 33.93768674204284 10.513789715158069 27.484807484766147 -1 0 0
1192 149 6 -0.1532 26.11141199224131 13.887322574906403 32.454952478416416 0 0 0
1142 153 4 -0.1504 22.206383226776587 15.177575333739656 27.721696788889766 0 0 0
1160 64 4 -0.1504 22.206383226774527 10.750679019284119 32.14859310334948 0 0 0
1167 152 5 -0.0519 18.99929837202048 8.489858169721074 31.913755309352126 0 0 0
1182 129 6 -0.1532 17.625902992241272 9.972592546093086 28.540222449603824 0 0 0
1187 64 6 -0.1532 23.96944336567056 11.569204679997412 33.287150689131764 0 0 0
1189 129 6 -0.1532 17.625902992241066 11.569204679995645 26.94361031570111 0 0 0
1198 153 6 -0.1532 23.96944336567089 16.316132919523692 28.54022244960438 0 0 0
1202 153 6 -0.1532 22.372831231768174 16.316132919523206 26.943610315701793 0 0 0
1220 64 6 -0.1532 22.372831231767833 9.972592546094848 33.287150689131884 0 0 0
206 1 1 0.5212 29.699281284313578 8.485509127451225 33.94203589705858 0 0 -1
1036 145 2 0.142 29.898876104646277 11.00472539308997 31.892865746100753 0 0 0
1039 146 2 0.142 31.892865633352137 12.927858447779757 27.97574316269475 0 0 0
1044 149 2 0.142 27.975743049951884 14.921847976493268 29.898876217390857 0 0 0
1048 149 2 0.142 27.97574304995196 12.927858447783555 31.892865746100536 0 0 0
1051 146 2 0.142 29.898876104642678 14.921847976489671 27.975743162694823 0 0 0
1056 145 2 0.142 31.892865633356113 11.004725393089767 29.898876217391162 0 0 0
1057 42 3 0.1145 27.089245443584954 10.1182277867226 32.9926560834348 0 0 0
1061 118 3 0.1145 32.992655970688666 10.118227786722652 27.089245556330923 0 0 0
1062 154 3 0.1145 27.08924544358383 16.021638313828003 27.089245556329114 0 0 0
1108 145 4 -0.1504 30.691892226778272 10.278951921163703 31.676866005229783 0 0 0
1111 146 4 -0.1504 31.67686589248232 13.720874569912944 27.249969690769458 0 0 0
1116 149 4 -0.1504 27.249969578025844 14.705848235622415 30.691892339523097 0 0 0
1120 149 4 -0.1504 27.24996957802589 13.720874569915773 31.67686600522974 0 0 0
1123 146 4 -0.1504 30.6918922267758 14.705848235619703 27.24996969076949 0 0 0
1128 145 4 -0.1504 31.676865892484972 10.278951921163596 30.691892339523193 0 0 0
1537 154 5 -0.0519 27.4848073720206 16.966669085181014 27.484807484765756 0 0 0
820 1 1 0.5212 33.942035784313696 8.48550912745084 29.699281397058876 -1 0 0
1140 149 5 -0.0519 25.452177742043244 14.942737539744206 31.913755309351604 0 0 0
1180 145 6 -0.1532 30.85834023176851 9.140394335378879 32.45495247841618 0 0 0
1183 146 6 -0.1532 32.454952365670465 13.887322574905014 26.111412104986094 0 0 0
1188 149 6 -0.1532 26.11141199224125 15.483934708809056 30.85834034451378 0 0 0
211 1 1 0.5212 21.213772284313556 8.485509127451731 33.94203589705907 0 0 -1
207 1 1 0.5212 25.45652678431384 12.728263627451504 33.94203589705894 0 0 -1
317 42 5 -0.0519 27.484807372020995 10.51378971515858 33.937686854788396 0 0 -1
1137 148 5 -0.0519 18.99929837202043 14.942737539743234 25.460875939329025 0 0 0
622 1 1 0.5212 25.456526784313454 16.97101812745169 4.2427543970588815 0 0 0
664 65 2 0.142 21.413367104640976 19.4902343930857 6.436338746096888 0 0 0
667 110 2 0.142 23.407356633353096 21.413367447781557 2.519216162695275 0 0 0
672 92 2 0.142 19.490234049952267 23.40735697649286 4.442349217391333 0 0 0
676 92 2 0.142 19.49023404995243 21.41336744778321 6.436338746101075 0 0 0
679 110 2 0.142 21.413367104643477 23.407356976491325 2.5192161626954865 0 0 0
684 65 2 0.142 23.407356633350606 19.490234393086258 4.442349217387178 0 0 0
685 108 3 0.1145 18.60373644358573 18.603736786722646 7.536129083434158 0 0 0
689 109 3 0.1145 24.507146970691256 18.603736786720702 1.6327185563277535 0 0 0
690 107 3 0.1145 18.60373644358547 24.50714731382666 1.6327185563306106 0 0 0
736 65 4 -0.1504 22.20638322677468 18.764460921160886 6.220339005227353 0 0 0
739 110 4 -0.1504 23.19135689248298 22.20638356991455 1.7934426907698477 0 0 0
744 92 4 -0.1504 18.764460578026082 23.191357235621798 5.235365339523373 0 0 0
748 92 4 -0.1504 18.764460578026156 22.206383569915175 6.2203390052300405 0 0 0
751 110 4 -0.1504 22.20638322677638 23.191357235621233 1.7934426907699565 0 0 0
756 65 4 -0.1504 23.191356892481302 18.76446092116117 5.235365339520696 0 0 0
564 87 5 -0.0519 33.93768674204311 23.428246539743192 6.457228309351398 -1 0 0
315 40 5 -0.0519 27.484807372020217 16.97536716972131 6.45722830935224 0 0 0
814 94 6 -0.1532 32.45495236567106 24.801641919522833 3.0836954496037285 0 0 0
796 65 6 -0.1532 22.372831231767716 17.62590333537805 6.998425478416059 0 0 0
799 110 6 -0.1532 23.969443365670735 22.372831574906392 0.6548851049861892 0 0 0
804 92 6 -0.1532 17.625902992241205 23.96944370880809 5.40181334451374 0 0 0
808 92 6 -0.1532 17.62590299224133 22.372831574905476 6.998425478416415 0 0 0
811 110 6 -0.1532 22.372831231768174 23.96944370880911 0.654885104986373 0 0 0
816 65 6 -0.1532 23.969443365670337 17.625903335378506 5.40181334451338 0 0 0
417 1 1 0.5212 33.94203578431387 21.213772627450684 8.485508897058864 -1 0 0
805 109 6 -0.1532 26.111411992240573 20.05471367999739 1.487083315701778 0 0 0
757 107 5 -0.0519 18.99929837202083 25.452178085180652 2.0282804847663174 0 0 0
626 94 2 0.142 29.898876104646718 22.93731086181145 2.0491700480153447 0 0 0
644 103 2 0.142 29.898876104643666 19.02018827841121 5.966292631422269 0 0 0
660 40 3 0.1145 27.089245443582836 17.920397941073677 6.852790237789813 0 0 0
666 109 2 0.142 27.97574304994793 19.0201882784146 4.043159576731318 0 0 0
671 103 2 0.142 31.892865633353406 21.014177807120856 5.966292631422155 0 0 0
673 109 2 0.142 27.97574304994799 21.01417780712421 2.0491700480216046 0 0 0
682 94 2 0.142 31.892865633356287 22.93731086181116 4.0431595767252 0 0 0
687 112 3 0.1145 27.089245443585668 23.82380846817964 0.9493797106831469 0 0 0
693 87 3 0.1145 32.992655970689036 23.82380846817857 6.8527902377868894 0 0 0
698 94 4 -0.1504 30.69189222677849 23.663084333737814 2.2651697888867863 0 0 0
716 103 4 -0.1504 30.691892226776602 19.23618801928136 6.692066103347749 0 0 0
798 109 6 -0.1532 26.11141199224052 18.458101546094795 3.0836954496044924 0 0 0
738 109 4 -0.1504 27.2499695780231 19.23618801928387 3.250143454597552 0 0 0
743 103 4 -0.1504 31.676865892483278 20.22116168498797 6.692066103347684 0 0 0
745 109 4 -0.1504 27.249969578023123 20.221161684990484 2.2651697888908897 0 0 0
754 94 4 -0.1504 31.676865892485065 23.66308433373767 3.2501434545935024 0 0 0
803 103 6 -0.1532 32.454952365671076 20.054713679996205 7.830623689131326 0 0 0
762 109 5 -0.0519 25.452177742043503 18.99929871515833 2.0282804847653657 0 0 0
770 94 6 -0.1532 30.85834023176852 24.80164191952308 1.487083315700993 0 0 0
788 103 6 -0.1532 30.85834023176837 18.45810154609363 7.830623689131437 0 0 0
620 1 1 0.5212 21.21377228431349 16.971018127450396 8.48550889705904 0 0 0
761 108 5 -0.0519 18.99929837202102 18.999298715157938 8.481159854788356 0 0 0
613 1 1 0.5212 29.69928128431361 16.971018127451003 8.485508897058873 0 0 0
1581 112 5 -0.0519 27.484807372021056 23.42824653974409 0.004348939329098871 0 0 1
314 51 5 -0.0519 23.428246196606498 16.975367169721135 10.513789484766052 0 0 0
632 98 2 0.142 22.937310518677883 19.020188278413006 12.9278582173876 0 0 0
645 104 2 0.142 19.020187935276542 22.937310861815874 12.927858217387046 0 0 0
658 51 3 0.1145 23.82380812504276 17.920397941074413 10.11822755632954 0 0 0
663 104 2 0.142 21.014177463986087 22.937310861816464 14.921847746096859 0 0 0
665 108 2 0.142 19.020187935271046 21.01417780711771 11.00472516269778 0 0 0
675 98 2 0.142 22.937310518677794 21.0141778071227 14.921847746097255 0 0 0
677 108 2 0.142 21.01417746398068 19.02018827840791 11.004725162697875 0 0 0
686 111 3 0.1145 23.8238081250431 23.823808468181436 16.02163808343555 0 0 0
691 73 3 0.1145 17.92039759793619 23.82380846818082 10.118227556328524 0 0 0
704 98 4 -0.1504 23.663083990603067 19.23618801928276 13.720874339520911 0 0 0
717 104 4 -0.1504 19.23618767614585 23.663084333741004 13.720874339520524 0 0 0
728 98 5 -0.0519 25.460875826583557 18.9992987151584 14.942737309352019 0 0 0
735 104 4 -0.1504 20.221161341852433 23.663084333741306 14.705848005227223 0 0 0
737 108 4 -0.1504 19.236187676142173 20.221161684985752 10.278951690771525 0 0 0
747 98 4 -0.1504 23.663083990603024 20.22116168498943 14.705848005227528 0 0 0
749 108 4 -0.1504 20.221161341848774 19.236188019279062 10.278951690771569 0 0 0
562 73 5 -0.0519 16.975366826583564 23.42824653974368 10.51378948476571 0 0 0
724 95 5 -0.0519 31.91375519660634 25.45217808518069 14.942737309351397 0 0 0
776 98 6 -0.1532 24.80164157638624 18.45810154609441 13.887322344513318 0 0 0
789 104 6 -0.1532 18.458101202956833 24.80164191952369 13.88732234451314 0 0 0
795 104 6 -0.1532 20.054713336859425 24.801641919524208 15.483934478415836 0 0 0
797 108 6 -0.1532 18.45810120295598 20.05471367999554 9.140394104986555 0 0 0
807 98 6 -0.1532 24.80164157638618 20.054713679997107 15.483934478415918 0 0 0
809 108 6 -0.1532 20.054713336858555 18.458101546092838 9.140394104986623 0 0 0
791 105 6 -0.1532 28.54022233685878 23.96944370880891 16.31613268913096 0 0 0
618 1 1 0.5212 25.45652678431365 16.97101812745142 12.728263397058987 0 0 0
625 54 2 0.142 29.4996864639843 19.49023439308729 10.534679048019619 0 0 0
634 91 2 0.142 31.42281951867812 23.407356976488604 12.528668576730396 0 0 0
642 54 2 0.142 27.505696935274692 19.490234393087498 12.528668576729375 0 0 0
647 105 2 0.142 29.49968646398116 23.407356976493308 14.451801631420004 0 0 0
652 103 3 0.1145 32.309317125043414 18.603736786721285 9.434888710682083 0 0 0
656 95 3 0.1145 32.3093171250421 24.50714731382697 15.338299237787352 0 0 0
659 98 3 0.1145 26.405906597936294 18.6037367867214 15.338299237789077 0 0 0
669 105 2 0.142 27.505696935271267 21.413367447783777 14.45180163142018 0 0 0
674 91 2 0.142 31.422819518678235 21.413367447778956 10.53467904802067 0 0 0
697 54 4 -0.1504 28.7066703418512 18.764460921161966 10.750678788889656 0 0 0
706 91 4 -0.1504 32.14859299060327 23.19135723561899 11.735652454597014 0 0 0
714 54 4 -0.1504 27.721696676144585 18.764460921162073 11.735652454596323 0 0 0
719 105 4 -0.1504 28.706670341849108 23.19135723562241 15.17757510334622 0 0 0
801 105 6 -0.1532 26.943610202956013 22.372831574906407 16.316132689131116 0 0 0
741 105 4 -0.1504 27.721696676142365 22.206383569915864 15.177575103346303 0 0 0
746 91 4 -0.1504 32.14859299060333 22.206383569912358 10.750678788890362 0 0 0
786 54 6 -0.1532 26.94361020295648 17.625903335378666 11.569204449604369 0 0 0
806 91 6 -0.1532 33.287150576386374 22.372831574904946 9.972592315701855 0 0 0
769 54 6 -0.1532 28.540222336859113 17.62590333537847 9.972592315701712 0 0 0
778 91 6 -0.1532 33.287150576386274 23.96944370880756 11.569204449604522 0 0 0
1579 111 5 -0.0519 23.428246196606533 23.42824653974484 16.96666885478867 0 0 0
1439 1 1 0.5212 25.456526784313436 21.2137726274517 16.971017897058783 0 0 0
731 103 5 -0.0519 31.91375519660681 18.99929871515785 8.48985793932897 0 0 0
1438 1 1 0.5212 25.456526784313436 16.971018127451615 21.21377239705893 0 0 0
1480 161 2 0.142 21.41336710464018 19.490234393085004 23.407356746096074 0 0 0
1483 111 2 0.142 23.40735663335316 21.413367447781653 19.490234162695334 0 0 0
1488 180 2 0.142 19.49023404995293 23.40735697649336 21.413367217392057 0 0 0
1492 180 2 0.142 19.49023404995302 21.4133674477838 23.40735674610191 0 0 0
1495 111 2 0.142 21.413367104643484 23.40735697649136 19.490234162695444 0 0 0
1500 161 2 0.142 23.40735663334987 19.490234393085505 21.413367217386448 0 0 0
1501 192 3 0.1145 18.603736443585685 18.60373678672268 24.50714708343418 0 0 0
1505 193 3 0.1145 24.50714697069192 18.60373678671997 18.603736556327025 0 0 0
1506 191 3 0.1145 18.60373644358559 24.507147313826536 18.6037365563307 0 0 0
1552 161 4 -0.1504 22.206383226774143 18.76446092116038 23.191357005226855 0 0 0
1555 111 4 -0.1504 23.191356892483018 22.206383569914607 18.764460690769866 0 0 0
1560 180 4 -0.1504 18.764460578026554 23.19135723562212 22.20638333952387 0 0 0
1564 180 4 -0.1504 18.764460578026586 22.20638356991554 23.191357005230586 0 0 0
1567 111 4 -0.1504 22.206383226776392 23.19135723562126 18.764460690769926 0 0 0
1572 161 4 -0.1504 23.191356892480798 18.76446092116063 22.20638333952023 0 0 0
1380 178 5 -0.0519 33.937686742043034 23.42824653974299 23.42824630935119 -1 0 0
1131 144 5 -0.0519 27.48480737202009 16.975367169721054 23.428246309352456 0 0 0
1630 182 6 -0.1532 32.45495236567131 24.80164191952262 20.054713449603547 0 0 0
1612 161 6 -0.1532 22.372831231767552 17.625903335377895 23.969443478415997 0 0 0
1615 111 6 -0.1532 23.969443365670763 22.372831574906403 17.625903104986197 0 0 0
1620 180 6 -0.1532 17.625902992241393 23.969443708808086 22.37283134451382 0 0 0
1624 180 6 -0.1532 17.625902992241436 22.372831574905536 23.969443478416554 0 0 0
1627 111 6 -0.1532 22.372831231768156 23.96944370880908 17.625903104986296 0 0 0
1632 161 6 -0.1532 23.96944336567022 17.625903335378304 22.372831344513372 0 0 0
1233 1 1 0.5212 33.94203578431385 21.213772627450727 25.456526897058943 -1 0 0
1621 193 6 -0.1532 26.111411992240527 20.054713679997544 18.45810131570206 0 0 0
1573 191 5 -0.0519 18.999298372020906 25.452178085180584 18.99929848476631 0 0 0
1442 182 2 0.142 29.89887610464801 22.93731086181043 19.020188048014013 0 0 0
1460 189 2 0.142 29.89887610464359 19.020188278411286 22.93731063142238 0 0 0
1476 144 3 0.1145 27.08924544358219 17.92039794107296 23.823808237790615 0 0 0
1482 193 2 0.142 27.975743049946903 19.020188278415755 21.014177576732713 0 0 0
1487 189 2 0.142 31.892865633353217 21.014177807121047 22.93731063142231 0 0 0
1489 193 2 0.142 27.97574304994703 21.014177807125435 19.020188048023087 0 0 0
1498 182 2 0.142 31.892865633357594 22.93731086181004 21.014177576723878 0 0 0
1503 105 3 0.1145 27.089245443585703 23.82380846817962 17.92039771068323 0 0 0
1509 178 3 0.1145 32.992655970688546 23.823808468177916 23.82380823778615 0 0 0
1514 182 4 -0.1504 30.69189222677937 23.663084333737114 19.236187788885914 0 0 0
1532 189 4 -0.1504 30.691892226776552 19.236188019281432 23.66308410334783 0 0 0
1614 193 6 -0.1532 26.111411992240402 18.458101546094905 20.054713449604723 0 0 0
1554 193 4 -0.1504 27.249969578022426 19.23618801928463 20.221161454598512 0 0 0
1559 189 4 -0.1504 31.676865892483175 20.221161684988086 23.66308410334778 0 0 0
1561 193 4 -0.1504 27.24996957802249 20.22116168499128 19.236187788891883 0 0 0
1570 182 4 -0.1504 31.67686589248596 23.66308433373691 20.221161454592625 0 0 0
1619 189 6 -0.1532 32.45495236567106 20.05471367999626 24.80164168913136 0 0 0
1578 193 5 -0.0519 25.4521777420437 18.99929871515812 18.999298484765234 0 0 0
1586 182 6 -0.1532 30.85834023176875 24.80164191952296 18.458101315700834 0 0 0
1604 189 6 -0.1532 30.858340231768437 18.458101546093605 24.80164168913144 0 0 0
1436 1 1 0.5212 21.21377228431337 16.971018127450314 25.456526897059035 0 0 0
1577 192 5 -0.0519 18.99929837202098 18.99929871515793 25.452177854788395 0 0 0
1429 1 1 0.5212 29.699281284313738 16.971018127450904 25.45652689705881 0 0 0
765 105 5 -0.0519 27.484807372021084 23.42824653974407 16.97536693932918 0 0 0
1130 153 5 -0.0519 23.428246196606498 16.975367169721032 27.484807484765895 0 0 0
1448 185 2 0.142 22.93731051867881 19.020188278414224 29.89887621738624 0 0 0
1461 190 2 0.142 19.020187935276553 22.937310861815746 29.89887621738729 0 0 0
1474 153 3 0.1145 23.82380812504289 17.920397941074167 27.08924555632918 0 0 0
1479 190 2 0.142 21.01417746398607 22.93731086181641 31.89286574609713 0 0 0
1481 192 2 0.142 19.020187935271043 21.01417780711761 27.975743162697896 0 0 0
1491 185 2 0.142 22.93731051867866 21.01417780712392 31.892865746095875 0 0 0
1493 192 2 0.142 21.014177463980598 19.020188278407733 27.975743162697942 0 0 0
1502 110 3 0.1145 23.823808125043133 23.82380846818154 32.99265608343564 0 0 0
1507 168 3 0.1145 17.920397597936255 23.823808468180772 27.089245556328734 0 0 0
1520 185 4 -0.1504 23.663083990603646 19.236188019283585 30.691892339519967 0 0 0
1533 190 4 -0.1504 19.236187676145867 23.663084333740915 30.691892339520724 0 0 0
1544 185 5 -0.0519 25.460875826583315 18.999298715158258 31.913755309352105 0 0 0
1551 190 4 -0.1504 20.221161341852444 23.66308433374126 31.676866005227435 0 0 0
1553 192 4 -0.1504 19.236187676142148 20.221161684985667 27.24996969077161 0 0 0
1563 185 4 -0.1504 23.66308399060358 20.22116168499025 31.67686600522658 0 0 0
1565 192 4 -0.1504 20.221161341848717 19.236188019278945 27.249969690771632 0 0 0
1378 168 5 -0.0519 16.97536682658359 23.428246539743665 27.484807484765856 0 0 0
1540 183 5 -0.0519 31.913755196606218 25.452178085180524 31.91375530935121 0 0 0
1592 185 6 -0.1532 24.8016415763863 18.458101546094603 30.85834034451304 0 0 0
1605 190 6 -0.1532 18.458101202956886 24.801641919523636 30.858340344513262 0 0 0
1611 190 6 -0.1532 20.054713336859464 24.801641919524222 32.45495247841597 0 0 0
1613 192 6 -0.1532 18.458101202955962 20.054713679995526 26.11141210498663 0 0 0
1623 185 6 -0.1532 24.80164157638618 20.0547136799973 32.45495247841565 0 0 0
1625 192 6 -0.1532 20.054713336858487 18.458101546092774 26.111412104986652 0 0 0
1607 112 6 -0.1532 28.540222336858765 23.969443708808903 33.28715068913088 0 0 0
1434 1 1 0.5212 25.456526784313642 16.971018127451476 29.699281397058837 0 0 0
1441 154 2 0.142 29.4996864639843 19.49023439308727 27.505697048019424 0 0 0
1450 179 2 0.142 31.42281951867812 23.40735697648864 29.499686576730504 0 0 0
1458 154 2 0.142 27.505696935274628 19.49023439308754 29.499686576729115 0 0 0
1463 112 2 0.142 29.499686463981135 23.40735697649328 31.42281963141992 0 0 0
1468 189 3 0.1145 32.30931712504357 18.603736786721203 26.40590671068201 0 0 0
1472 183 3 0.1145 32.309317125041495 24.507147313826383 32.309317237786644 0 0 0
1475 185 3 0.1145 26.4059065979356 18.603736786720734 32.30931723778973 0 0 0
1485 112 2 0.142 27.50569693527122 21.41336744778377 31.42281963142011 0 0 0
1490 179 2 0.142 31.422819518678203 21.413367447779 27.50569704802077 0 0 0
1513 154 4 -0.1504 28.706670341851208 18.764460921161934 27.72169678888947 0 0 0
1522 179 4 -0.1504 32.14859299060327 23.19135723561902 28.70667045459712 0 0 0
1530 154 4 -0.1504 27.721696676144557 18.76446092116208 28.706670454596107 0 0 0
1535 112 4 -0.1504 28.70667034184908 23.1913572356224 32.148593103346144 0 0 0
1617 112 6 -0.1532 26.943610202955963 22.372831574906428 33.28715068913103 0 0 0
1557 112 4 -0.1504 27.721696676142326 22.206383569915864 32.14859310334623 0 0 0
1562 179 4 -0.1504 32.14859299060331 22.206383569912397 27.721696788890466 0 0 0
1602 154 6 -0.1532 26.943610202956485 17.625903335378645 28.540222449604194 0 0 0
1622 179 6 -0.1532 33.28715057638635 22.372831574904964 26.943610315701957 0 0 0
1585 154 6 -0.1532 28.540222336859166 17.625903335378393 26.943610315701587 0 0 0
1594 179 6 -0.1532 33.28715057638629 23.969443708807578 28.54022244960463 0 0 0
763 110 5 -0.0519 23.428246196606537 23.428246539744887 33.93768685478872 0 0 -1
623 1 1 0.5212 25.456526784313393 21.21377262745171 33.94203589705867 0 0 -1
1547 189 5 -0.0519 31.91375519660689 18.99929871515783 25.460875939328954 0 0 0
758 94 5 -0.0519 31.91375519660593 25.460876169721327 2.0282804847663507 0 0 0
633 99 2 0.142 19.02018793527343 29.89887644778088 5.966292631421747 0 0 0
638 102 2 0.142 22.937310518680114 29.898876447777837 2.0491700480226642 0 0 0
661 107 2 0.142 21.014177463980786 27.97574339308992 2.049170048017452 0 0 0
670 102 2 0.142 22.93731051867975 31.892865976487553 4.043159576732285 0 0 0
678 107 2 0.142 19.020187935271007 27.97574339308928 4.04315957672708 0 0 0
683 99 2 0.142 21.014177463983202 31.892865976490487 5.966292631422059 0 0 0
688 113 3 0.1145 23.82380812504518 27.089245786720266 0.9493797106806491 0 0 0
692 58 3 0.1145 23.82380812504428 32.99265631382869 6.852790237789594 0 0 0
695 77 3 0.1145 17.920397597937193 27.089245786721932 6.852790237787305 0 0 0
705 99 4 -0.1504 19.236187676143686 30.691892569913584 6.692066103347443 0 0 0
710 102 4 -0.1504 23.663083990604612 30.69189256991198 2.265169788891673 0 0 0
420 1 1 0.5212 33.94203578431332 25.456527127450585 4.242754397058799 -1 0 0
730 102 5 -0.0519 25.460875826583493 31.913755539745104 2.0282804847654727 0 0 0
733 107 4 -0.1504 20.221161341848774 27.24996992116363 2.265169788888246 0 0 0
742 102 4 -0.1504 23.663083990604438 31.67686623561864 3.2501434545982892 0 0 0
750 107 4 -0.1504 19.236187676142094 27.249969921163306 3.250143454594855 0 0 0
755 99 4 -0.1504 20.22116134185037 31.676866235620185 6.692066103347605 0 0 0
560 77 5 -0.0519 16.975366826583496 27.48480771515779 6.457228309351387 0 0 0
777 99 6 -0.1532 18.458101202956055 30.858340574905075 7.83062368913124 0 0 0
782 102 6 -0.1532 24.801641576386796 30.858340574905668 1.487083315702156 0 0 0
793 107 6 -0.1532 20.05471333685847 26.11141233537902 1.487083315701546 0 0 0
802 102 6 -0.1532 24.801641576386523 32.45495270880834 3.0836954496047735 0 0 0
810 107 6 -0.1532 18.458101202955767 26.111412335378507 3.0836954496041225 0 0 0
815 99 6 -0.1532 20.05471333685879 32.45495270880763 7.830623689131517 0 0 0
352 58 5 -0.0519 23.428246196606715 33.93768708518111 6.457228309352344 0 -1 0
627 56 2 0.142 29.499686463986507 31.42281986181718 6.436338746095102 0 0 0
629 96 2 0.142 27.50569693527298 29.4996868071199 2.519216162696564 0 0 0
639 93 2 0.142 31.42281951867447 29.49968680711824 6.436338746100625 0 0 0
641 96 2 0.142 29.49968646398262 27.50569727841015 2.519216162696517 0 0 0
650 97 3 0.1145 32.30931712504323 32.309317468180446 7.536129083435797 0 0 0
655 102 3 0.1145 26.40590659793537 32.30931746818324 1.6327185563274964 0 0 0
668 93 2 0.142 31.422819518674487 27.5056972784085 4.442349217390944 0 0 0
681 56 2 0.142 27.50569693527678 31.42281986181761 4.442349217385498 0 0 0
694 94 3 0.1145 32.30931712504105 26.40590694107574 1.6327185563314148 0 0 0
699 56 4 -0.1504 28.706670341852597 32.14859333374195 6.220339005226154 0 0 0
701 96 4 -0.1504 27.721696676143594 28.706670684987497 1.7934426907706453 0 0 0
711 93 4 -0.1504 32.14859299060063 28.706670684986154 6.220339005229658 0 0 0
713 96 4 -0.1504 28.70667034185021 27.72169701928082 1.793442690770628 0 0 0
800 93 6 -0.1532 33.287150576385386 26.943610546093037 5.401813344513522 0 0 0
785 96 6 -0.1532 28.5402223368592 26.943610546093872 0.6548851049862968 0 0 0
740 93 4 -0.1504 32.14859299060064 27.721697019279496 5.235365339523029 0 0 0
753 56 4 -0.1504 27.72169667614593 32.14859333374216 5.23536533951955 0 0 0
813 56 6 -0.1532 26.943610202956602 33.28715091952449 5.401813344513139 0 0 0
771 56 6 -0.1532 28.540222336859287 33.28715091952414 6.998425478415745 0 0 0
773 96 6 -0.1532 26.943610202956616 28.540222679996575 0.6548851049863156 0 0 0
783 93 6 -0.1532 33.287150576385386 28.540222679995715 6.9984254784161175 0 0 0
413 1 1 0.5212 33.942035784313155 29.699281627450514 8.485508897058578 -1 0 0
727 97 5 -0.0519 31.913755196606417 31.91375553974368 8.48115985478874 0 0 0
1583 113 5 -0.0519 23.42824619660724 27.48480771515826 0.004348939328691892 0 0 1
1430 1 1 0.5212 29.699281284313805 25.456527127451196 16.97101789705867 0 0 0
792 95 6 -0.1532 32.45495236567108 26.111412335378475 13.88732234451338 0 0 0
630 82 2 0.142 19.490234049952175 27.505697278408476 12.528668576725964 0 0 0
635 100 2 0.142 23.407356633350354 29.499686807124924 14.451801631424859 0 0 0
637 82 2 0.142 19.490234049951955 29.49968680711819 10.534679048016264 0 0 0
646 55 2 0.142 23.407356633353768 31.42281986181425 12.528668576729121 0 0 0
651 99 3 0.1145 18.603736443584037 32.30931746817952 9.434888710682387 0 0 0
657 101 3 0.1145 24.507146970689316 32.30931746817953 15.338299237787323 0 0 0
662 55 2 0.142 21.413367104643985 31.422819861813785 10.534679048019544 0 0 0
680 100 2 0.142 21.413367104640443 27.505697278415504 14.451801631424866 0 0 0
696 104 3 0.1145 18.603736443582825 26.405906941073543 15.338299237789228 0 0 0
702 82 4 -0.1504 18.764460578025922 27.721697019279468 11.735652454593964 0 0 0
707 100 4 -0.1504 23.191356892481224 28.70667068499097 15.177575103349517 0 0 0
709 82 4 -0.1504 18.764460578025815 28.70667068498611 10.750678788887317 0 0 0
718 55 4 -0.1504 23.191356892483427 32.14859333373972 11.735652454596234 0 0 0
522 69 5 -0.0519 33.93768674204277 27.48480771515803 10.513789484766058 -1 0 0
787 97 6 -0.1532 30.85834023176793 32.454952708807866 9.140394104986227 0 0 0
734 55 4 -0.1504 22.206383226776747 32.14859333373948 10.750678788889632 0 0 0
752 100 4 -0.1504 22.206383226774467 27.72169701928445 15.177575103349511 0 0 0
759 104 5 -0.0519 18.999298372020395 25.460876169721114 14.94273730935199 0 0 0
774 82 6 -0.1532 17.625902992241144 26.943610546093026 11.569204449603635 0 0 0
779 100 6 -0.1532 23.969443365670678 28.540222679997413 16.31613268913177 0 0 0
781 82 6 -0.1532 17.625902992240974 28.540222679995654 9.972592315700991 0 0 0
790 55 6 -0.1532 23.969443365670905 33.28715091952358 11.56920444960446 0 0 0
794 55 6 -0.1532 22.37283123176821 33.28715091952318 9.972592315701855 0 0 0
812 100 6 -0.1532 22.372831231767847 26.943610546094945 16.31613268913175 0 0 0
628 95 2 0.142 29.8988761046453 27.975743393089093 14.921847746099612 0 0 0
631 97 2 0.142 31.892865633352155 29.898876447779855 11.004725162694886 0 0 0
636 101 2 0.142 27.975743049952115 31.89286597649351 12.927858217391195 0 0 0
640 101 2 0.142 27.975743049952317 29.898876447783774 14.921847746100857 0 0 0
643 97 2 0.142 29.898876104642692 31.89286597648974 11.00472516269497 0 0 0
648 95 2 0.142 31.892865633355026 27.975743393088752 12.92785821738994 0 0 0
649 106 3 0.1145 27.089245443585337 27.08924578672262 16.02163808343483 0 0 0
653 69 3 0.1145 32.99265597068859 27.08924578672267 10.118227556330794 0 0 0
654 38 3 0.1145 27.089245443583795 32.99265631382801 10.118227556329295 0 0 0
700 95 4 -0.1504 30.691892226777625 27.249969921163085 14.70584800522901 0 0 0
703 97 4 -0.1504 31.67686589248231 30.691892569913016 10.278951690769567 0 0 0
708 101 4 -0.1504 27.249969578026047 31.67686623562254 13.720874339523368 0 0 0
712 101 4 -0.1504 27.24996957802615 30.691892569915886 14.705848005230004 0 0 0
715 97 4 -0.1504 30.691892226775785 31.676866235619766 10.278951690769611 0 0 0
720 95 4 -0.1504 31.67686589248428 27.24996992116291 13.720874339522373 0 0 0
313 38 5 -0.0519 27.48480737202055 33.93768708518103 10.513789484765928 0 -1 0
412 1 1 0.5212 33.94203578431364 25.456527127450656 12.72826339705872 -1 0 0
732 101 5 -0.0519 25.452177742043308 31.913755539744052 14.942737309351731 0 0 0
772 95 6 -0.1532 30.85834023176847 26.11141233537879 15.48393447841605 0 0 0
775 97 6 -0.1532 32.45495236567041 30.85834057490505 9.140394104986164 0 0 0
780 101 6 -0.1532 26.111411992241315 32.454952708809 13.887322344513962 0 0 0
784 101 6 -0.1532 26.11141199224149 30.858340574906343 15.483934478416588 0 0 0
1435 1 1 0.5212 21.21377228431353 25.456527127451842 16.9710178970589 0 0 0
1431 1 1 0.5212 25.456526784314015 29.69928162745138 16.971017897059067 0 0 0
1541 106 5 -0.0519 27.484807372021255 27.484807715158517 16.96666885478851 0 0 0
729 99 5 -0.0519 18.999298372020444 31.913755539743246 8.48985793932907 0 0 0
1574 182 5 -0.0519 31.91375519660583 25.460876169721434 18.999298484766555 0 0 0
1449 186 2 0.142 19.020187935273512 29.898876447780776 22.937310631421717 0 0 0
1454 188 2 0.142 22.93731051868045 29.89887644777732 19.020188048023215 0 0 0
1477 191 2 0.142 21.014177463980708 27.975743393089978 19.02018804801716 0 0 0
1486 188 2 0.142 22.93731051868012 31.892865976487073 21.01417757673278 0 0 0
1494 191 2 0.142 19.020187935271025 27.975743393089353 21.0141775767269 0 0 0
1499 186 2 0.142 21.01417746398318 31.89286597649049 22.93731063142208 0 0 0
1504 100 3 0.1145 23.82380812504509 27.089245786720177 17.92039771068062 0 0 0
1508 158 3 0.1145 23.823808125044945 32.992656313829336 23.82380823779052 0 0 0
1511 171 3 0.1145 17.92039759793783 27.089245786722422 23.823808237786597 0 0 0
1521 186 4 -0.1504 19.23618767614372 30.691892569913474 23.663084103347433 0 0 0
1526 188 4 -0.1504 23.66308399060482 30.691892569911627 19.236187788892025 0 0 0
1236 1 1 0.5212 33.942035784313454 25.456527127450464 21.213772397058737 -1 0 0
1546 188 5 -0.0519 25.4608758265834 31.91375553974511 18.999298484765397 0 0 0
1549 191 4 -0.1504 20.221161341848745 27.249969921163657 19.236187788888056 0 0 0
1558 188 4 -0.1504 23.66308399060467 31.676866235618302 20.221161454598615 0 0 0
1566 191 4 -0.1504 19.236187676142112 27.249969921163345 20.221161454594707 0 0 0
1571 186 4 -0.1504 20.221161341850355 31.67686623562013 23.663084103347614 0 0 0
1376 171 5 -0.0519 16.97536682658372 27.48480771515781 23.428246309351184 0 0 0
1593 186 6 -0.1532 18.458101202956072 30.858340574904908 24.801641689131227 0 0 0
1598 188 6 -0.1532 24.801641576386793 30.858340574905544 18.458101315702237 0 0 0
1609 191 6 -0.1532 20.054713336858477 26.11141233537898 18.458101315701448 0 0 0
1618 188 6 -0.1532 24.80164157638655 32.45495270880824 20.05471344960483 0 0 0
1626 191 6 -0.1532 18.458101202955845 26.111412335378482 20.054713449604094 0 0 0
1631 186 6 -0.1532 20.054713336858722 32.45495270880755 24.801641689131536 0 0 0
1168 158 5 -0.0519 23.428246196606814 33.93768708518125 23.428246309352637 0 -1 0
1443 156 2 0.142 29.499686463987054 31.42281986181755 23.40735674609439 0 0 0
1445 106 2 0.142 27.505696935272958 29.49968680711989 19.490234162696638 0 0 0
1455 181 2 0.142 31.422819518674064 29.499686807117577 23.407356746101048 0 0 0
1457 106 2 0.142 29.499686463982666 27.5056972784102 19.490234162696613 0 0 0
1466 184 3 0.1145 32.30931712504335 32.30931746818032 24.507147083435694 0 0 0
1471 188 3 0.1145 26.405906597935104 32.309317468183444 18.603736556327195 0 0 0
1484 181 2 0.142 31.42281951867412 27.505697278407865 21.413367217391325 0 0 0
1497 156 2 0.142 27.505696935277182 31.422819861818 21.41336721738495 0 0 0
1510 182 3 0.1145 32.309317125040415 26.405906941076317 18.603736556332194 0 0 0
1515 156 4 -0.1504 28.706670341852956 32.148593333742184 23.1913570052257 0 0 0
1517 106 4 -0.1504 27.721696676143594 28.70667068498747 18.764460690770736 0 0 0
1527 181 4 -0.1504 32.14859299060037 28.70667068498567 23.191357005229893 0 0 0
1529 106 4 -0.1504 28.706670341850234 27.72169701928082 18.764460690770733 0 0 0
1616 181 6 -0.1532 33.28715057638538 26.94361054609285 22.372831344513468 0 0 0
1601 106 6 -0.1532 28.54022233685922 26.943610546093833 17.625903104986428 0 0 0
1556 181 4 -0.1504 32.1485929906004 27.721697019279024 22.20638333952325 0 0 0
1569 156 4 -0.1504 27.721696676146212 32.148593333742404 22.206383339519167 0 0 0
1629 156 6 -0.1532 26.94361020295662 33.28715091952451 22.372831344513102 0 0 0
1587 156 6 -0.1532 28.54022233685941 33.28715091952412 23.969443478415602 0 0 0
1589 106 6 -0.1532 26.943610202956595 28.54022267999649 17.62590310498643 0 0 0
1599 181 6 -0.1532 33.28715057638535 28.5402226799955 23.96944347841608 0 0 0
1229 1 1 0.5212 33.94203578431313 29.699281627450333 25.456526897058502 -1 0 0
1543 184 5 -0.0519 31.9137551966065 31.913755539743583 25.452177854788633 0 0 0
767 100 5 -0.0519 23.4282461966072 27.484807715158173 16.975366939328648 0 0 0
1608 183 6 -0.1532 32.45495236567129 26.111412335378585 30.858340344513536 0 0 0
1603 184 6 -0.1532 30.858340231768018 32.45495270880783 26.111412104986083 0 0 0
1446 174 2 0.142 19.49023404995259 27.505697278408054 29.499686576725665 0 0 0
1451 113 2 0.142 23.40735663335025 29.499686807125 31.422819631424893 0 0 0
1453 174 2 0.142 19.490234049952363 29.499686807117712 27.50569704801589 0 0 0
1462 155 2 0.142 23.407356633353732 31.4228198618144 29.49968657672919 0 0 0
1467 186 3 0.1145 18.603736443583962 32.30931746817935 26.40590671068239 0 0 0
1473 187 3 0.1145 24.507146970689245 32.30931746817955 32.30931723778707 0 0 0
1478 155 2 0.142 21.41336710464384 31.422819861813906 27.505697048019737 0 0 0
1496 113 2 0.142 21.413367104640358 27.50569727841557 31.42281963142501 0 0 0
1512 190 3 0.1145 18.60373644358291 26.40590694107358 32.309317237789244 0 0 0
1518 174 4 -0.1504 18.76446057802623 27.721697019279155 28.706670454593795 0 0 0
1523 113 4 -0.1504 23.19135689248116 28.70667068499105 32.148593103349576 0 0 0
1525 174 4 -0.1504 18.764460578026124 28.706670684985763 27.721696788887115 0 0 0
1534 155 4 -0.1504 23.1913568924834 32.14859333373982 28.70667045459625 0 0 0
1338 164 5 -0.0519 33.9376867420427 27.484807715158077 27.484807484766204 -1 0 0
1600 187 6 -0.1532 26.111411992241475 30.858340574906435 32.454952478416494 0 0 0
1550 155 4 -0.1504 22.206383226776662 32.14859333373956 27.721696788889705 0 0 0
1568 113 4 -0.1504 22.206383226774417 27.72169701928452 32.14859310334962 0 0 0
1575 190 5 -0.0519 18.999298372020455 25.46087616972111 31.913755309352076 0 0 0
1590 174 6 -0.1532 17.62590299224128 26.943610546092916 28.540222449603707 0 0 0
1595 113 6 -0.1532 23.96944336567067 28.540222679997505 33.287150689131785 0 0 0
1597 174 6 -0.1532 17.6259029922411 28.54022267999549 26.943610315701015 0 0 0
1606 155 6 -0.1532 23.969443365670937 33.28715091952362 28.540222449604343 0 0 0
1610 155 6 -0.1532 22.37283123176816 33.28715091952318 26.943610315701815 0 0 0
1628 113 6 -0.1532 22.37283123176786 26.94361054609502 33.28715068913185 0 0 0
614 1 1 0.5212 29.699281284313777 25.4565271274512 33.942035897058624 0 0 -1
1444 183 2 0.142 29.898876104646433 27.97574339308993 31.892865746100743 0 0 0
1447 184 2 0.142 31.89286563335207 29.898876447779788 27.9757431626948 0 0 0
1452 187 2 0.142 27.975743049952218 31.892865976493606 29.898876217391194 0 0 0
1456 187 2 0.142 27.975743049952378 29.89887644778392 31.892865746100902 0 0 0
1459 184 2 0.142 29.898876104642717 31.892865976489794 27.975743162694812 0 0 0
1464 183 2 0.142 31.892865633356198 27.975743393089665 29.898876217391088 0 0 0
1465 96 3 0.1145 27.089245443585362 27.089245786722756 32.99265608343466 0 0 0
1469 164 3 0.1145 32.99265597068825 27.089245786723 27.089245556331306 0 0 0
1470 142 3 0.1145 27.089245443583806 32.992656313828064 27.089245556328994 0 0 0
1516 183 4 -0.1504 30.691892226778403 27.24996992116365 31.676866005229755 0 0 0
1519 184 4 -0.1504 31.676865892482287 30.69189256991295 27.24996969076947 0 0 0
1524 187 4 -0.1504 27.249969578026114 31.676866235622633 30.691892339523328 0 0 0
1528 187 4 -0.1504 27.2499695780262 30.691892569916007 31.67686600522999 0 0 0
1531 184 4 -0.1504 30.69189222677581 31.67686623561976 27.24996969076948 0 0 0
1536 183 4 -0.1504 31.676865892485072 27.249969921163512 30.691892339523132 0 0 0
1129 142 5 -0.0519 27.48480737202063 33.937687085181025 27.484807484765703 0 -1 0
1228 1 1 0.5212 33.94203578431374 25.456527127450677 29.699281397058794 -1 0 0
1548 187 5 -0.0519 25.452177742043286 31.913755539744113 31.913755309351576 0 0 0
1588 183 6 -0.1532 30.858340231768647 26.111412335378837 32.454952478416175 0 0 0
1591 184 6 -0.1532 32.454952365670415 30.858340574904933 26.111412104986083 0 0 0
1596 187 6 -0.1532 26.111411992241347 32.45495270880906 30.858340344513834 0 0 0
619 1 1 0.5212 21.21377228431356 25.456527127451896 33.942035897059014 0 0 -1
615 1 1 0.5212 25.456526784314025 29.699281627451487 33.94203589705901 0 0 -1
725 96 5 -0.0519 27.48480737202126 27.4848077151586 33.937686854788375 0 0 -1
1545 186 5 -0.0519 18.999298372020398 31.9137555397431 25.460875939329078 0 0 0

Velocities

10 0 0 0
52 0 0 0
55 0 0 0
60 0 0 0
64 0 0 0
67 0 0 0
72 0 0 0
73 0 0 0
77 0 0 0
78 0 0 0
124 0 0 0
127 0 0 0
132 0 0 0
136 0 0 0
139 0 0 0
144 0 0 0
360 0 0 0
519 0 0 0
213 0 0 0
184 0 0 0
187 0 0 0
192 0 0 0
196 0 0 0
199 0 0 0
204 0 0 0
145 0 0 0
14 0 0 0
32 0 0 0
48 0 0 0
54 0 0 0
59 0 0 0
61 0 0 0
70 0 0 0
75 0 0 0
81 0 0 0
86 0 0 0
104 0 0 0
193 0 0 0
126 0 0 0
131 0 0 0
133 0 0 0
142 0 0 0
202 0 0 0
150 0 0 0
158 0 0 0
176 0 0 0
186 0 0 0
191 0 0 0
8 0 0 0
149 0 0 0
1 0 0 0
969 0 0 0
518 0 0 0
20 0 0 0
33 0 0 0
46 0 0 0
51 0 0 0
53 0 0 0
63 0 0 0
65 0 0 0
74 0 0 0
79 0 0 0
92 0 0 0
105 0 0 0
116 0 0 0
123 0 0 0
125 0 0 0
135 0 0 0
137 0 0 0
358 0 0 0
112 0 0 0
164 0 0 0
177 0 0 0
183 0 0 0
185 0 0 0
195 0 0 0
197 0 0 0
179 0 0 0
6 0 0 0
13 0 0 0
22 0 0 0
30 0 0 0
35 0 0 0
40 0 0 0
44 0 0 0
47 0 0 0
57 0 0 0
62 0 0 0
85 0 0 0
94 0 0 0
102 0 0 0
107 0 0 0
189 0 0 0
129 0 0 0
134 0 0 0
174 0 0 0
194 0 0 0
157 0 0 0
166 0 0 0
967 0 0 0
827 0 0 0
119 0 0 0
826 0 0 0
868 0 0 0
871 0 0 0
876 0 0 0
880 0 0 0
883 0 0 0
888 0 0 0
889 0 0 0
893 0 0 0
894 0 0 0
940 0 0 0
943 0 0 0
948 0 0 0
952 0 0 0
955 0 0 0
960 0 0 0
1176 0 0 0
1335 0 0 0
1029 0 0 0
1000 0 0 0
1003 0 0 0
1008 0 0 0
1012 0 0 0
1015 0 0 0
1020 0 0 0
961 0 0 0
830 0 0 0
848 0 0 0
864 0 0 0
870 0 0 0
875 0 0 0
877 0 0 0
886 0 0 0
891 0 0 0
897 0 0 0
902 0 0 0
920 0 0 0
1009 0 0 0
942 0 0 0
947 0 0 0
949 0 0 0
958 0 0 0
1018 0 0 0
966 0 0 0
974 0 0 0
992 0 0 0
1002 0 0 0
1007 0 0 0
824 0 0 0
965 0 0 0
817 0 0 0
153 0 0 0
1334 0 0 0
836 0 0 0
849 0 0 0
862 0 0 0
867 0 0 0
869 0 0 0
879 0 0 0
881 0 0 0
890 0 0 0
895 0 0 0
908 0 0 0
921 0 0 0
932 0 0 0
939 0 0 0
941 0 0 0
951 0 0 0
953 0 0 0
1174 0 0 0
928 0 0 0
980 0 0 0
993 0 0 0
999 0 0 0
1001 0 0 0
1011 0 0 0
1013 0 0 0
995 0 0 0
822 0 0 0
829 0 0 0
838 0 0 0
846 0 0 0
851 0 0 0
856 0 0 0
860 0 0 0
863 0 0 0
873 0 0 0
878 0 0 0
901 0 0 0
910 0 0 0
918 0 0 0
923 0 0 0
1005 0 0 0
945 0 0 0
950 0 0 0
990 0 0 0
1010 0 0 0
973 0 0 0
982 0 0 0
151 0 0 0
11 0 0 0
935 0 0 0
146 0 0 0
21 0 0 0
26 0 0 0
49 0 0 0
58 0 0 0
66 0 0 0
71 0 0 0
76 0 0 0
80 0 0 0
83 0 0 0
93 0 0 0
98 0 0 0
216 0 0 0
118 0 0 0
121 0 0 0
130 0 0 0
138 0 0 0
143 0 0 0
356 0 0 0
165 0 0 0
170 0 0 0
181 0 0 0
190 0 0 0
198 0 0 0
203 0 0 0
556 0 0 0
15 0 0 0
17 0 0 0
27 0 0 0
29 0 0 0
38 0 0 0
43 0 0 0
56 0 0 0
69 0 0 0
82 0 0 0
87 0 0 0
89 0 0 0
99 0 0 0
101 0 0 0
188 0 0 0
173 0 0 0
128 0 0 0
141 0 0 0
201 0 0 0
159 0 0 0
161 0 0 0
171 0 0 0
209 0 0 0
115 0 0 0
971 0 0 0
818 0 0 0
180 0 0 0
18 0 0 0
23 0 0 0
25 0 0 0
34 0 0 0
39 0 0 0
45 0 0 0
50 0 0 0
68 0 0 0
84 0 0 0
90 0 0 0
95 0 0 0
97 0 0 0
106 0 0 0
318 0 0 0
175 0 0 0
122 0 0 0
140 0 0 0
147 0 0 0
162 0 0 0
167 0 0 0
169 0 0 0
178 0 0 0
182 0 0 0
200 0 0 0
16 0 0 0
19 0 0 0
24 0 0 0
28 0 0 0
31 0 0 0
36 0 0 0
37 0 0 0
41 0 0 0
42 0 0 0
88 0 0 0
91 0 0 0
96 0 0 0
100 0 0 0
103 0 0 0
108 0 0 0
517 0 0 0
208 0 0 0
120 0 0 0
160 0 0 0
163 0 0 0
168 0 0 0
172 0 0 0
823 0 0 0
819 0 0 0
929 0 0 0
117 0 0 0
962 0 0 0
837 0 0 0
842 0 0 0
865 0 0 0
874 0 0 0
882 0 0 0
887 0 0 0
892 0 0 0
896 0 0 0
899 0 0 0
909 0 0 0
914 0 0 0
1032 0 0 0
934 0 0 0
937 0 0 0
946 0 0 0
954 0 0 0
959 0 0 0
1172 0 0 0
981 0 0 0
986 0 0 0
997 0 0 0
1006 0 0 0
1014 0 0 0
1019 0 0 0
1372 0 0 0
831 0 0 0
833 0 0 0
843 0 0 0
845 0 0 0
854 0 0 0
859 0 0 0
872 0 0 0
885 0 0 0
898 0 0 0
903 0 0 0
905 0 0 0
915 0 0 0
917 0 0 0
1004 0 0 0
989 0 0 0
944 0 0 0
957 0 0 0
1017 0 0 0
975 0 0 0
977 0 0 0
987 0 0 0
1025 0 0 0
931 0 0 0
155 0 0 0
996 0 0 0
991 0 0 0
834 0 0 0
839 0 0 0
841 0 0 0
850 0 0 0
855 0 0 0
861 0 0 0
866 0 0 0
884 0 0 0
900 0 0 0
906 0 0 0
911 0 0 0
913 0 0 0
922 0 0 0
1134 0 0 0
988 0 0 0
938 0 0 0
956 0 0 0
963 0 0 0
978 0 0 0
983 0 0 0
985 0 0 0
994 0 0 0
998 0 0 0
1016 0 0 0
2 0 0 0
832 0 0 0
835 0 0 0
840 0 0 0
844 0 0 0
847 0 0 0
852 0 0 0
853 0 0 0
857 0 0 0
858 0 0 0
904 0 0 0
907 0 0 0
912 0 0 0
916 0 0 0
919 0 0 0
924 0 0 0
1333 0 0 0
1024 0 0 0
936 0 0 0
976 0 0 0
979 0 0 0
984 0 0 0
7 0 0 0
3 0 0 0
113 0 0 0
933 0 0 0
418 0 0 0
460 0 0 0
463 0 0 0
468 0 0 0
472 0 0 0
475 0 0 0
480 0 0 0
481 0 0 0
485 0 0 0
486 0 0 0
532 0 0 0
535 0 0 0
540 0 0 0
544 0 0 0
547 0 0 0
552 0 0 0
768 0 0 0
111 0 0 0
621 0 0 0
592 0 0 0
595 0 0 0
600 0 0 0
604 0 0 0
607 0 0 0
612 0 0 0
553 0 0 0
422 0 0 0
440 0 0 0
456 0 0 0
462 0 0 0
467 0 0 0
469 0 0 0
478 0 0 0
483 0 0 0
489 0 0 0
494 0 0 0
512 0 0 0
601 0 0 0
534 0 0 0
539 0 0 0
541 0 0 0
550 0 0 0
610 0 0 0
558 0 0 0
566 0 0 0
584 0 0 0
594 0 0 0
599 0 0 0
416 0 0 0
557 0 0 0
409 0 0 0
1377 0 0 0
110 0 0 0
428 0 0 0
441 0 0 0
454 0 0 0
459 0 0 0
461 0 0 0
471 0 0 0
473 0 0 0
482 0 0 0
487 0 0 0
500 0 0 0
513 0 0 0
524 0 0 0
531 0 0 0
533 0 0 0
543 0 0 0
545 0 0 0
766 0 0 0
520 0 0 0
572 0 0 0
585 0 0 0
591 0 0 0
593 0 0 0
603 0 0 0
605 0 0 0
587 0 0 0
414 0 0 0
421 0 0 0
430 0 0 0
438 0 0 0
443 0 0 0
448 0 0 0
452 0 0 0
455 0 0 0
465 0 0 0
470 0 0 0
493 0 0 0
502 0 0 0
510 0 0 0
515 0 0 0
597 0 0 0
537 0 0 0
542 0 0 0
582 0 0 0
602 0 0 0
565 0 0 0
574 0 0 0
1375 0 0 0
1235 0 0 0
527 0 0 0
1234 0 0 0
1276 0 0 0
1279 0 0 0
1284 0 0 0
1288 0 0 0
1291 0 0 0
1296 0 0 0
1297 0 0 0
1301 0 0 0
1302 0 0 0
1348 0 0 0
1351 0 0 0
1356 0 0 0
1360 0 0 0
1363 0 0 0
1368 0 0 0
1584 0 0 0
927 0 0 0
1437 0 0 0
1408 0 0 0
1411 0 0 0
1416 0 0 0
1420 0 0 0
1423 0 0 0
1428 0 0 0
1369 0 0 0
1238 0 0 0
1256 0 0 0
1272 0 0 0
1278 0 0 0
1283 0 0 0
1285 0 0 0
1294 0 0 0
1299 0 0 0
1305 0 0 0
1310 0 0 0
1328 0 0 0
1417 0 0 0
1350 0 0 0
1355 0 0 0
1357 0 0 0
1366 0 0 0
1426 0 0 0
1374 0 0 0
1382 0 0 0
1400 0 0 0
1410 0 0 0
1415 0 0 0
1232 0 0 0
1373 0 0 0
1225 0 0 0
561 0 0 0
926 0 0 0
1244 0 0 0
1257 0 0 0
1270 0 0 0
1275 0 0 0
1277 0 0 0
1287 0 0 0
1289 0 0 0
1298 0 0 0
1303 0 0 0
1316 0 0 0
1329 0 0 0
1340 0 0 0
1347 0 0 0
1349 0 0 0
1359 0 0 0
1361 0 0 0
1582 0 0 0
1336 0 0 0
1388 0 0 0
1401 0 0 0
1407 0 0 0
1409 0 0 0
1419 0 0 0
1421 0 0 0
1403 0 0 0
1230 0 0 0
1237 0 0 0
1246 0 0 0
1254 0 0 0
1259 0 0 0
1264 0 0 0
1268 0 0 0
1271 0 0 0
1281 0 0 0
1286 0 0 0
1309 0 0 0
1318 0 0 0
1326 0 0 0
1331 0 0 0
1413 0 0 0
1353 0 0 0
1358 0 0 0
1398 0 0 0
1418 0 0 0
1381 0 0 0
1390 0 0 0
559 0 0 0
419 0 0 0
1343 0 0 0
554 0 0 0
429 0 0 0
434 0 0 0
457 0 0 0
466 0 0 0
474 0 0 0
479 0 0 0
484 0 0 0
488 0 0 0
491 0 0 0
501 0 0 0
506 0 0 0
624 0 0 0
526 0 0 0
529 0 0 0
538 0 0 0
546 0 0 0
551 0 0 0
764 0 0 0
573 0 0 0
578 0 0 0
589 0 0 0
598 0 0 0
606 0 0 0
611 0 0 0
148 0 0 0
423 0 0 0
425 0 0 0
435 0 0 0
437 0 0 0
446 0 0 0
451 0 0 0
464 0 0 0
477 0 0 0
490 0 0 0
495 0 0 0
497 0 0 0
507 0 0 0
509 0 0 0
596 0 0 0
581 0 0 0
536 0 0 0
549 0 0 0
609 0 0 0
567 0 0 0
569 0 0 0
579 0 0 0
617 0 0 0
523 0 0 0
1379 0 0 0
1226 0 0 0
588 0 0 0
426 0 0 0
431 0 0 0
433 0 0 0
442 0 0 0
447 0 0 0
453 0 0 0
458 0 0 0
476 0 0 0
492 0 0 0
498 0 0 0
503 0 0 0
505 0 0 0
514 0 0 0
726 0 0 0
583 0 0 0
530 0 0 0
548 0 0 0
555 0 0 0
570 0 0 0
575 0 0 0
577 0 0 0
586 0 0 0
590 0 0 0
608 0 0 0
424 0 0 0
427 0 0 0
432 0 0 0
436 0 0 0
439 0 0 0
444 0 0 0
445 0 0 0
449 0 0 0
450 0 0 0
496 0 0 0
499 0 0 0
504 0 0 0
508 0 0 0
511 0 0 0
516 0 0 0
109 0 0 0
616 0 0 0
528 0 0 0
568 0 0 0
571 0 0 0
576 0 0 0
580 0 0 0
1231 0 0 0
1227 0 0 0
1337 0 0 0
525 0 0 0
1370 0 0 0
1245 0 0 0
1250 0 0 0
1273 0 0 0
1282 0 0 0
1290 0 0 0
1295 0 0 0
1300 0 0 0
1304 0 0 0
1307 0 0 0
1317 0 0 0
1322 0 0 0
1440 0 0 0
1342 0 0 0
1345 0 0 0
1354 0 0 0
1362 0 0 0
1367 0 0 0
1580 0 0 0
1389 0 0 0
1394 0 0 0
1405 0 0 0
1414 0 0 0
1422 0 0 0
1427 0 0 0
964 0 0 0
1239 0 0 0
1241 0 0 0
1251 0 0 0
1253 0 0 0
1262 0 0 0
1267 0 0 0
1280 0 0 0
1293 0 0 0
1306 0 0 0
1311 0 0 0
1313 0 0 0
1323 0 0 0
1325 0 0 0
1412 0 0 0
1397 0 0 0
1352 0 0 0
1365 0 0 0
1425 0 0 0
1383 0 0 0
1385 0 0 0
1395 0 0 0
1433 0 0 0
1339 0 0 0
563 0 0 0
1404 0 0 0
1399 0 0 0
1242 0 0 0
1247 0 0 0
1249 0 0 0
1258 0 0 0
1263 0 0 0
1269 0 0 0
1274 0 0 0
1292 0 0 0
1308 0 0 0
1314 0 0 0
1319 0 0 0
1321 0 0 0
1330 0 0 0
1542 0 0 0
1396 0 0 0
1346 0 0 0
1364 0 0 0
1371 0 0 0
1386 0 0 0
1391 0 0 0
1393 0 0 0
1402 0 0 0
1406 0 0 0
1424 0 0 0
410 0 0 0
1240 0 0 0
1243 0 0 0
1248 0 0 0
1252 0 0 0
1255 0 0 0
1260 0 0 0
1261 0 0 0
1265 0 0 0
1266 0 0 0
1312 0 0 0
1315 0 0 0
1320 0 0 0
1324 0 0 0
1327 0 0 0
1332 0 0 0
925 0 0 0
1432 0 0 0
1344 0 0 0
1384 0 0 0
1387 0 0 0
1392 0 0 0
415 0 0 0
411 0 0 0
521 0 0 0
1341 0 0 0
214 0 0 0
256 0 0 0
259 0 0 0
264 0 0 0
268 0 0 0
271 0 0 0
276 0 0 0
277 0 0 0
281 0 0 0
282 0 0 0
328 0 0 0
331 0 0 0
336 0 0 0
340 0 0 0
343 0 0 0
348 0 0 0
156 0 0 0
723 0 0 0
406 0 0 0
388 0 0 0
391 0 0 0
396 0 0 0
400 0 0 0
403 0 0 0
408 0 0 0
9 0 0 0
397 0 0 0
349 0 0 0
218 0 0 0
236 0 0 0
252 0 0 0
258 0 0 0
263 0 0 0
265 0 0 0
274 0 0 0
279 0 0 0
285 0 0 0
290 0 0 0
308 0 0 0
390 0 0 0
330 0 0 0
335 0 0 0
337 0 0 0
346 0 0 0
395 0 0 0
354 0 0 0
362 0 0 0
380 0 0 0
212 0 0 0
353 0 0 0
205 0 0 0
1173 0 0 0
722 0 0 0
224 0 0 0
237 0 0 0
250 0 0 0
255 0 0 0
257 0 0 0
267 0 0 0
269 0 0 0
278 0 0 0
283 0 0 0
296 0 0 0
309 0 0 0
320 0 0 0
327 0 0 0
329 0 0 0
339 0 0 0
341 0 0 0
154 0 0 0
316 0 0 0
368 0 0 0
381 0 0 0
387 0 0 0
389 0 0 0
399 0 0 0
401 0 0 0
383 0 0 0
210 0 0 0
217 0 0 0
226 0 0 0
234 0 0 0
239 0 0 0
244 0 0 0
248 0 0 0
251 0 0 0
261 0 0 0
266 0 0 0
289 0 0 0
298 0 0 0
306 0 0 0
311 0 0 0
393 0 0 0
333 0 0 0
338 0 0 0
378 0 0 0
398 0 0 0
361 0 0 0
370 0 0 0
1171 0 0 0
1031 0 0 0
323 0 0 0
1030 0 0 0
1072 0 0 0
1075 0 0 0
1080 0 0 0
1084 0 0 0
1087 0 0 0
1092 0 0 0
1093 0 0 0
1097 0 0 0
1098 0 0 0
1144 0 0 0
1147 0 0 0
1152 0 0 0
1156 0 0 0
1159 0 0 0
1164 0 0 0
972 0 0 0
1539 0 0 0
1222 0 0 0
1204 0 0 0
1207 0 0 0
1212 0 0 0
1216 0 0 0
1219 0 0 0
1224 0 0 0
825 0 0 0
1213 0 0 0
1165 0 0 0
1034 0 0 0
1052 0 0 0
1068 0 0 0
1074 0 0 0
1079 0 0 0
1081 0 0 0
1090 0 0 0
1095 0 0 0
1101 0 0 0
1106 0 0 0
1124 0 0 0
1206 0 0 0
1146 0 0 0
1151 0 0 0
1153 0 0 0
1162 0 0 0
1211 0 0 0
1170 0 0 0
1178 0 0 0
1196 0 0 0
1028 0 0 0
1169 0 0 0
1021 0 0 0
357 0 0 0
1538 0 0 0
1040 0 0 0
1053 0 0 0
1066 0 0 0
1071 0 0 0
1073 0 0 0
1083 0 0 0
1085 0 0 0
1094 0 0 0
1099 0 0 0
1112 0 0 0
1125 0 0 0
1136 0 0 0
1143 0 0 0
1145 0 0 0
1155 0 0 0
1157 0 0 0
970 0 0 0
1132 0 0 0
1184 0 0 0
1197 0 0 0
1203 0 0 0
1205 0 0 0
1215 0 0 0
1217 0 0 0
1199 0 0 0
1026 0 0 0
1033 0 0 0
1042 0 0 0
1050 0 0 0
1055 0 0 0
1060 0 0 0
1064 0 0 0
1067 0 0 0
1077 0 0 0
1082 0 0 0
1105 0 0 0
1114 0 0 0
1122 0 0 0
1127 0 0 0
1209 0 0 0
1149 0 0 0
1154 0 0 0
1194 0 0 0
1214 0 0 0
1177 0 0 0
1186 0 0 0
355 0 0 0
215 0 0 0
1139 0 0 0
350 0 0 0
225 0 0 0
230 0 0 0
253 0 0 0
262 0 0 0
270 0 0 0
275 0 0 0
280 0 0 0
284 0 0 0
287 0 0 0
297 0 0 0
302 0 0 0
12 0 0 0
322 0 0 0
325 0 0 0
334 0 0 0
342 0 0 0
347 0 0 0
152 0 0 0
369 0 0 0
374 0 0 0
385 0 0 0
394 0 0 0
402 0 0 0
407 0 0 0
760 0 0 0
219 0 0 0
221 0 0 0
231 0 0 0
233 0 0 0
242 0 0 0
247 0 0 0
260 0 0 0
273 0 0 0
286 0 0 0
291 0 0 0
293 0 0 0
303 0 0 0
305 0 0 0
392 0 0 0
377 0 0 0
332 0 0 0
345 0 0 0
405 0 0 0
363 0 0 0
365 0 0 0
375 0 0 0
5 0 0 0
319 0 0 0
1175 0 0 0
1022 0 0 0
384 0 0 0
222 0 0 0
227 0 0 0
229 0 0 0
238 0 0 0
243 0 0 0
249 0 0 0
254 0 0 0
272 0 0 0
288 0 0 0
294 0 0 0
299 0 0 0
301 0 0 0
310 0 0 0
114 0 0 0
379 0 0 0
326 0 0 0
344 0 0 0
351 0 0 0
366 0 0 0
371 0 0 0
373 0 0 0
382 0 0 0
386 0 0 0
404 0 0 0
220 0 0 0
223 0 0 0
228 0 0 0
232 0 0 0
235 0 0 0
240 0 0 0
241 0 0 0
245 0 0 0
246 0 0 0
292 0 0 0
295 0 0 0
300 0 0 0
304 0 0 0
307 0 0 0
312 0 0 0
721 0 0 0
4 0 0 0
324 0 0 0
364 0 0 0
367 0 0 0
372 0 0 0
376 0 0 0
1027 0 0 0
1023 0 0 0
1133 0 0 0
321 0 0 0
1166 0 0 0
1041 0 0 0
1046 0 0 0
1069 0 0 0
1078 0 0 0
1086 0 0 0
1091 0 0 0
1096 0 0 0
1100 0 0 0
1103 0 0 0
1113 0 0 0
1118 0 0 0
828 0 0 0
1138 0 0 0
1141 0 0 0
1150 0 0 0
1158 0 0 0
1163 0 0 0
968 0 0 0
1185 0 0 0
1190 0 0 0
1201 0 0 0
1210 0 0 0
1218 0 0 0
1223 0 0 0
1576 0 0 0
1035 0 0 0
1037 0 0 0
1047 0 0 0
1049 0 0 0
1058 0 0 0
1063 0 0 0
1076 0 0 0
1089 0 0 0
1102 0 0 0
1107 0 0 0
1109 0 0 0
1119 0 0 0
1121 0 0 0
1208 0 0 0
1193 0 0 0
1148 0 0 0
1161 0 0 0
1221 0 0 0
1179 0 0 0
1181 0 0 0
1191 0 0 0
821 0 0 0
1135 0 0 0
359 0 0 0
1200 0 0 0
1195 0 0 0
1038 0 0 0
1043 0 0 0
1045 0 0 0
1054 0 0 0
1059 0 0 0
1065 0 0 0
1070 0 0 0
1088 0 0 0
1104 0 0 0
1110 0 0 0
1115 0 0 0
1117 0 0 0
1126 0 0 0
930 0 0 0
1192 0 0 0
1142 0 0 0
1160 0 0 0
1167 0 0 0
1182 0 0 0
1187 0 0 0
1189 0 0 0
1198 0 0 0
1202 0 0 0
1220 0 0 0
206 0 0 0
1036 0 0 0
1039 0 0 0
1044 0 0 0
1048 0 0 0
1051 0 0 0
1056 0 0 0
1057 0 0 0
1061 0 0 0
1062 0 0 0
1108 0 0 0
1111 0 0 0
1116 0 0 0
1120 0 0 0
1123 0 0 0
1128 0 0 0
1537 0 0 0
820 0 0 0
1140 0 0 0
1180 0 0 0
1183 0 0 0
1188 0 0 0
211 0 0 0
207 0 0 0
317 0 0 0
1137 0 0 0
622 0 0 0
664 0 0 0
667 0 0 0
672 0 0 0
676 0 0 0
679 0 0 0
684 0 0 0
685 0 0 0
689 0 0 0
690 0 0 0
736 0 0 0
739 0 0 0
744 0 0 0
748 0 0 0
751 0 0 0
756 0 0 0
564 0 0 0
315 0 0 0
814 0 0 0
796 0 0 0
799 0 0 0
804 0 0 0
808 0 0 0
811 0 0 0
816 0 0 0
417 0 0 0
805 0 0 0
757 0 0 0
626 0 0 0
644 0 0 0
660 0 0 0
666 0 0 0
671 0 0 0
673 0 0 0
682 0 0 0
687 0 0 0
693 0 0 0
698 0 0 0
716 0 0 0
798 0 0 0
738 0 0 0
743 0 0 0
745 0 0 0
754 0 0 0
803 0 0 0
762 0 0 0
770 0 0 0
788 0 0 0
620 0 0 0
761 0 0 0
613 0 0 0
1581 0 0 0
314 0 0 0
632 0 0 0
645 0 0 0
658 0 0 0
663 0 0 0
665 0 0 0
675 0 0 0
677 0 0 0
686 0 0 0
691 0 0 0
704 0 0 0
717 0 0 0
728 0 0 0
735 0 0 0
737 0 0 0
747 0 0 0
749 0 0 0
562 0 0 0
724 0 0 0
776 0 0 0
789 0 0 0
795 0 0 0
797 0 0 0
807 0 0 0
809 0 0 0
791 0 0 0
618 0 0 0
625 0 0 0
634 0 0 0
642 0 0 0
647 0 0 0
652 0 0 0
656 0 0 0
659 0 0 0
669 0 0 0
674 0 0 0
697 0 0 0
706 0 0 0
714 0 0 0
719 0 0 0
801 0 0 0
741 0 0 0
746 0 0 0
786 0 0 0
806 0 0 0
769 0 0 0
778 0 0 0
1579 0 0 0
1439 0 0 0
731 0 0 0
1438 0 0 0
1480 0 0 0
1483 0 0 0
1488 0 0 0
1492 0 0 0
1495 0 0 0
1500 0 0 0
1501 0 0 0
1505 0 0 0
1506 0 0 0
1552 0 0 0
1555 0 0 0
1560 0 0 0
1564 0 0 0
1567 0 0 0
1572 0 0 0
1380 0 0 0
1131 0 0 0
1630 0 0 0
1612 0 0 0
1615 0 0 0
1620 0 0 0
1624 0 0 0
1627 0 0 0
1632 0 0 0
1233 0 0 0
1621 0 0 0
1573 0 0 0
1442 0 0 0
1460 0 0 0
1476 0 0 0
1482 0 0 0
1487 0 0 0
1489 0 0 0
1498 0 0 0
1503 0 0 0
1509 0 0 0
1514 0 0 0
1532 0 0 0
1614 0 0 0
1554 0 0 0
1559 0 0 0
1561 0 0 0
1570 0 0 0
1619 0 0 0
1578 0 0 0
1586 0 0 0
1604 0 0 0
1436 0 0 0
1577 0 0 0
1429 0 0 0
765 0 0 0
1130 0 0 0
1448 0 0 0
1461 0 0 0
1474 0 0 0
1479 0 0 0
1481 0 0 0
1491 0 0 0
1493 0 0 0
1502 0 0 0
1507 0 0 0
1520 0 0 0
1533 0 0 0
1544 0 0 0
1551 0 0 0
1553 0 0 0
1563 0 0 0
1565 0 0 0
1378 0 0 0
1540 0 0 0
1592 0 0 0
1605 0 0 0
1611 0 0 0
1613 0 0 0
1623 0 0 0
1625 0 0 0
1607 0 0 0
1434 0 0 0
1441 0 0 0
1450 0 0 0
1458 0 0 0
1463 0 0 0
1468 0 0 0
1472 0 0 0
1475 0 0 0
1485 0 0 0
1490 0 0 0
1513 0 0 0
1522 0 0 0
1530 0 0 0
1535 0 0 0
1617 0 0 0
1557 0 0 0
1562 0 0 0
1602 0 0 0
1622 0 0 0
1585 0 0 0
1594 0 0 0
763 0 0 0
623 0 0 0
1547 0 0 0
758 0 0 0
633 0 0 0
638 0 0 0
661 0 0 0
670 0 0 0
678 0 0 0
683 0 0 0
688 0 0 0
692 0 0 0
695 0 0 0
705 0 0 0
710 0 0 0
420 0 0 0
730 0 0 0
733 0 0 0
742 0 0 0
750 0 0 0
755 0 0 0
560 0 0 0
777 0 0 0
782 0 0 0
793 0 0 0
802 0 0 0
810 0 0 0
815 0 0 0
352 0 0 0
627 0 0 0
629 0 0 0
639 0 0 0
641 0 0 0
650 0 0 0
655 0 0 0
668 0 0 0
681 0 0 0
694 0 0 0
699 0 0 0
701 0 0 0
711 0 0 0
713 0 0 0
800 0 0 0
785 0 0 0
740 0 0 0
753 0 0 0
813 0 0 0
771 0 0 0
773 0 0 0
783 0 0 0
413 0 0 0
727 0 0 0
1583 0 0 0
1430 0 0 0
792 0 0 0
630 0 0 0
635 0 0 0
637 0 0 0
646 0 0 0
651 0 0 0
657 0 0 0
662 0 0 0
680 0 0 0
696 0 0 0
702 0 0 0
707 0 0 0
709 0 0 0
718 0 0 0
522 0 0 0
787 0 0 0
734 0 0 0
752 0 0 0
759 0 0 0
774 0 0 0
779 0 0 0
781 0 0 0
790 0 0 0
794 0 0 0
812 0 0 0
628 0 0 0
631 0 0 0
636 0 0 0
640 0 0 0
643 0 0 0
648 0 0 0
649 0 0 0
653 0 0 0
654 0 0 0
700 0 0 0
703 0 0 0
708 0 0 0
712 0 0 0
715 0 0 0
720 0 0 0
313 0 0 0
412 0 0 0
732 0 0 0
772 0 0 0
775 0 0 0
780 0 0 0
784 0 0 0
1435 0 0 0
1431 0 0 0
1541 0 0 0
729 0 0 0
1574 0 0 0
1449 0 0 0
1454 0 0 0
1477 0 0 0
1486 0 0 0
1494 0 0 0
1499 0 0 0
1504 0 0 0
1508 0 0 0
1511 0 0 0
1521 0 0 0
1526 0 0 0
1236 0 0 0
1546 0 0 0
1549 0 0 0
1558 0 0 0
1566 0 0 0
1571 0 0 0
1376 0 0 0
1593 0 0 0
1598 0 0 0
1609 0 0 0
1618 0 0 0
1626 0 0 0
1631 0 0 0
1168 0 0 0
1443 0 0 0
1445 0 0 0
1455 0 0 0
1457 0 0 0
1466 0 0 0
1471 0 0 0
1484 0 0 0
1497 0 0 0
1510 0 0 0
1515 0 0 0
1517 0 0 0
1527 0 0 0
1529 0 0 0
1616 0 0 0
1601 0 0 0
1556 0 0 0
1569 0 0 0
1629 0 0 0
1587 0 0 0
1589 0 0 0
1599 0 0 0
1229 0 0 0
1543 0 0 0
767 0 0 0
1608 0 0 0
1603 0 0 0
1446 0 0 0
1451 0 0 0
1453 0 0 0
1462 0 0 0
1467 0 0 0
1473 0 0 0
1478 0 0 0
1496 0 0 0
1512 0 0 0
1518 0 0 0
1523 0 0 0
1525 0 0 0
1534 0 0 0
1338 0 0 0
1600 0 0 0
1550 0 0 0
1568 0 0 0
1575 0 0 0
1590 0 0 0
1595 0 0 0
1597 0 0 0
1606 0 0 0
1610 0 0 0
1628 0 0 0
614 0 0 0
1444 0 0 0
1447 0 0 0
1452 0 0 0
1456 0 0 0
1459 0 0 0
1464 0 0 0
1465 0 0 0
1469 0 0 0
1470 0 0 0
1516 0 0 0
1519 0 0 0
1524 0 0 0
1528 0 0 0
1531 0 0 0
1536 0 0 0
1129 0 0 0
1228 0 0 0
1548 0 0 0
1588 0 0 0
1591 0 0 0
1596 0 0 0
619 0 0 0
615 0 0 0
725 0 0 0
1545 0 0 0

Bonds

1 1 10 186
2 1 10 598
3 1 10 609
4 1 10 204
5 2 52 124
6 2 55 127
7 2 60 132
8 2 64 136
9 2 67 139
10 2 72 144
11 3 73 149
12 3 77 150
13 3 78 145
14 4 124 144
15 5 124 184
16 4 127 139
17 5 127 187
18 4 132 136
19 5 132 192
20 5 136 196
21 5 139 199
22 5 144 204
23 6 360 396
24 6 360 400
25 6 519 567
26 6 519 609
27 1 213 389
28 1 213 400
29 6 145 181
30 6 145 198
31 2 14 86
32 2 32 104
33 3 48 519
34 2 54 126
35 2 59 131
36 2 61 133
37 2 70 142
38 3 75 969
39 3 81 360
40 4 86 142
41 5 86 158
42 4 104 131
43 5 104 176
44 4 126 133
45 5 126 186
46 5 131 191
47 5 133 193
48 5 142 202
49 1 202 216
50 6 150 186
51 6 150 193
52 1 191 213
53 1 8 590
54 1 8 184
55 1 8 197
56 1 8 611
57 6 149 185
58 6 149 197
59 1 1 157
60 1 1 567
61 1 1 583
62 1 1 176
63 6 969 995
64 6 969 1005
65 6 518 586
66 6 518 590
67 2 20 92
68 2 33 105
69 3 46 518
70 2 51 123
71 2 53 125
72 2 63 135
73 2 65 137
74 3 74 967
75 3 79 358
76 4 92 135
77 5 92 164
78 4 105 123
79 5 105 177
80 6 116 164
81 6 116 195
82 5 123 183
83 4 125 137
84 5 125 185
85 5 135 195
86 5 137 197
87 6 358 370
88 6 358 398
89 6 112 160
90 6 112 180
91 1 183 823
92 1 195 827
93 1 179 818
94 1 6 164
95 1 6 576
96 1 6 174
97 1 6 586
98 2 13 85
99 2 22 94
100 2 30 102
101 2 35 107
102 3 40 119
103 3 44 112
104 3 47 116
105 2 57 129
106 2 62 134
107 4 85 102
108 5 85 157
109 4 94 134
110 5 94 166
111 5 102 174
112 4 107 129
113 5 107 179
114 1 189 827
115 5 129 189
116 5 134 194
117 1 194 213
118 1 166 208
119 6 967 1003
120 6 967 1015
121 1 827 1003
122 1 827 1009
123 6 119 176
124 6 119 191
125 1 826 1002
126 1 826 1414
127 1 826 1425
128 1 826 1020
129 2 868 940
130 2 871 943
131 2 876 948
132 2 880 952
133 2 883 955
134 2 888 960
135 3 889 965
136 3 893 966
137 3 894 961
138 4 940 960
139 5 940 1000
140 4 943 955
141 5 943 1003
142 4 948 952
143 5 948 1008
144 5 952 1012
145 5 955 1015
146 5 960 1020
147 6 1176 1212
148 6 1176 1216
149 6 1335 1383
150 6 1335 1425
151 1 1029 1205
152 1 1029 1216
153 6 961 997
154 6 961 1014
155 2 830 902
156 2 848 920
157 3 864 1335
158 2 870 942
159 2 875 947
160 2 877 949
161 2 886 958
162 3 897 1176
163 4 902 958
164 5 902 974
165 4 920 947
166 5 920 992
167 4 942 949
168 5 942 1002
169 5 947 1007
170 5 949 1009
171 5 958 1018
172 1 1018 1032
173 6 966 1002
174 6 966 1009
175 1 1007 1029
176 1 824 1406
177 1 824 1000
178 1 824 1013
179 1 824 1427
180 6 965 1001
181 6 965 1013
182 1 817 973
183 1 817 1383
184 1 817 1399
185 1 817 992
186 3 153 891
187 6 153 179
188 6 153 189
189 6 1334 1402
190 6 1334 1406
191 2 836 908
192 2 849 921
193 3 862 1334
194 2 867 939
195 2 869 941
196 2 879 951
197 2 881 953
198 3 895 1174
199 4 908 951
200 5 908 980
201 4 921 939
202 5 921 993
203 6 932 980
204 6 932 1011
205 5 939 999
206 4 941 953
207 5 941 1001
208 5 951 1011
209 5 953 1013
210 6 1174 1186
211 6 1174 1214
212 6 928 976
213 6 928 996
214 1 822 980
215 1 822 1392
216 1 822 990
217 1 822 1402
218 2 829 901
219 2 838 910
220 2 846 918
221 2 851 923
222 3 856 935
223 3 860 928
224 3 863 932
225 2 873 945
226 2 878 950
227 4 901 918
228 5 901 973
229 4 910 950
230 5 910 982
231 5 918 990
232 4 923 945
233 5 923 995
234 5 945 1005
235 5 950 1010
236 1 1010 1029
237 1 982 1024
238 3 151 890
239 6 151 187
240 6 151 199
241 1 11 187
242 1 11 1005
243 1 11 193
244 1 11 1011
245 6 935 992
246 6 935 1007
247 6 146 158
248 6 146 202
249 2 21 93
250 2 26 98
251 2 49 121
252 2 58 130
253 2 66 138
254 2 71 143
255 3 76 971
256 3 80 556
257 3 83 356
258 4 93 143
259 5 93 165
260 4 98 130
261 5 98 170
262 1 216 396
263 1 216 402
264 6 118 170
265 6 118 190
266 4 121 138
267 5 121 181
268 5 130 190
269 5 138 198
270 5 143 203
271 6 356 375
272 6 356 392
273 1 190 418
274 1 203 416
275 6 556 592
276 6 556 612
277 2 15 87
278 2 17 89
279 2 27 99
280 2 29 101
281 3 38 115
282 3 43 118
283 2 56 128
284 2 69 141
285 3 82 146
286 4 87 141
287 5 87 159
288 4 89 101
289 5 89 161
290 4 99 128
291 5 99 171
292 5 101 173
293 1 188 216
294 5 128 188
295 5 141 201
296 1 201 418
297 1 159 409
298 1 171 209
299 1 209 369
300 1 209 373
301 6 115 163
302 6 115 175
303 6 971 983
304 6 971 1016
305 1 818 974
306 1 818 989
307 1 180 208
308 2 18 90
309 2 23 95
310 2 25 97
311 2 34 106
312 3 39 117
313 3 45 120
314 2 50 122
315 2 68 140
316 3 84 147
317 4 90 97
318 5 90 162
319 4 95 140
320 5 95 167
321 5 97 169
322 4 106 122
323 5 106 178
324 6 318 366
325 6 318 373
326 1 175 409
327 5 122 182
328 5 140 200
329 6 147 177
330 6 147 183
331 1 167 819
332 1 178 414
333 1 182 416
334 1 200 823
335 2 16 88
336 2 19 91
337 2 24 96
338 2 28 100
339 2 31 103
340 2 36 108
341 3 37 929
342 3 41 318
343 3 42 517
344 4 88 108
345 5 88 160
346 4 91 103
347 5 91 163
348 4 96 100
349 5 96 168
350 5 100 172
351 5 103 175
352 5 108 180
353 6 517 565
354 6 517 582
355 1 208 366
356 1 208 381
357 6 120 168
358 6 120 172
359 1 160 818
360 1 163 209
361 1 168 414
362 1 172 819
363 1 823 997
364 1 823 1015
365 1 819 977
366 1 819 986
367 6 929 977
368 6 929 989
369 6 117 165
370 6 117 203
371 6 962 974
372 6 962 1018
373 2 837 909
374 2 842 914
375 2 865 937
376 2 874 946
377 2 882 954
378 2 887 959
379 3 896 1372
380 3 899 1172
381 4 909 959
382 5 909 981
383 4 914 946
384 5 914 986
385 1 1032 1212
386 1 1032 1218
387 6 934 986
388 6 934 1006
389 4 937 954
390 5 937 997
391 5 946 1006
392 5 954 1014
393 5 959 1019
394 6 1172 1191
395 6 1172 1208
396 1 1006 1234
397 1 1019 1232
398 6 1372 1408
399 6 1372 1428
400 2 831 903
401 2 833 905
402 2 843 915
403 2 845 917
404 3 854 931
405 3 859 934
406 2 872 944
407 2 885 957
408 3 898 962
409 4 903 957
410 5 903 975
411 4 905 917
412 5 905 977
413 4 915 944
414 5 915 987
415 5 917 989
416 1 1004 1032
417 5 944 1004
418 5 957 1017
419 1 1017 1234
420 1 975 1225
421 1 987 1025
422 1 1025 1185
423 1 1025 1189
424 6 931 979
425 6 931 991
426 3 155 892
427 6 155 167
428 6 155 200
429 1 996 1024
430 1 991 1225
431 2 834 906
432 2 839 911
433 2 841 913
434 2 850 922
435 3 855 933
436 3 861 936
437 2 866 938
438 2 884 956
439 3 900 963
440 4 906 913
441 5 906 978
442 4 911 956
443 5 911 983
444 5 913 985
445 4 922 938
446 5 922 994
447 6 1134 1182
448 6 1134 1189
449 5 938 998
450 5 956 1016
451 6 963 993
452 6 963 999
453 1 994 1230
454 1 998 1232
455 1 2 158
456 1 2 976
457 1 2 173
458 1 2 995
459 2 832 904
460 2 835 907
461 2 840 912
462 2 844 916
463 2 847 919
464 2 852 924
465 3 857 1134
466 3 858 1333
467 4 904 924
468 5 904 976
469 4 907 919
470 5 907 979
471 4 912 916
472 5 912 984
473 5 916 988
474 5 919 991
475 5 924 996
476 6 1333 1381
477 6 1333 1398
478 1 1024 1182
479 1 1024 1197
480 6 936 984
481 6 936 988
482 1 979 1025
483 1 984 1230
484 1 7 181
485 1 7 999
486 1 7 199
487 1 7 1016
488 1 3 161
489 1 3 983
490 1 3 170
491 1 3 988
492 3 113 853
493 6 113 161
494 6 113 173
495 6 933 981
496 6 933 1019
497 1 418 594
498 1 418 612
499 2 460 532
500 2 463 535
501 2 468 540
502 2 472 544
503 2 475 547
504 2 480 552
505 3 481 557
506 3 485 558
507 3 486 553
508 4 532 552
509 5 532 592
510 4 535 547
511 5 535 595
512 4 540 544
513 5 540 600
514 5 544 604
515 5 547 607
516 5 552 612
517 6 768 804
518 6 768 808
519 3 111 456
520 6 111 159
521 6 111 201
522 1 621 797
523 1 621 808
524 6 553 589
525 6 553 606
526 2 422 494
527 2 440 512
528 2 462 534
529 2 467 539
530 2 469 541
531 2 478 550
532 3 483 1377
533 3 489 768
534 4 494 550
535 5 494 566
536 4 512 539
537 5 512 584
538 4 534 541
539 5 534 594
540 5 539 599
541 5 541 601
542 5 550 610
543 1 610 624
544 6 558 594
545 6 558 601
546 1 599 621
547 1 416 592
548 1 416 605
549 6 557 593
550 6 557 605
551 1 409 565
552 1 409 584
553 6 1377 1403
554 6 1377 1413
555 3 110 454
556 6 110 178
557 6 110 182
558 2 428 500
559 2 441 513
560 2 459 531
561 2 461 533
562 2 471 543
563 2 473 545
564 3 482 1375
565 3 487 766
566 4 500 543
567 5 500 572
568 4 513 531
569 5 513 585
570 6 524 572
571 6 524 603
572 5 531 591
573 4 533 545
574 5 533 593
575 5 543 603
576 5 545 605
577 6 766 778
578 6 766 806
579 6 520 568
580 6 520 588
581 1 591 1231
582 1 603 1235
583 1 587 1226
584 1 414 572
585 1 414 582
586 2 421 493
587 2 430 502
588 2 438 510
589 2 443 515
590 3 448 527
591 3 452 520
592 3 455 524
593 2 465 537
594 2 470 542
595 4 493 510
596 5 493 565
597 4 502 542
598 5 502 574
599 5 510 582
600 4 515 537
601 5 515 587
602 1 597 1235
603 5 537 597
604 5 542 602
605 1 602 621
606 1 574 616
607 6 1375 1411
608 6 1375 1423
609 1 1235 1411
610 1 1235 1417
611 6 527 584
612 6 527 599
613 1 1234 1410
614 1 1234 1428
615 2 1276 1348
616 2 1279 1351
617 2 1284 1356
618 2 1288 1360
619 2 1291 1363
620 2 1296 1368
621 3 1297 1373
622 3 1301 1374
623 3 1302 1369
624 4 1348 1368
625 5 1348 1408
626 4 1351 1363
627 5 1351 1411
628 4 1356 1360
629 5 1356 1416
630 5 1360 1420
631 5 1363 1423
632 5 1368 1428
633 6 1584 1620
634 6 1584 1624
635 3 927 1272
636 6 927 975
637 6 927 1017
638 1 1437 1613
639 1 1437 1624
640 6 1369 1405
641 6 1369 1422
642 2 1238 1310
643 2 1256 1328
644 2 1278 1350
645 2 1283 1355
646 2 1285 1357
647 2 1294 1366
648 3 1305 1584
649 4 1310 1366
650 5 1310 1382
651 4 1328 1355
652 5 1328 1400
653 4 1350 1357
654 5 1350 1410
655 5 1355 1415
656 5 1357 1417
657 5 1366 1426
658 1 1426 1440
659 6 1374 1410
660 6 1374 1417
661 1 1415 1437
662 1 1232 1408
663 1 1232 1421
664 6 1373 1409
665 6 1373 1421
666 1 1225 1381
667 1 1225 1400
668 3 561 1299
669 6 561 587
670 6 561 597
671 3 926 1270
672 6 926 994
673 6 926 998
674 2 1244 1316
675 2 1257 1329
676 2 1275 1347
677 2 1277 1349
678 2 1287 1359
679 2 1289 1361
680 3 1303 1582
681 4 1316 1359
682 5 1316 1388
683 4 1329 1347
684 5 1329 1401
685 6 1340 1388
686 6 1340 1419
687 5 1347 1407
688 4 1349 1361
689 5 1349 1409
690 5 1359 1419
691 5 1361 1421
692 6 1582 1594
693 6 1582 1622
694 6 1336 1384
695 6 1336 1404
696 1 1230 1388
697 1 1230 1398
698 2 1237 1309
699 2 1246 1318
700 2 1254 1326
701 2 1259 1331
702 3 1264 1343
703 3 1268 1336
704 3 1271 1340
705 2 1281 1353
706 2 1286 1358
707 4 1309 1326
708 5 1309 1381
709 4 1318 1358
710 5 1318 1390
711 5 1326 1398
712 4 1331 1353
713 5 1331 1403
714 5 1353 1413
715 5 1358 1418
716 1 1418 1437
717 1 1390 1432
718 3 559 1298
719 6 559 595
720 6 559 607
721 1 419 595
722 1 419 1413
723 1 419 601
724 1 419 1419
725 6 1343 1400
726 6 1343 1415
727 6 554 566
728 6 554 610
729 2 429 501
730 2 434 506
731 2 457 529
732 2 466 538
733 2 474 546
734 2 479 551
735 3 484 1379
736 3 491 764
737 4 501 551
738 5 501 573
739 4 506 538
740 5 506 578
741 1 624 804
742 1 624 810
743 6 526 578
744 6 526 598
745 4 529 546
746 5 529 589
747 5 538 598
748 5 546 606
749 5 551 611
750 6 764 783
751 6 764 800
752 3 148 488
753 6 148 184
754 6 148 204
755 2 423 495
756 2 425 497
757 2 435 507
758 2 437 509
759 3 446 523
760 3 451 526
761 2 464 536
762 2 477 549
763 3 490 554
764 4 495 549
765 5 495 567
766 4 497 509
767 5 497 569
768 4 507 536
769 5 507 579
770 5 509 581
771 1 596 624
772 5 536 596
773 5 549 609
774 1 579 617
775 1 617 777
776 1 617 781
777 6 523 571
778 6 523 583
779 6 1379 1391
780 6 1379 1424
781 1 1226 1382
782 1 1226 1397
783 1 588 616
784 2 426 498
785 2 431 503
786 2 433 505
787 2 442 514
788 3 447 525
789 3 453 528
790 2 458 530
791 2 476 548
792 3 492 555
793 4 498 505
794 5 498 570
795 4 503 548
796 5 503 575
797 5 505 577
798 4 514 530
799 5 514 586
800 6 726 774
801 6 726 781
802 5 530 590
803 5 548 608
804 6 555 585
805 6 555 591
806 1 575 1227
807 1 608 1231
808 2 424 496
809 2 427 499
810 2 432 504
811 2 436 508
812 2 439 511
813 2 444 516
814 3 445 1337
815 3 449 726
816 4 496 516
817 5 496 568
818 4 499 511
819 5 499 571
820 4 504 508
821 5 504 576
822 5 508 580
823 5 511 583
824 5 516 588
825 3 109 450
826 6 109 157
827 6 109 174
828 1 616 774
829 1 616 789
830 6 528 576
831 6 528 580
832 1 568 1226
833 1 571 617
834 1 580 1227
835 1 1231 1405
836 1 1231 1423
837 1 1227 1385
838 1 1227 1394
839 6 1337 1385
840 6 1337 1397
841 6 525 573
842 6 525 611
843 6 1370 1382
844 6 1370 1426
845 2 1245 1317
846 2 1250 1322
847 2 1273 1345
848 2 1282 1354
849 2 1290 1362
850 2 1295 1367
851 3 1307 1580
852 4 1317 1367
853 5 1317 1389
854 4 1322 1354
855 5 1322 1394
856 1 1440 1620
857 1 1440 1626
858 6 1342 1394
859 6 1342 1414
860 4 1345 1362
861 5 1345 1405
862 5 1354 1414
863 5 1362 1422
864 5 1367 1427
865 6 1580 1599
866 6 1580 1616
867 3 964 1304
868 6 964 1000
869 6 964 1020
870 2 1239 1311
871 2 1241 1313
872 2 1251 1323
873 2 1253 1325
874 3 1262 1339
875 3 1267 1342
876 2 1280 1352
877 2 1293 1365
878 3 1306 1370
879 4 1311 1365
880 5 1311 1383
881 4 1313 1325
882 5 1313 1385
883 4 1323 1352
884 5 1323 1395
885 5 1325 1397
886 1 1412 1440
887 5 1352 1412
888 5 1365 1425
889 1 1395 1433
890 1 1433 1593
891 1 1433 1597
892 6 1339 1387
893 6 1339 1399
894 3 563 1300
895 6 563 575
896 6 563 608
897 1 1404 1432
898 2 1242 1314
899 2 1247 1319
900 2 1249 1321
901 2 1258 1330
902 3 1263 1341
903 3 1269 1344
904 2 1274 1346
905 2 1292 1364
906 3 1308 1371
907 4 1314 1321
908 5 1314 1386
909 4 1319 1364
910 5 1319 1391
911 5 1321 1393
912 4 1330 1346
913 5 1330 1402
914 6 1542 1590
915 6 1542 1597
916 5 1346 1406
917 5 1364 1424
918 6 1371 1401
919 6 1371 1407
920 1 410 566
921 1 410 1384
922 1 410 581
923 1 410 1403
924 2 1240 1312
925 2 1243 1315
926 2 1248 1320
927 2 1252 1324
928 2 1255 1327
929 2 1260 1332
930 3 1265 1542
931 4 1312 1332
932 5 1312 1384
933 4 1315 1327
934 5 1315 1387
935 4 1320 1324
936 5 1320 1392
937 5 1324 1396
938 5 1327 1399
939 5 1332 1404
940 3 925 1266
941 6 925 973
942 6 925 990
943 1 1432 1590
944 1 1432 1605
945 6 1344 1392
946 6 1344 1396
947 1 1387 1433
948 1 415 589
949 1 415 1407
950 1 415 607
951 1 415 1424
952 1 411 569
953 1 411 1391
954 1 411 578
955 1 411 1396
956 3 521 1261
957 6 521 569
958 6 521 581
959 6 1341 1389
960 6 1341 1427
961 1 214 390
962 1 214 802
963 1 214 813
964 1 214 408
965 2 256 328
966 2 259 331
967 2 264 336
968 2 268 340
969 2 271 343
970 2 276 348
971 3 277 353
972 3 281 354
973 3 282 349
974 4 328 348
975 5 328 388
976 4 331 343
977 5 331 391
978 4 336 340
979 5 336 396
980 5 340 400
981 5 343 403
982 5 348 408
983 3 156 285
984 6 156 192
985 6 156 196
986 6 723 771
987 6 723 813
988 1 9 185
989 1 9 395
990 1 9 398
991 1 9 196
992 6 349 385
993 6 349 402
994 2 218 290
995 2 236 308
996 3 252 723
997 2 258 330
998 2 263 335
999 2 265 337
1000 2 274 346
1001 3 279 1173
1002 4 290 346
1003 5 290 362
1004 4 308 335
1005 5 308 380
1006 4 330 337
1007 5 330 390
1008 5 335 395
1009 5 337 397
1010 5 346 406
1011 6 354 390
1012 6 354 397
1013 1 212 794
1014 1 212 388
1015 1 212 401
1016 1 212 815
1017 6 353 389
1018 6 353 401
1019 1 205 361
1020 1 205 771
1021 1 205 787
1022 1 205 380
1023 6 1173 1199
1024 6 1173 1209
1025 6 722 790
1026 6 722 794
1027 2 224 296
1028 2 237 309
1029 3 250 722
1030 2 255 327
1031 2 257 329
1032 2 267 339
1033 2 269 341
1034 3 278 1171
1035 4 296 339
1036 5 296 368
1037 4 309 327
1038 5 309 381
1039 6 320 368
1040 6 320 399
1041 5 327 387
1042 4 329 341
1043 5 329 389
1044 5 339 399
1045 5 341 401
1046 3 154 283
1047 6 154 166
1048 6 154 194
1049 6 316 364
1050 6 316 384
1051 1 387 1027
1052 1 399 1031
1053 1 383 1022
1054 1 210 368
1055 1 210 780
1056 1 210 378
1057 1 210 790
1058 2 217 289
1059 2 226 298
1060 2 234 306
1061 2 239 311
1062 3 244 323
1063 3 248 316
1064 3 251 320
1065 2 261 333
1066 2 266 338
1067 4 289 306
1068 5 289 361
1069 4 298 338
1070 5 298 370
1071 5 306 378
1072 4 311 333
1073 5 311 383
1074 1 393 1031
1075 5 333 393
1076 5 338 398
1077 6 1171 1207
1078 6 1171 1219
1079 1 1031 1207
1080 1 1031 1213
1081 6 323 380
1082 6 323 395
1083 1 1030 1206
1084 1 1030 1618
1085 1 1030 1629
1086 1 1030 1224
1087 2 1072 1144
1088 2 1075 1147
1089 2 1080 1152
1090 2 1084 1156
1091 2 1087 1159
1092 2 1092 1164
1093 3 1093 1169
1094 3 1097 1170
1095 3 1098 1165
1096 4 1144 1164
1097 5 1144 1204
1098 4 1147 1159
1099 5 1147 1207
1100 4 1152 1156
1101 5 1152 1212
1102 5 1156 1216
1103 5 1159 1219
1104 5 1164 1224
1105 3 972 1101
1106 6 972 1008
1107 6 972 1012
1108 6 1539 1587
1109 6 1539 1629
1110 1 825 1001
1111 1 825 1211
1112 1 825 1214
1113 1 825 1012
1114 6 1165 1201
1115 6 1165 1218
1116 2 1034 1106
1117 2 1052 1124
1118 3 1068 1539
1119 2 1074 1146
1120 2 1079 1151
1121 2 1081 1153
1122 2 1090 1162
1123 4 1106 1162
1124 5 1106 1178
1125 4 1124 1151
1126 5 1124 1196
1127 4 1146 1153
1128 5 1146 1206
1129 5 1151 1211
1130 5 1153 1213
1131 5 1162 1222
1132 6 1170 1206
1133 6 1170 1213
1134 1 1028 1610
1135 1 1028 1204
1136 1 1028 1217
1137 1 1028 1631
1138 6 1169 1205
1139 6 1169 1217
1140 1 1021 1177
1141 1 1021 1587
1142 1 1021 1603
1143 1 1021 1196
1144 3 357 1095
1145 6 357 383
1146 6 357 393
1147 6 1538 1606
1148 6 1538 1610
1149 2 1040 1112
1150 2 1053 1125
1151 3 1066 1538
1152 2 1071 1143
1153 2 1073 1145
1154 2 1083 1155
1155 2 1085 1157
1156 4 1112 1155
1157 5 1112 1184
1158 4 1125 1143
1159 5 1125 1197
1160 6 1136 1184
1161 6 1136 1215
1162 5 1143 1203
1163 4 1145 1157
1164 5 1145 1205
1165 5 1155 1215
1166 5 1157 1217
1167 3 970 1099
1168 6 970 982
1169 6 970 1010
1170 6 1132 1180
1171 6 1132 1200
1172 1 1026 1184
1173 1 1026 1596
1174 1 1026 1194
1175 1 1026 1606
1176 2 1033 1105
1177 2 1042 1114
1178 2 1050 1122
1179 2 1055 1127
1180 3 1060 1139
1181 3 1064 1132
1182 3 1067 1136
1183 2 1077 1149
1184 2 1082 1154
1185 4 1105 1122
1186 5 1105 1177
1187 4 1114 1154
1188 5 1114 1186
1189 5 1122 1194
1190 4 1127 1149
1191 5 1127 1199
1192 5 1149 1209
1193 5 1154 1214
1194 3 355 1094
1195 6 355 391
1196 6 355 403
1197 1 215 391
1198 1 215 1209
1199 1 215 397
1200 1 215 1215
1201 6 1139 1196
1202 6 1139 1211
1203 6 350 362
1204 6 350 406
1205 2 225 297
1206 2 230 302
1207 2 253 325
1208 2 262 334
1209 2 270 342
1210 2 275 347
1211 3 280 1175
1212 3 284 760
1213 4 297 347
1214 5 297 369
1215 4 302 334
1216 5 302 374
1217 1 12 392
1218 1 12 192
1219 1 12 198
1220 1 12 406
1221 6 322 374
1222 6 322 394
1223 4 325 342
1224 5 325 385
1225 5 334 394
1226 5 342 402
1227 5 347 407
1228 3 152 287
1229 6 152 171
1230 6 152 188
1231 1 394 622
1232 1 407 620
1233 6 760 796
1234 6 760 816
1235 2 219 291
1236 2 221 293
1237 2 231 303
1238 2 233 305
1239 3 242 319
1240 3 247 322
1241 2 260 332
1242 2 273 345
1243 3 286 350
1244 4 291 345
1245 5 291 363
1246 4 293 305
1247 5 293 365
1248 4 303 332
1249 5 303 375
1250 5 305 377
1251 5 332 392
1252 5 345 405
1253 1 405 622
1254 1 363 613
1255 1 5 367
1256 1 5 165
1257 1 5 169
1258 1 5 375
1259 6 319 367
1260 6 319 379
1261 6 1175 1187
1262 6 1175 1220
1263 1 1022 1178
1264 1 1022 1193
1265 2 222 294
1266 2 227 299
1267 2 229 301
1268 2 238 310
1269 3 243 321
1270 3 249 324
1271 2 254 326
1272 2 272 344
1273 3 288 351
1274 4 294 301
1275 5 294 366
1276 4 299 344
1277 5 299 371
1278 5 301 373
1279 4 310 326
1280 5 310 382
1281 3 114 245
1282 6 114 162
1283 6 114 169
1284 1 379 613
1285 5 326 386
1286 5 344 404
1287 6 351 381
1288 6 351 387
1289 1 371 1023
1290 1 382 618
1291 1 386 620
1292 1 404 1027
1293 2 220 292
1294 2 223 295
1295 2 228 300
1296 2 232 304
1297 2 235 307
1298 2 240 312
1299 3 241 1133
1300 3 246 721
1301 4 292 312
1302 5 292 364
1303 4 295 307
1304 5 295 367
1305 4 300 304
1306 5 300 372
1307 5 304 376
1308 5 307 379
1309 5 312 384
1310 6 721 769
1311 6 721 786
1312 1 4 162
1313 1 4 370
1314 1 4 177
1315 1 4 384
1316 6 324 372
1317 6 324 376
1318 1 364 1022
1319 1 372 618
1320 1 376 1023
1321 1 1027 1201
1322 1 1027 1219
1323 1 1023 1181
1324 1 1023 1190
1325 6 1133 1181
1326 6 1133 1193
1327 6 321 369
1328 6 321 407
1329 6 1166 1178
1330 6 1166 1222
1331 2 1041 1113
1332 2 1046 1118
1333 2 1069 1141
1334 2 1078 1150
1335 2 1086 1158
1336 2 1091 1163
1337 3 1100 1576
1338 4 1113 1163
1339 5 1113 1185
1340 4 1118 1150
1341 5 1118 1190
1342 1 828 1208
1343 1 828 1008
1344 1 828 1014
1345 1 828 1222
1346 6 1138 1190
1347 6 1138 1210
1348 4 1141 1158
1349 5 1141 1201
1350 5 1150 1210
1351 5 1158 1218
1352 5 1163 1223
1353 3 968 1103
1354 6 968 987
1355 6 968 1004
1356 1 1210 1438
1357 1 1223 1436
1358 6 1576 1612
1359 6 1576 1632
1360 2 1035 1107
1361 2 1037 1109
1362 2 1047 1119
1363 2 1049 1121
1364 3 1058 1135
1365 3 1063 1138
1366 2 1076 1148
1367 2 1089 1161
1368 3 1102 1166
1369 4 1107 1161
1370 5 1107 1179
1371 4 1109 1121
1372 5 1109 1181
1373 4 1119 1148
1374 5 1119 1191
1375 5 1121 1193
1376 5 1148 1208
1377 5 1161 1221
1378 1 1221 1438
1379 1 1179 1429
1380 1 821 1183
1381 1 821 981
1382 1 821 985
1383 1 821 1191
1384 6 1135 1183
1385 6 1135 1195
1386 3 359 1096
1387 6 359 371
1388 6 359 404
1389 1 1195 1429
1390 2 1038 1110
1391 2 1043 1115
1392 2 1045 1117
1393 2 1054 1126
1394 3 1059 1137
1395 3 1065 1140
1396 2 1070 1142
1397 2 1088 1160
1398 3 1104 1167
1399 4 1110 1117
1400 5 1110 1182
1401 4 1115 1160
1402 5 1115 1187
1403 5 1117 1189
1404 4 1126 1142
1405 5 1126 1198
1406 3 930 1061
1407 6 930 978
1408 6 930 985
1409 5 1142 1202
1410 5 1160 1220
1411 6 1167 1197
1412 6 1167 1203
1413 1 1198 1434
1414 1 1202 1436
1415 1 206 362
1416 1 206 1180
1417 1 206 377
1418 1 206 1199
1419 2 1036 1108
1420 2 1039 1111
1421 2 1044 1116
1422 2 1048 1120
1423 2 1051 1123
1424 2 1056 1128
1425 3 1062 1537
1426 4 1108 1128
1427 5 1108 1180
1428 4 1111 1123
1429 5 1111 1183
1430 4 1116 1120
1431 5 1116 1188
1432 5 1120 1192
1433 5 1123 1195
1434 5 1128 1200
1435 6 1537 1585
1436 6 1537 1602
1437 1 820 978
1438 1 820 1186
1439 1 820 993
1440 1 820 1200
1441 6 1140 1188
1442 6 1140 1192
1443 1 1188 1434
1444 1 211 385
1445 1 211 1203
1446 1 211 403
1447 1 211 1220
1448 1 207 365
1449 1 207 1187
1450 1 207 374
1451 1 207 1192
1452 3 317 1057
1453 6 317 365
1454 6 317 377
1455 6 1137 1185
1456 6 1137 1223
1457 1 622 798
1458 1 622 816
1459 2 664 736
1460 2 667 739
1461 2 672 744
1462 2 676 748
1463 2 679 751
1464 2 684 756
1465 3 685 761
1466 3 689 762
1467 3 690 757
1468 4 736 756
1469 5 736 796
1470 4 739 751
1471 5 739 799
1472 4 744 748
1473 5 744 804
1474 5 748 808
1475 5 751 811
1476 5 756 816
1477 3 564 693
1478 6 564 600
1479 6 564 604
1480 3 315 660
1481 6 315 363
1482 6 315 405
1483 1 417 593
1484 1 417 803
1485 1 417 806
1486 1 417 604
1487 6 757 793
1488 6 757 810
1489 2 626 698
1490 2 644 716
1491 2 666 738
1492 2 671 743
1493 2 673 745
1494 2 682 754
1495 3 687 1581
1496 4 698 754
1497 5 698 770
1498 4 716 743
1499 5 716 788
1500 4 738 745
1501 5 738 798
1502 5 743 803
1503 5 745 805
1504 5 754 814
1505 6 762 798
1506 6 762 805
1507 1 620 796
1508 1 620 809
1509 6 761 797
1510 6 761 809
1511 1 613 769
1512 1 613 788
1513 6 1581 1607
1514 6 1581 1617
1515 3 314 658
1516 6 314 382
1517 6 314 386
1518 2 632 704
1519 2 645 717
1520 2 663 735
1521 2 665 737
1522 2 675 747
1523 2 677 749
1524 3 686 1579
1525 4 704 747
1526 5 704 776
1527 4 717 735
1528 5 717 789
1529 6 728 776
1530 6 728 807
1531 5 735 795
1532 4 737 749
1533 5 737 797
1534 5 747 807
1535 5 749 809
1536 3 562 691
1537 6 562 574
1538 6 562 602
1539 6 724 772
1540 6 724 792
1541 1 795 1435
1542 1 807 1439
1543 1 791 1430
1544 1 618 776
1545 1 618 786
1546 2 625 697
1547 2 634 706
1548 2 642 714
1549 2 647 719
1550 3 652 731
1551 3 656 724
1552 3 659 728
1553 2 669 741
1554 2 674 746
1555 4 697 714
1556 5 697 769
1557 4 706 746
1558 5 706 778
1559 5 714 786
1560 4 719 741
1561 5 719 791
1562 1 801 1439
1563 5 741 801
1564 5 746 806
1565 6 1579 1615
1566 6 1579 1627
1567 1 1439 1615
1568 1 1439 1621
1569 6 731 788
1570 6 731 803
1571 1 1438 1614
1572 1 1438 1632
1573 2 1480 1552
1574 2 1483 1555
1575 2 1488 1560
1576 2 1492 1564
1577 2 1495 1567
1578 2 1500 1572
1579 3 1501 1577
1580 3 1505 1578
1581 3 1506 1573
1582 4 1552 1572
1583 5 1552 1612
1584 4 1555 1567
1585 5 1555 1615
1586 4 1560 1564
1587 5 1560 1620
1588 5 1564 1624
1589 5 1567 1627
1590 5 1572 1632
1591 3 1380 1509
1592 6 1380 1416
1593 6 1380 1420
1594 3 1131 1476
1595 6 1131 1179
1596 6 1131 1221
1597 1 1233 1409
1598 1 1233 1619
1599 1 1233 1622
1600 1 1233 1420
1601 6 1573 1609
1602 6 1573 1626
1603 2 1442 1514
1604 2 1460 1532
1605 2 1482 1554
1606 2 1487 1559
1607 2 1489 1561
1608 2 1498 1570
1609 4 1514 1570
1610 5 1514 1586
1611 4 1532 1559
1612 5 1532 1604
1613 4 1554 1561
1614 5 1554 1614
1615 5 1559 1619
1616 5 1561 1621
1617 5 1570 1630
1618 6 1578 1614
1619 6 1578 1621
1620 1 1436 1612
1621 1 1436 1625
1622 6 1577 1613
1623 6 1577 1625
1624 1 1429 1585
1625 1 1429 1604
1626 3 765 1503
1627 6 765 791
1628 6 765 801
1629 3 1130 1474
1630 6 1130 1198
1631 6 1130 1202
1632 2 1448 1520
1633 2 1461 1533
1634 2 1479 1551
1635 2 1481 1553
1636 2 1491 1563
1637 2 1493 1565
1638 4 1520 1563
1639 5 1520 1592
1640 4 1533 1551
1641 5 1533 1605
1642 6 1544 1592
1643 6 1544 1623
1644 5 1551 1611
1645 4 1553 1565
1646 5 1553 1613
1647 5 1563 1623
1648 5 1565 1625
1649 3 1378 1507
1650 6 1378 1390
1651 6 1378 1418
1652 6 1540 1588
1653 6 1540 1608
1654 1 1434 1592
1655 1 1434 1602
1656 2 1441 1513
1657 2 1450 1522
1658 2 1458 1530
1659 2 1463 1535
1660 3 1468 1547
1661 3 1472 1540
1662 3 1475 1544
1663 2 1485 1557
1664 2 1490 1562
1665 4 1513 1530
1666 5 1513 1585
1667 4 1522 1562
1668 5 1522 1594
1669 5 1530 1602
1670 4 1535 1557
1671 5 1535 1607
1672 5 1557 1617
1673 5 1562 1622
1674 3 763 1502
1675 6 763 799
1676 6 763 811
1677 1 623 799
1678 1 623 1617
1679 1 623 805
1680 1 623 1623
1681 6 1547 1604
1682 6 1547 1619
1683 6 758 770
1684 6 758 814
1685 2 633 705
1686 2 638 710
1687 2 661 733
1688 2 670 742
1689 2 678 750
1690 2 683 755
1691 3 688 1583
1692 4 705 755
1693 5 705 777
1694 4 710 742
1695 5 710 782
1696 1 420 800
1697 1 420 600
1698 1 420 606
1699 1 420 814
1700 6 730 782
1701 6 730 802
1702 4 733 750
1703 5 733 793
1704 5 742 802
1705 5 750 810
1706 5 755 815
1707 3 560 695
1708 6 560 579
1709 6 560 596
1710 3 352 692
1711 6 352 388
1712 6 352 408
1713 2 627 699
1714 2 629 701
1715 2 639 711
1716 2 641 713
1717 3 650 727
1718 3 655 730
1719 2 668 740
1720 2 681 753
1721 3 694 758
1722 4 699 753
1723 5 699 771
1724 4 701 713
1725 5 701 773
1726 4 711 740
1727 5 711 783
1728 5 713 785
1729 5 740 800
1730 5 753 813
1731 1 413 775
1732 1 413 573
1733 1 413 577
1734 1 413 783
1735 6 727 775
1736 6 727 787
1737 6 1583 1595
1738 6 1583 1628
1739 1 1430 1586
1740 1 1430 1601
1741 2 630 702
1742 2 635 707
1743 2 637 709
1744 2 646 718
1745 3 651 729
1746 3 657 732
1747 2 662 734
1748 2 680 752
1749 3 696 759
1750 4 702 709
1751 5 702 774
1752 4 707 752
1753 5 707 779
1754 5 709 781
1755 4 718 734
1756 5 718 790
1757 3 522 653
1758 6 522 570
1759 6 522 577
1760 5 734 794
1761 5 752 812
1762 6 759 789
1763 6 759 795
1764 1 779 1431
1765 1 812 1435
1766 2 628 700
1767 2 631 703
1768 2 636 708
1769 2 640 712
1770 2 643 715
1771 2 648 720
1772 3 649 1541
1773 4 700 720
1774 5 700 772
1775 4 703 715
1776 5 703 775
1777 4 708 712
1778 5 708 780
1779 5 712 784
1780 5 715 787
1781 5 720 792
1782 3 313 654
1783 6 313 361
1784 6 313 378
1785 1 412 570
1786 1 412 778
1787 1 412 585
1788 1 412 792
1789 6 732 780
1790 6 732 784
1791 1 772 1430
1792 1 784 1431
1793 1 1435 1609
1794 1 1435 1627
1795 1 1431 1589
1796 1 1431 1598
1797 6 1541 1589
1798 6 1541 1601
1799 6 729 777
1800 6 729 815
1801 6 1574 1586
1802 6 1574 1630
1803 2 1449 1521
1804 2 1454 1526
1805 2 1477 1549
1806 2 1486 1558
1807 2 1494 1566
1808 2 1499 1571
1809 4 1521 1571
1810 5 1521 1593
1811 4 1526 1558
1812 5 1526 1598
1813 1 1236 1616
1814 1 1236 1416
1815 1 1236 1422
1816 1 1236 1630
1817 6 1546 1598
1818 6 1546 1618
1819 4 1549 1566
1820 5 1549 1609
1821 5 1558 1618
1822 5 1566 1626
1823 5 1571 1631
1824 3 1376 1511
1825 6 1376 1395
1826 6 1376 1412
1827 3 1168 1508
1828 6 1168 1204
1829 6 1168 1224
1830 2 1443 1515
1831 2 1445 1517
1832 2 1455 1527
1833 2 1457 1529
1834 3 1466 1543
1835 3 1471 1546
1836 2 1484 1556
1837 2 1497 1569
1838 3 1510 1574
1839 4 1515 1569
1840 5 1515 1587
1841 4 1517 1529
1842 5 1517 1589
1843 4 1527 1556
1844 5 1527 1599
1845 5 1529 1601
1846 5 1556 1616
1847 5 1569 1629
1848 1 1229 1591
1849 1 1229 1389
1850 1 1229 1393
1851 1 1229 1599
1852 6 1543 1591
1853 6 1543 1603
1854 3 767 1504
1855 6 767 779
1856 6 767 812
1857 2 1446 1518
1858 2 1451 1523
1859 2 1453 1525
1860 2 1462 1534
1861 3 1467 1545
1862 3 1473 1548
1863 2 1478 1550
1864 2 1496 1568
1865 3 1512 1575
1866 4 1518 1525
1867 5 1518 1590
1868 4 1523 1568
1869 5 1523 1595
1870 5 1525 1597
1871 4 1534 1550
1872 5 1534 1606
1873 3 1338 1469
1874 6 1338 1386
1875 6 1338 1393
1876 5 1550 1610
1877 5 1568 1628
1878 6 1575 1605
1879 6 1575 1611
1880 1 614 770
1881 1 614 1588
1882 1 614 785
1883 1 614 1607
1884 2 1444 1516
1885 2 1447 1519
1886 2 1452 1524
1887 2 1456 1528
1888 2 1459 1531
1889 2 1464 1536
1890 4 1516 1536
1891 5 1516 1588
1892 4 1519 1531
1893 5 1519 1591
1894 4 1524 1528
1895 5 1524 1596
1896 5 1528 1600
1897 5 1531 1603
1898 5 1536 1608
1899 3 1129 1470
1900 6 1129 1177
1901 6 1129 1194
1902 1 1228 1386
1903 1 1228 1594
1904 1 1228 1401
1905 1 1228 1608
1906 6 1548 1596
1907 6 1548 1600
1908 1 619 793
1909 1 619 1611
1910 1 619 811
1911 1 619 1628
1912 1 615 773
1913 1 615 1595
1914 1 615 782
1915 1 615 1600
1916 3 725 1465
1917 6 725 773
1918 6 725 785
1919 6 1545 1593
1920 6 1545 1631

Angles

1 1 186 10 598
2 1 186 10 609
3 1 186 10 204
4 1 598 10 609
5 1 204 10 598
6 1 204 10 609
7 2 144 124 52
8 3 52 124 184
9 4 144 124 184
10 2 139 127 55
11 3 55 127 187
12 4 139 127 187
13 2 136 132 60
14 3 60 132 192
15 4 136 132 192
16 2 132 136 64
17 3 64 136 196
18 4 132 136 196
19 2 127 139 67
20 3 67 139 199
21 4 127 139 199
22 2 124 144 72
23 3 72 144 204
24 4 124 144 204
25 5 81 360 396
26 5 81 360 400
27 6 396 360 400
28 5 48 519 567
29 5 48 519 609
30 6 567 519 609
31 1 191 213 389
32 1 194 213 389
33 1 389 213 400
34 1 191 213 194
35 1 191 213 400
36 1 194 213 400
37 7 124 184 8
38 8 148 184 8
39 9 124 184 148
40 7 127 187 11
41 8 151 187 11
42 9 127 187 151
43 7 132 192 12
44 8 156 192 12
45 9 132 192 156
46 7 136 196 9
47 8 156 196 9
48 9 136 196 156
49 7 139 199 7
50 8 151 199 7
51 9 139 199 151
52 7 144 204 10
53 8 148 204 10
54 9 144 204 148
55 5 78 145 181
56 5 78 145 198
57 6 181 145 198
58 2 142 86 14
59 3 14 86 158
60 4 142 86 158
61 2 131 104 32
62 3 32 104 176
63 4 131 104 176
64 7 133 193 11
65 8 150 193 11
66 9 133 193 150
67 2 133 126 54
68 3 54 126 186
69 4 133 126 186
70 2 104 131 59
71 3 59 131 191
72 4 104 131 191
73 2 126 133 61
74 3 61 133 193
75 4 126 133 193
76 2 86 142 70
77 3 70 142 202
78 4 86 142 202
79 7 142 202 216
80 8 146 202 216
81 9 142 202 146
82 5 77 150 186
83 5 77 150 193
84 6 186 150 193
85 7 86 158 2
86 8 146 158 2
87 9 86 158 146
88 7 104 176 1
89 8 119 176 1
90 9 104 176 119
91 7 126 186 10
92 8 150 186 10
93 9 126 186 150
94 8 119 191 213
95 7 131 191 213
96 9 131 191 119
97 1 184 8 590
98 1 197 8 590
99 1 590 8 611
100 1 184 8 197
101 1 184 8 611
102 1 197 8 611
103 5 73 149 185
104 5 73 149 197
105 6 185 149 197
106 1 157 1 567
107 1 157 1 583
108 1 157 1 176
109 1 567 1 583
110 1 176 1 567
111 1 176 1 583
112 5 75 969 995
113 5 75 969 1005
114 6 995 969 1005
115 5 46 518 586
116 5 46 518 590
117 6 586 518 590
118 2 135 92 20
119 3 20 92 164
120 4 135 92 164
121 2 123 105 33
122 3 33 105 177
123 4 123 105 177
124 5 47 116 164
125 5 47 116 195
126 6 164 116 195
127 2 105 123 51
128 3 51 123 183
129 4 105 123 183
130 2 137 125 53
131 3 53 125 185
132 4 137 125 185
133 2 92 135 63
134 3 63 135 195
135 4 92 135 195
136 2 125 137 65
137 3 65 137 197
138 4 125 137 197
139 5 79 358 370
140 5 79 358 398
141 6 370 358 398
142 5 44 112 160
143 5 44 112 180
144 6 160 112 180
145 7 92 164 6
146 8 116 164 6
147 9 92 164 116
148 7 105 177 4
149 8 147 177 4
150 9 105 177 147
151 7 123 183 823
152 8 147 183 823
153 9 123 183 147
154 7 125 185 9
155 8 149 185 9
156 9 125 185 149
157 8 116 195 827
158 7 135 195 827
159 9 135 195 116
160 7 137 197 8
161 8 149 197 8
162 9 137 197 149
163 7 107 179 818
164 8 153 179 818
165 9 107 179 153
166 1 164 6 576
167 1 164 6 174
168 1 164 6 586
169 1 174 6 576
170 1 576 6 586
171 1 174 6 586
172 2 102 85 13
173 3 13 85 157
174 4 102 85 157
175 2 134 94 22
176 3 22 94 166
177 4 134 94 166
178 2 85 102 30
179 3 30 102 174
180 4 85 102 174
181 2 129 107 35
182 3 35 107 179
183 4 129 107 179
184 7 129 189 827
185 8 153 189 827
186 9 129 189 153
187 2 107 129 57
188 3 57 129 189
189 4 107 129 189
190 2 94 134 62
191 3 62 134 194
192 4 94 134 194
193 7 102 174 6
194 8 109 174 6
195 9 102 174 109
196 7 134 194 213
197 8 154 194 213
198 9 134 194 154
199 7 85 157 1
200 8 109 157 1
201 9 85 157 109
202 7 94 166 208
203 8 154 166 208
204 9 94 166 154
205 5 74 967 1003
206 5 74 967 1015
207 6 1003 967 1015
208 1 189 827 1003
209 1 1003 827 1009
210 1 195 827 1003
211 1 189 827 1009
212 1 189 827 195
213 1 195 827 1009
214 5 40 119 176
215 5 40 119 191
216 6 176 119 191
217 1 1002 826 1414
218 1 1002 826 1425
219 1 1002 826 1020
220 1 1414 826 1425
221 1 1020 826 1414
222 1 1020 826 1425
223 2 960 940 868
224 3 868 940 1000
225 4 960 940 1000
226 2 955 943 871
227 3 871 943 1003
228 4 955 943 1003
229 2 952 948 876
230 3 876 948 1008
231 4 952 948 1008
232 2 948 952 880
233 3 880 952 1012
234 4 948 952 1012
235 2 943 955 883
236 3 883 955 1015
237 4 943 955 1015
238 2 940 960 888
239 3 888 960 1020
240 4 940 960 1020
241 5 897 1176 1212
242 5 897 1176 1216
243 6 1212 1176 1216
244 5 864 1335 1383
245 5 864 1335 1425
246 6 1383 1335 1425
247 1 1007 1029 1205
248 1 1010 1029 1205
249 1 1205 1029 1216
250 1 1007 1029 1010
251 1 1007 1029 1216
252 1 1010 1029 1216
253 7 940 1000 824
254 8 964 1000 824
255 9 940 1000 964
256 7 943 1003 827
257 8 967 1003 827
258 9 943 1003 967
259 7 948 1008 828
260 8 972 1008 828
261 9 948 1008 972
262 7 952 1012 825
263 8 972 1012 825
264 9 952 1012 972
265 7 955 1015 823
266 8 967 1015 823
267 9 955 1015 967
268 7 960 1020 826
269 8 964 1020 826
270 9 960 1020 964
271 5 894 961 997
272 5 894 961 1014
273 6 997 961 1014
274 2 958 902 830
275 3 830 902 974
276 4 958 902 974
277 2 947 920 848
278 3 848 920 992
279 4 947 920 992
280 7 949 1009 827
281 8 966 1009 827
282 9 949 1009 966
283 2 949 942 870
284 3 870 942 1002
285 4 949 942 1002
286 2 920 947 875
287 3 875 947 1007
288 4 920 947 1007
289 2 942 949 877
290 3 877 949 1009
291 4 942 949 1009
292 2 902 958 886
293 3 886 958 1018
294 4 902 958 1018
295 7 958 1018 1032
296 8 962 1018 1032
297 9 958 1018 962
298 5 893 966 1002
299 5 893 966 1009
300 6 1002 966 1009
301 7 902 974 818
302 8 962 974 818
303 9 902 974 962
304 7 920 992 817
305 8 935 992 817
306 9 920 992 935
307 7 942 1002 826
308 8 966 1002 826
309 9 942 1002 966
310 8 935 1007 1029
311 7 947 1007 1029
312 9 947 1007 935
313 1 1000 824 1406
314 1 1013 824 1406
315 1 1406 824 1427
316 1 1000 824 1013
317 1 1000 824 1427
318 1 1013 824 1427
319 5 889 965 1001
320 5 889 965 1013
321 6 1001 965 1013
322 1 973 817 1383
323 1 973 817 1399
324 1 973 817 992
325 1 1383 817 1399
326 1 992 817 1383
327 1 992 817 1399
328 5 891 153 179
329 5 891 153 189
330 6 179 153 189
331 5 862 1334 1402
332 5 862 1334 1406
333 6 1402 1334 1406
334 2 951 908 836
335 3 836 908 980
336 4 951 908 980
337 2 939 921 849
338 3 849 921 993
339 4 939 921 993
340 5 863 932 980
341 5 863 932 1011
342 6 980 932 1011
343 2 921 939 867
344 3 867 939 999
345 4 921 939 999
346 2 953 941 869
347 3 869 941 1001
348 4 953 941 1001
349 2 908 951 879
350 3 879 951 1011
351 4 908 951 1011
352 2 941 953 881
353 3 881 953 1013
354 4 941 953 1013
355 5 895 1174 1186
356 5 895 1174 1214
357 6 1186 1174 1214
358 5 860 928 976
359 5 860 928 996
360 6 976 928 996
361 7 908 980 822
362 8 932 980 822
363 9 908 980 932
364 7 921 993 820
365 8 963 993 820
366 9 921 993 963
367 7 939 999 7
368 8 963 999 7
369 9 939 999 963
370 7 941 1001 825
371 8 965 1001 825
372 9 941 1001 965
373 8 932 1011 11
374 7 951 1011 11
375 9 951 1011 932
376 7 953 1013 824
377 8 965 1013 824
378 9 953 1013 965
379 7 923 995 2
380 8 969 995 2
381 9 923 995 969
382 1 980 822 1392
383 1 980 822 990
384 1 980 822 1402
385 1 990 822 1392
386 1 1392 822 1402
387 1 990 822 1402
388 2 918 901 829
389 3 829 901 973
390 4 918 901 973
391 2 950 910 838
392 3 838 910 982
393 4 950 910 982
394 2 901 918 846
395 3 846 918 990
396 4 901 918 990
397 2 945 923 851
398 3 851 923 995
399 4 945 923 995
400 7 945 1005 11
401 8 969 1005 11
402 9 945 1005 969
403 2 923 945 873
404 3 873 945 1005
405 4 923 945 1005
406 2 910 950 878
407 3 878 950 1010
408 4 910 950 1010
409 7 918 990 822
410 8 925 990 822
411 9 918 990 925
412 7 950 1010 1029
413 8 970 1010 1029
414 9 950 1010 970
415 7 901 973 817
416 8 925 973 817
417 9 901 973 925
418 7 910 982 1024
419 8 970 982 1024
420 9 910 982 970
421 5 890 151 187
422 5 890 151 199
423 6 187 151 199
424 1 187 11 1005
425 1 187 11 193
426 1 187 11 1011
427 1 193 11 1005
428 1 1005 11 1011
429 1 193 11 1011
430 5 856 935 992
431 5 856 935 1007
432 6 992 935 1007
433 5 82 146 158
434 5 82 146 202
435 6 158 146 202
436 2 143 93 21
437 3 21 93 165
438 4 143 93 165
439 2 130 98 26
440 3 26 98 170
441 4 130 98 170
442 1 188 216 396
443 1 188 216 402
444 1 188 216 202
445 1 396 216 402
446 1 202 216 396
447 1 202 216 402
448 5 43 118 170
449 5 43 118 190
450 6 170 118 190
451 2 138 121 49
452 3 49 121 181
453 4 138 121 181
454 2 98 130 58
455 3 58 130 190
456 4 98 130 190
457 2 121 138 66
458 3 66 138 198
459 4 121 138 198
460 2 93 143 71
461 3 71 143 203
462 4 93 143 203
463 5 83 356 375
464 5 83 356 392
465 6 375 356 392
466 7 93 165 5
467 8 117 165 5
468 9 93 165 117
469 7 98 170 3
470 8 118 170 3
471 9 98 170 118
472 7 121 181 7
473 8 145 181 7
474 9 121 181 145
475 8 118 190 418
476 7 130 190 418
477 9 130 190 118
478 7 138 198 12
479 8 145 198 12
480 9 138 198 145
481 8 117 203 416
482 7 143 203 416
483 9 143 203 117
484 5 80 556 592
485 5 80 556 612
486 6 592 556 612
487 2 141 87 15
488 3 15 87 159
489 4 141 87 159
490 2 101 89 17
491 3 17 89 161
492 4 101 89 161
493 2 128 99 27
494 3 27 99 171
495 4 128 99 171
496 2 89 101 29
497 3 29 101 173
498 4 89 101 173
499 7 128 188 216
500 8 152 188 216
501 9 128 188 152
502 7 101 173 2
503 8 113 173 2
504 9 101 173 113
505 2 99 128 56
506 3 56 128 188
507 4 99 128 188
508 2 87 141 69
509 3 69 141 201
510 4 87 141 201
511 8 111 201 418
512 7 141 201 418
513 9 141 201 111
514 7 87 159 409
515 8 111 159 409
516 9 87 159 111
517 7 89 161 3
518 8 113 161 3
519 9 89 161 113
520 7 99 171 209
521 8 152 171 209
522 9 99 171 152
523 1 163 209 369
524 1 163 209 373
525 1 163 209 171
526 1 369 209 373
527 1 171 209 369
528 1 171 209 373
529 5 38 115 163
530 5 38 115 175
531 6 163 115 175
532 5 76 971 983
533 5 76 971 1016
534 6 983 971 1016
535 1 160 818 974
536 1 974 818 989
537 1 179 818 974
538 1 160 818 989
539 1 160 818 179
540 1 179 818 989
541 7 108 180 208
542 8 112 180 208
543 9 108 180 112
544 2 97 90 18
545 3 18 90 162
546 4 97 90 162
547 2 140 95 23
548 3 23 95 167
549 4 140 95 167
550 2 90 97 25
551 3 25 97 169
552 4 90 97 169
553 2 122 106 34
554 3 34 106 178
555 4 122 106 178
556 5 41 318 366
557 5 41 318 373
558 6 366 318 373
559 7 103 175 409
560 8 115 175 409
561 9 103 175 115
562 2 106 122 50
563 3 50 122 182
564 4 106 122 182
565 2 95 140 68
566 3 68 140 200
567 4 95 140 200
568 5 84 147 177
569 5 84 147 183
570 6 177 147 183
571 7 90 162 4
572 8 114 162 4
573 9 90 162 114
574 7 95 167 819
575 8 155 167 819
576 9 95 167 155
577 7 97 169 5
578 8 114 169 5
579 9 97 169 114
580 7 106 178 414
581 8 110 178 414
582 9 106 178 110
583 8 110 182 416
584 7 122 182 416
585 9 122 182 110
586 7 140 200 823
587 8 155 200 823
588 9 140 200 155
589 2 108 88 16
590 3 16 88 160
591 4 108 88 160
592 2 103 91 19
593 3 19 91 163
594 4 103 91 163
595 2 100 96 24
596 3 24 96 168
597 4 100 96 168
598 2 96 100 28
599 3 28 100 172
600 4 96 100 172
601 2 91 103 31
602 3 31 103 175
603 4 91 103 175
604 2 88 108 36
605 3 36 108 180
606 4 88 108 180
607 5 42 517 565
608 5 42 517 582
609 6 565 517 582
610 1 166 208 366
611 1 366 208 381
612 1 180 208 366
613 1 166 208 381
614 1 166 208 180
615 1 180 208 381
616 5 45 120 168
617 5 45 120 172
618 6 168 120 172
619 7 88 160 818
620 8 112 160 818
621 9 88 160 112
622 7 91 163 209
623 8 115 163 209
624 9 91 163 115
625 7 96 168 414
626 8 120 168 414
627 9 96 168 120
628 7 100 172 819
629 8 120 172 819
630 9 100 172 120
631 1 183 823 997
632 1 997 823 1015
633 1 200 823 997
634 1 183 823 1015
635 1 183 823 200
636 1 200 823 1015
637 1 167 819 977
638 1 977 819 986
639 1 172 819 977
640 1 167 819 986
641 1 167 819 172
642 1 172 819 986
643 5 37 929 977
644 5 37 929 989
645 6 977 929 989
646 5 39 117 165
647 5 39 117 203
648 6 165 117 203
649 5 898 962 974
650 5 898 962 1018
651 6 974 962 1018
652 2 959 909 837
653 3 837 909 981
654 4 959 909 981
655 2 946 914 842
656 3 842 914 986
657 4 946 914 986
658 1 1004 1032 1212
659 1 1004 1032 1218
660 1 1004 1032 1018
661 1 1212 1032 1218
662 1 1018 1032 1212
663 1 1018 1032 1218
664 5 859 934 986
665 5 859 934 1006
666 6 986 934 1006
667 2 954 937 865
668 3 865 937 997
669 4 954 937 997
670 2 914 946 874
671 3 874 946 1006
672 4 914 946 1006
673 2 937 954 882
674 3 882 954 1014
675 4 937 954 1014
676 2 909 959 887
677 3 887 959 1019
678 4 909 959 1019
679 5 899 1172 1191
680 5 899 1172 1208
681 6 1191 1172 1208
682 7 909 981 821
683 8 933 981 821
684 9 909 981 933
685 7 914 986 819
686 8 934 986 819
687 9 914 986 934
688 7 937 997 823
689 8 961 997 823
690 9 937 997 961
691 8 934 1006 1234
692 7 946 1006 1234
693 9 946 1006 934
694 7 954 1014 828
695 8 961 1014 828
696 9 954 1014 961
697 8 933 1019 1232
698 7 959 1019 1232
699 9 959 1019 933
700 5 896 1372 1408
701 5 896 1372 1428
702 6 1408 1372 1428
703 2 957 903 831
704 3 831 903 975
705 4 957 903 975
706 2 917 905 833
707 3 833 905 977
708 4 917 905 977
709 2 944 915 843
710 3 843 915 987
711 4 944 915 987
712 2 905 917 845
713 3 845 917 989
714 4 905 917 989
715 7 944 1004 1032
716 8 968 1004 1032
717 9 944 1004 968
718 7 917 989 818
719 8 929 989 818
720 9 917 989 929
721 2 915 944 872
722 3 872 944 1004
723 4 915 944 1004
724 2 903 957 885
725 3 885 957 1017
726 4 903 957 1017
727 8 927 1017 1234
728 7 957 1017 1234
729 9 957 1017 927
730 7 903 975 1225
731 8 927 975 1225
732 9 903 975 927
733 7 905 977 819
734 8 929 977 819
735 9 905 977 929
736 7 915 987 1025
737 8 968 987 1025
738 9 915 987 968
739 1 979 1025 1185
740 1 979 1025 1189
741 1 979 1025 987
742 1 1185 1025 1189
743 1 987 1025 1185
744 1 987 1025 1189
745 5 854 931 979
746 5 854 931 991
747 6 979 931 991
748 5 892 155 167
749 5 892 155 200
750 6 167 155 200
751 7 924 996 1024
752 8 928 996 1024
753 9 924 996 928
754 7 919 991 1225
755 8 931 991 1225
756 9 919 991 931
757 2 913 906 834
758 3 834 906 978
759 4 913 906 978
760 2 956 911 839
761 3 839 911 983
762 4 956 911 983
763 2 906 913 841
764 3 841 913 985
765 4 906 913 985
766 2 938 922 850
767 3 850 922 994
768 4 938 922 994
769 5 857 1134 1182
770 5 857 1134 1189
771 6 1182 1134 1189
772 7 916 988 3
773 8 936 988 3
774 9 916 988 936
775 2 922 938 866
776 3 866 938 998
777 4 922 938 998
778 2 911 956 884
779 3 884 956 1016
780 4 911 956 1016
781 5 900 963 993
782 5 900 963 999
783 6 993 963 999
784 7 906 978 820
785 8 930 978 820
786 9 906 978 930
787 7 911 983 3
788 8 971 983 3
789 9 911 983 971
790 7 913 985 821
791 8 930 985 821
792 9 913 985 930
793 7 922 994 1230
794 8 926 994 1230
795 9 922 994 926
796 8 926 998 1232
797 7 938 998 1232
798 9 938 998 926
799 7 956 1016 7
800 8 971 1016 7
801 9 956 1016 971
802 1 158 2 976
803 1 158 2 173
804 1 158 2 995
805 1 173 2 976
806 1 976 2 995
807 1 173 2 995
808 2 924 904 832
809 3 832 904 976
810 4 924 904 976
811 2 919 907 835
812 3 835 907 979
813 4 919 907 979
814 2 916 912 840
815 3 840 912 984
816 4 916 912 984
817 2 912 916 844
818 3 844 916 988
819 4 912 916 988
820 2 907 919 847
821 3 847 919 991
822 4 907 919 991
823 2 904 924 852
824 3 852 924 996
825 4 904 924 996
826 5 858 1333 1381
827 5 858 1333 1398
828 6 1381 1333 1398
829 1 982 1024 1182
830 1 1182 1024 1197
831 1 996 1024 1182
832 1 982 1024 1197
833 1 982 1024 996
834 1 996 1024 1197
835 5 861 936 984
836 5 861 936 988
837 6 984 936 988
838 7 904 976 2
839 8 928 976 2
840 9 904 976 928
841 7 907 979 1025
842 8 931 979 1025
843 9 907 979 931
844 7 912 984 1230
845 8 936 984 1230
846 9 912 984 936
847 1 181 7 999
848 1 181 7 199
849 1 181 7 1016
850 1 199 7 999
851 1 999 7 1016
852 1 199 7 1016
853 1 161 3 983
854 1 161 3 170
855 1 161 3 988
856 1 170 3 983
857 1 983 3 988
858 1 170 3 988
859 5 853 113 161
860 5 853 113 173
861 6 161 113 173
862 5 855 933 981
863 5 855 933 1019
864 6 981 933 1019
865 1 190 418 594
866 1 201 418 594
867 1 594 418 612
868 1 190 418 201
869 1 190 418 612
870 1 201 418 612
871 2 552 532 460
872 3 460 532 592
873 4 552 532 592
874 2 547 535 463
875 3 463 535 595
876 4 547 535 595
877 2 544 540 468
878 3 468 540 600
879 4 544 540 600
880 2 540 544 472
881 3 472 544 604
882 4 540 544 604
883 2 535 547 475
884 3 475 547 607
885 4 535 547 607
886 2 532 552 480
887 3 480 552 612
888 4 532 552 612
889 5 489 768 804
890 5 489 768 808
891 6 804 768 808
892 5 456 111 159
893 5 456 111 201
894 6 159 111 201
895 1 599 621 797
896 1 602 621 797
897 1 797 621 808
898 1 599 621 602
899 1 599 621 808
900 1 602 621 808
901 7 532 592 416
902 8 556 592 416
903 9 532 592 556
904 7 535 595 419
905 8 559 595 419
906 9 535 595 559
907 7 540 600 420
908 8 564 600 420
909 9 540 600 564
910 7 544 604 417
911 8 564 604 417
912 9 544 604 564
913 7 547 607 415
914 8 559 607 415
915 9 547 607 559
916 7 552 612 418
917 8 556 612 418
918 9 552 612 556
919 5 486 553 589
920 5 486 553 606
921 6 589 553 606
922 2 550 494 422
923 3 422 494 566
924 4 550 494 566
925 2 539 512 440
926 3 440 512 584
927 4 539 512 584
928 7 541 601 419
929 8 558 601 419
930 9 541 601 558
931 2 541 534 462
932 3 462 534 594
933 4 541 534 594
934 2 512 539 467
935 3 467 539 599
936 4 512 539 599
937 2 534 541 469
938 3 469 541 601
939 4 534 541 601
940 2 494 550 478
941 3 478 550 610
942 4 494 550 610
943 7 550 610 624
944 8 554 610 624
945 9 550 610 554
946 5 485 558 594
947 5 485 558 601
948 6 594 558 601
949 7 494 566 410
950 8 554 566 410
951 9 494 566 554
952 7 512 584 409
953 8 527 584 409
954 9 512 584 527
955 7 534 594 418
956 8 558 594 418
957 9 534 594 558
958 8 527 599 621
959 7 539 599 621
960 9 539 599 527
961 1 182 416 592
962 1 182 416 605
963 1 182 416 203
964 1 592 416 605
965 1 203 416 592
966 1 203 416 605
967 5 481 557 593
968 5 481 557 605
969 6 593 557 605
970 1 159 409 565
971 1 175 409 565
972 1 565 409 584
973 1 159 409 175
974 1 159 409 584
975 1 175 409 584
976 5 483 1377 1403
977 5 483 1377 1413
978 6 1403 1377 1413
979 5 454 110 178
980 5 454 110 182
981 6 178 110 182
982 2 543 500 428
983 3 428 500 572
984 4 543 500 572
985 2 531 513 441
986 3 441 513 585
987 4 531 513 585
988 5 455 524 572
989 5 455 524 603
990 6 572 524 603
991 2 513 531 459
992 3 459 531 591
993 4 513 531 591
994 2 545 533 461
995 3 461 533 593
996 4 545 533 593
997 2 500 543 471
998 3 471 543 603
999 4 500 543 603
1000 2 533 545 473
1001 3 473 545 605
1002 4 533 545 605
1003 5 487 766 778
1004 5 487 766 806
1005 6 778 766 806
1006 5 452 520 568
1007 5 452 520 588
1008 6 568 520 588
1009 7 500 572 414
1010 8 524 572 414
1011 9 500 572 524
1012 7 513 585 412
1013 8 555 585 412
1014 9 513 585 555
1015 7 531 591 1231
1016 8 555 591 1231
1017 9 531 591 555
1018 7 533 593 417
1019 8 557 593 417
1020 9 533 593 557
1021 8 524 603 1235
1022 7 543 603 1235
1023 9 543 603 524
1024 7 545 605 416
1025 8 557 605 416
1026 9 545 605 557
1027 7 515 587 1226
1028 8 561 587 1226
1029 9 515 587 561
1030 1 168 414 572
1031 1 572 414 582
1032 1 178 414 572
1033 1 168 414 582
1034 1 168 414 178
1035 1 178 414 582
1036 2 510 493 421
1037 3 421 493 565
1038 4 510 493 565
1039 2 542 502 430
1040 3 430 502 574
1041 4 542 502 574
1042 2 493 510 438
1043 3 438 510 582
1044 4 493 510 582
1045 2 537 515 443
1046 3 443 515 587
1047 4 537 515 587
1048 7 537 597 1235
1049 8 561 597 1235
1050 9 537 597 561
1051 2 515 537 465
1052 3 465 537 597
1053 4 515 537 597
1054 2 502 542 470
1055 3 470 542 602
1056 4 502 542 602
1057 7 510 582 414
1058 8 517 582 414
1059 9 510 582 517
1060 7 542 602 621
1061 8 562 602 621
1062 9 542 602 562
1063 7 493 565 409
1064 8 517 565 409
1065 9 493 565 517
1066 7 502 574 616
1067 8 562 574 616
1068 9 502 574 562
1069 5 482 1375 1411
1070 5 482 1375 1423
1071 6 1411 1375 1423
1072 1 597 1235 1411
1073 1 1411 1235 1417
1074 1 603 1235 1411
1075 1 597 1235 1417
1076 1 597 1235 603
1077 1 603 1235 1417
1078 5 448 527 584
1079 5 448 527 599
1080 6 584 527 599
1081 1 1006 1234 1410
1082 1 1017 1234 1410
1083 1 1410 1234 1428
1084 1 1006 1234 1017
1085 1 1006 1234 1428
1086 1 1017 1234 1428
1087 2 1368 1348 1276
1088 3 1276 1348 1408
1089 4 1368 1348 1408
1090 2 1363 1351 1279
1091 3 1279 1351 1411
1092 4 1363 1351 1411
1093 2 1360 1356 1284
1094 3 1284 1356 1416
1095 4 1360 1356 1416
1096 2 1356 1360 1288
1097 3 1288 1360 1420
1098 4 1356 1360 1420
1099 2 1351 1363 1291
1100 3 1291 1363 1423
1101 4 1351 1363 1423
1102 2 1348 1368 1296
1103 3 1296 1368 1428
1104 4 1348 1368 1428
1105 5 1305 1584 1620
1106 5 1305 1584 1624
1107 6 1620 1584 1624
1108 5 1272 927 975
1109 5 1272 927 1017
1110 6 975 927 1017
1111 1 1415 1437 1613
1112 1 1418 1437 1613
1113 1 1613 1437 1624
1114 1 1415 1437 1418
1115 1 1415 1437 1624
1116 1 1418 1437 1624
1117 7 1348 1408 1232
1118 8 1372 1408 1232
1119 9 1348 1408 1372
1120 7 1351 1411 1235
1121 8 1375 1411 1235
1122 9 1351 1411 1375
1123 7 1356 1416 1236
1124 8 1380 1416 1236
1125 9 1356 1416 1380
1126 7 1360 1420 1233
1127 8 1380 1420 1233
1128 9 1360 1420 1380
1129 7 1363 1423 1231
1130 8 1375 1423 1231
1131 9 1363 1423 1375
1132 7 1368 1428 1234
1133 8 1372 1428 1234
1134 9 1368 1428 1372
1135 5 1302 1369 1405
1136 5 1302 1369 1422
1137 6 1405 1369 1422
1138 2 1366 1310 1238
1139 3 1238 1310 1382
1140 4 1366 1310 1382
1141 2 1355 1328 1256
1142 3 1256 1328 1400
1143 4 1355 1328 1400
1144 7 1357 1417 1235
1145 8 1374 1417 1235
1146 9 1357 1417 1374
1147 2 1357 1350 1278
1148 3 1278 1350 1410
1149 4 1357 1350 1410
1150 2 1328 1355 1283
1151 3 1283 1355 1415
1152 4 1328 1355 1415
1153 2 1350 1357 1285
1154 3 1285 1357 1417
1155 4 1350 1357 1417
1156 2 1310 1366 1294
1157 3 1294 1366 1426
1158 4 1310 1366 1426
1159 7 1366 1426 1440
1160 8 1370 1426 1440
1161 9 1366 1426 1370
1162 5 1301 1374 1410
1163 5 1301 1374 1417
1164 6 1410 1374 1417
1165 7 1310 1382 1226
1166 8 1370 1382 1226
1167 9 1310 1382 1370
1168 7 1328 1400 1225
1169 8 1343 1400 1225
1170 9 1328 1400 1343
1171 7 1350 1410 1234
1172 8 1374 1410 1234
1173 9 1350 1410 1374
1174 8 1343 1415 1437
1175 7 1355 1415 1437
1176 9 1355 1415 1343
1177 1 998 1232 1408
1178 1 998 1232 1421
1179 1 998 1232 1019
1180 1 1408 1232 1421
1181 1 1019 1232 1408
1182 1 1019 1232 1421
1183 5 1297 1373 1409
1184 5 1297 1373 1421
1185 6 1409 1373 1421
1186 1 975 1225 1381
1187 1 991 1225 1381
1188 1 1381 1225 1400
1189 1 975 1225 991
1190 1 975 1225 1400
1191 1 991 1225 1400
1192 5 1299 561 587
1193 5 1299 561 597
1194 6 587 561 597
1195 5 1270 926 994
1196 5 1270 926 998
1197 6 994 926 998
1198 2 1359 1316 1244
1199 3 1244 1316 1388
1200 4 1359 1316 1388
1201 2 1347 1329 1257
1202 3 1257 1329 1401
1203 4 1347 1329 1401
1204 5 1271 1340 1388
1205 5 1271 1340 1419
1206 6 1388 1340 1419
1207 2 1329 1347 1275
1208 3 1275 1347 1407
1209 4 1329 1347 1407
1210 2 1361 1349 1277
1211 3 1277 1349 1409
1212 4 1361 1349 1409
1213 2 1316 1359 1287
1214 3 1287 1359 1419
1215 4 1316 1359 1419
1216 2 1349 1361 1289
1217 3 1289 1361 1421
1218 4 1349 1361 1421
1219 5 1303 1582 1594
1220 5 1303 1582 1622
1221 6 1594 1582 1622
1222 5 1268 1336 1384
1223 5 1268 1336 1404
1224 6 1384 1336 1404
1225 7 1316 1388 1230
1226 8 1340 1388 1230
1227 9 1316 1388 1340
1228 7 1329 1401 1228
1229 8 1371 1401 1228
1230 9 1329 1401 1371
1231 7 1347 1407 415
1232 8 1371 1407 415
1233 9 1347 1407 1371
1234 7 1349 1409 1233
1235 8 1373 1409 1233
1236 9 1349 1409 1373
1237 8 1340 1419 419
1238 7 1359 1419 419
1239 9 1359 1419 1340
1240 7 1361 1421 1232
1241 8 1373 1421 1232
1242 9 1361 1421 1373
1243 7 1331 1403 410
1244 8 1377 1403 410
1245 9 1331 1403 1377
1246 1 984 1230 1388
1247 1 1388 1230 1398
1248 1 994 1230 1388
1249 1 984 1230 1398
1250 1 984 1230 994
1251 1 994 1230 1398
1252 2 1326 1309 1237
1253 3 1237 1309 1381
1254 4 1326 1309 1381
1255 2 1358 1318 1246
1256 3 1246 1318 1390
1257 4 1358 1318 1390
1258 2 1309 1326 1254
1259 3 1254 1326 1398
1260 4 1309 1326 1398
1261 2 1353 1331 1259
1262 3 1259 1331 1403
1263 4 1353 1331 1403
1264 7 1353 1413 419
1265 8 1377 1413 419
1266 9 1353 1413 1377
1267 2 1331 1353 1281
1268 3 1281 1353 1413
1269 4 1331 1353 1413
1270 2 1318 1358 1286
1271 3 1286 1358 1418
1272 4 1318 1358 1418
1273 7 1326 1398 1230
1274 8 1333 1398 1230
1275 9 1326 1398 1333
1276 7 1358 1418 1437
1277 8 1378 1418 1437
1278 9 1358 1418 1378
1279 7 1309 1381 1225
1280 8 1333 1381 1225
1281 9 1309 1381 1333
1282 7 1318 1390 1432
1283 8 1378 1390 1432
1284 9 1318 1390 1378
1285 5 1298 559 595
1286 5 1298 559 607
1287 6 595 559 607
1288 1 595 419 1413
1289 1 595 419 601
1290 1 595 419 1419
1291 1 601 419 1413
1292 1 1413 419 1419
1293 1 601 419 1419
1294 5 1264 1343 1400
1295 5 1264 1343 1415
1296 6 1400 1343 1415
1297 5 490 554 566
1298 5 490 554 610
1299 6 566 554 610
1300 2 551 501 429
1301 3 429 501 573
1302 4 551 501 573
1303 2 538 506 434
1304 3 434 506 578
1305 4 538 506 578
1306 1 596 624 804
1307 1 596 624 810
1308 1 596 624 610
1309 1 804 624 810
1310 1 610 624 804
1311 1 610 624 810
1312 5 451 526 578
1313 5 451 526 598
1314 6 578 526 598
1315 2 546 529 457
1316 3 457 529 589
1317 4 546 529 589
1318 2 506 538 466
1319 3 466 538 598
1320 4 506 538 598
1321 2 529 546 474
1322 3 474 546 606
1323 4 529 546 606
1324 2 501 551 479
1325 3 479 551 611
1326 4 501 551 611
1327 5 491 764 783
1328 5 491 764 800
1329 6 783 764 800
1330 7 501 573 413
1331 8 525 573 413
1332 9 501 573 525
1333 7 506 578 411
1334 8 526 578 411
1335 9 506 578 526
1336 7 529 589 415
1337 8 553 589 415
1338 9 529 589 553
1339 8 526 598 10
1340 7 538 598 10
1341 9 538 598 526
1342 7 546 606 420
1343 8 553 606 420
1344 9 546 606 553
1345 8 525 611 8
1346 7 551 611 8
1347 9 551 611 525
1348 5 488 148 184
1349 5 488 148 204
1350 6 184 148 204
1351 2 549 495 423
1352 3 423 495 567
1353 4 549 495 567
1354 2 509 497 425
1355 3 425 497 569
1356 4 509 497 569
1357 2 536 507 435
1358 3 435 507 579
1359 4 536 507 579
1360 2 497 509 437
1361 3 437 509 581
1362 4 497 509 581
1363 7 536 596 624
1364 8 560 596 624
1365 9 536 596 560
1366 7 509 581 410
1367 8 521 581 410
1368 9 509 581 521
1369 2 507 536 464
1370 3 464 536 596
1371 4 507 536 596
1372 2 495 549 477
1373 3 477 549 609
1374 4 495 549 609
1375 8 519 609 10
1376 7 549 609 10
1377 9 549 609 519
1378 7 495 567 1
1379 8 519 567 1
1380 9 495 567 519
1381 7 497 569 411
1382 8 521 569 411
1383 9 497 569 521
1384 7 507 579 617
1385 8 560 579 617
1386 9 507 579 560
1387 1 571 617 777
1388 1 571 617 781
1389 1 571 617 579
1390 1 777 617 781
1391 1 579 617 777
1392 1 579 617 781
1393 5 446 523 571
1394 5 446 523 583
1395 6 571 523 583
1396 5 484 1379 1391
1397 5 484 1379 1424
1398 6 1391 1379 1424
1399 1 568 1226 1382
1400 1 1382 1226 1397
1401 1 587 1226 1382
1402 1 568 1226 1397
1403 1 568 1226 587
1404 1 587 1226 1397
1405 7 516 588 616
1406 8 520 588 616
1407 9 516 588 520
1408 2 505 498 426
1409 3 426 498 570
1410 4 505 498 570
1411 2 548 503 431
1412 3 431 503 575
1413 4 548 503 575
1414 2 498 505 433
1415 3 433 505 577
1416 4 498 505 577
1417 2 530 514 442
1418 3 442 514 586
1419 4 530 514 586
1420 5 449 726 774
1421 5 449 726 781
1422 6 774 726 781
1423 7 511 583 1
1424 8 523 583 1
1425 9 511 583 523
1426 2 514 530 458
1427 3 458 530 590
1428 4 514 530 590
1429 2 503 548 476
1430 3 476 548 608
1431 4 503 548 608
1432 5 492 555 585
1433 5 492 555 591
1434 6 585 555 591
1435 7 498 570 412
1436 8 522 570 412
1437 9 498 570 522
1438 7 503 575 1227
1439 8 563 575 1227
1440 9 503 575 563
1441 7 505 577 413
1442 8 522 577 413
1443 9 505 577 522
1444 7 514 586 6
1445 8 518 586 6
1446 9 514 586 518
1447 8 518 590 8
1448 7 530 590 8
1449 9 530 590 518
1450 7 548 608 1231
1451 8 563 608 1231
1452 9 548 608 563
1453 2 516 496 424
1454 3 424 496 568
1455 4 516 496 568
1456 2 511 499 427
1457 3 427 499 571
1458 4 511 499 571
1459 2 508 504 432
1460 3 432 504 576
1461 4 508 504 576
1462 2 504 508 436
1463 3 436 508 580
1464 4 504 508 580
1465 2 499 511 439
1466 3 439 511 583
1467 4 499 511 583
1468 2 496 516 444
1469 3 444 516 588
1470 4 496 516 588
1471 5 450 109 157
1472 5 450 109 174
1473 6 157 109 174
1474 1 574 616 774
1475 1 774 616 789
1476 1 588 616 774
1477 1 574 616 789
1478 1 574 616 588
1479 1 588 616 789
1480 5 453 528 576
1481 5 453 528 580
1482 6 576 528 580
1483 7 496 568 1226
1484 8 520 568 1226
1485 9 496 568 520
1486 7 499 571 617
1487 8 523 571 617
1488 9 499 571 523
1489 7 504 576 6
1490 8 528 576 6
1491 9 504 576 528
1492 7 508 580 1227
1493 8 528 580 1227
1494 9 508 580 528
1495 1 591 1231 1405
1496 1 1405 1231 1423
1497 1 608 1231 1405
1498 1 591 1231 1423
1499 1 591 1231 608
1500 1 608 1231 1423
1501 1 575 1227 1385
1502 1 1385 1227 1394
1503 1 580 1227 1385
1504 1 575 1227 1394
1505 1 575 1227 580
1506 1 580 1227 1394
1507 5 445 1337 1385
1508 5 445 1337 1397
1509 6 1385 1337 1397
1510 5 447 525 573
1511 5 447 525 611
1512 6 573 525 611
1513 5 1306 1370 1382
1514 5 1306 1370 1426
1515 6 1382 1370 1426
1516 2 1367 1317 1245
1517 3 1245 1317 1389
1518 4 1367 1317 1389
1519 2 1354 1322 1250
1520 3 1250 1322 1394
1521 4 1354 1322 1394
1522 1 1412 1440 1620
1523 1 1412 1440 1626
1524 1 1412 1440 1426
1525 1 1620 1440 1626
1526 1 1426 1440 1620
1527 1 1426 1440 1626
1528 5 1267 1342 1394
1529 5 1267 1342 1414
1530 6 1394 1342 1414
1531 2 1362 1345 1273
1532 3 1273 1345 1405
1533 4 1362 1345 1405
1534 2 1322 1354 1282
1535 3 1282 1354 1414
1536 4 1322 1354 1414
1537 2 1345 1362 1290
1538 3 1290 1362 1422
1539 4 1345 1362 1422
1540 2 1317 1367 1295
1541 3 1295 1367 1427
1542 4 1317 1367 1427
1543 5 1307 1580 1599
1544 5 1307 1580 1616
1545 6 1599 1580 1616
1546 7 1317 1389 1229
1547 8 1341 1389 1229
1548 9 1317 1389 1341
1549 7 1322 1394 1227
1550 8 1342 1394 1227
1551 9 1322 1394 1342
1552 7 1345 1405 1231
1553 8 1369 1405 1231
1554 9 1345 1405 1369
1555 8 1342 1414 826
1556 7 1354 1414 826
1557 9 1354 1414 1342
1558 7 1362 1422 1236
1559 8 1369 1422 1236
1560 9 1362 1422 1369
1561 8 1341 1427 824
1562 7 1367 1427 824
1563 9 1367 1427 1341
1564 5 1304 964 1000
1565 5 1304 964 1020
1566 6 1000 964 1020
1567 2 1365 1311 1239
1568 3 1239 1311 1383
1569 4 1365 1311 1383
1570 2 1325 1313 1241
1571 3 1241 1313 1385
1572 4 1325 1313 1385
1573 2 1352 1323 1251
1574 3 1251 1323 1395
1575 4 1352 1323 1395
1576 2 1313 1325 1253
1577 3 1253 1325 1397
1578 4 1313 1325 1397
1579 7 1352 1412 1440
1580 8 1376 1412 1440
1581 9 1352 1412 1376
1582 7 1325 1397 1226
1583 8 1337 1397 1226
1584 9 1325 1397 1337
1585 2 1323 1352 1280
1586 3 1280 1352 1412
1587 4 1323 1352 1412
1588 2 1311 1365 1293
1589 3 1293 1365 1425
1590 4 1311 1365 1425
1591 8 1335 1425 826
1592 7 1365 1425 826
1593 9 1365 1425 1335
1594 7 1311 1383 817
1595 8 1335 1383 817
1596 9 1311 1383 1335
1597 7 1313 1385 1227
1598 8 1337 1385 1227
1599 9 1313 1385 1337
1600 7 1323 1395 1433
1601 8 1376 1395 1433
1602 9 1323 1395 1376
1603 1 1387 1433 1593
1604 1 1387 1433 1597
1605 1 1387 1433 1395
1606 1 1593 1433 1597
1607 1 1395 1433 1593
1608 1 1395 1433 1597
1609 5 1262 1339 1387
1610 5 1262 1339 1399
1611 6 1387 1339 1399
1612 5 1300 563 575
1613 5 1300 563 608
1614 6 575 563 608
1615 7 1332 1404 1432
1616 8 1336 1404 1432
1617 9 1332 1404 1336
1618 7 1327 1399 817
1619 8 1339 1399 817
1620 9 1327 1399 1339
1621 2 1321 1314 1242
1622 3 1242 1314 1386
1623 4 1321 1314 1386
1624 2 1364 1319 1247
1625 3 1247 1319 1391
1626 4 1364 1319 1391
1627 2 1314 1321 1249
1628 3 1249 1321 1393
1629 4 1314 1321 1393
1630 2 1346 1330 1258
1631 3 1258 1330 1402
1632 4 1346 1330 1402
1633 5 1265 1542 1590
1634 5 1265 1542 1597
1635 6 1590 1542 1597
1636 7 1324 1396 411
1637 8 1344 1396 411
1638 9 1324 1396 1344
1639 2 1330 1346 1274
1640 3 1274 1346 1406
1641 4 1330 1346 1406
1642 2 1319 1364 1292
1643 3 1292 1364 1424
1644 4 1319 1364 1424
1645 5 1308 1371 1401
1646 5 1308 1371 1407
1647 6 1401 1371 1407
1648 7 1314 1386 1228
1649 8 1338 1386 1228
1650 9 1314 1386 1338
1651 7 1319 1391 411
1652 8 1379 1391 411
1653 9 1319 1391 1379
1654 7 1321 1393 1229
1655 8 1338 1393 1229
1656 9 1321 1393 1338
1657 7 1330 1402 822
1658 8 1334 1402 822
1659 9 1330 1402 1334
1660 8 1334 1406 824
1661 7 1346 1406 824
1662 9 1346 1406 1334
1663 7 1364 1424 415
1664 8 1379 1424 415
1665 9 1364 1424 1379
1666 1 566 410 1384
1667 1 566 410 581
1668 1 566 410 1403
1669 1 581 410 1384
1670 1 1384 410 1403
1671 1 581 410 1403
1672 2 1332 1312 1240
1673 3 1240 1312 1384
1674 4 1332 1312 1384
1675 2 1327 1315 1243
1676 3 1243 1315 1387
1677 4 1327 1315 1387
1678 2 1324 1320 1248
1679 3 1248 1320 1392
1680 4 1324 1320 1392
1681 2 1320 1324 1252
1682 3 1252 1324 1396
1683 4 1320 1324 1396
1684 2 1315 1327 1255
1685 3 1255 1327 1399
1686 4 1315 1327 1399
1687 2 1312 1332 1260
1688 3 1260 1332 1404
1689 4 1312 1332 1404
1690 5 1266 925 973
1691 5 1266 925 990
1692 6 973 925 990
1693 1 1390 1432 1590
1694 1 1590 1432 1605
1695 1 1404 1432 1590
1696 1 1390 1432 1605
1697 1 1390 1432 1404
1698 1 1404 1432 1605
1699 5 1269 1344 1392
1700 5 1269 1344 1396
1701 6 1392 1344 1396
1702 7 1312 1384 410
1703 8 1336 1384 410
1704 9 1312 1384 1336
1705 7 1315 1387 1433
1706 8 1339 1387 1433
1707 9 1315 1387 1339
1708 7 1320 1392 822
1709 8 1344 1392 822
1710 9 1320 1392 1344
1711 1 589 415 1407
1712 1 589 415 607
1713 1 589 415 1424
1714 1 607 415 1407
1715 1 1407 415 1424
1716 1 607 415 1424
1717 1 569 411 1391
1718 1 569 411 578
1719 1 569 411 1396
1720 1 578 411 1391
1721 1 1391 411 1396
1722 1 578 411 1396
1723 5 1261 521 569
1724 5 1261 521 581
1725 6 569 521 581
1726 5 1263 1341 1389
1727 5 1263 1341 1427
1728 6 1389 1341 1427
1729 1 390 214 802
1730 1 390 214 813
1731 1 390 214 408
1732 1 802 214 813
1733 1 408 214 802
1734 1 408 214 813
1735 2 348 328 256
1736 3 256 328 388
1737 4 348 328 388
1738 2 343 331 259
1739 3 259 331 391
1740 4 343 331 391
1741 2 340 336 264
1742 3 264 336 396
1743 4 340 336 396
1744 2 336 340 268
1745 3 268 340 400
1746 4 336 340 400
1747 2 331 343 271
1748 3 271 343 403
1749 4 331 343 403
1750 2 328 348 276
1751 3 276 348 408
1752 4 328 348 408
1753 5 285 156 192
1754 5 285 156 196
1755 6 192 156 196
1756 5 252 723 771
1757 5 252 723 813
1758 6 771 723 813
1759 7 346 406 12
1760 8 350 406 12
1761 9 346 406 350
1762 7 328 388 212
1763 8 352 388 212
1764 9 328 388 352
1765 7 331 391 215
1766 8 355 391 215
1767 9 331 391 355
1768 7 336 396 216
1769 8 360 396 216
1770 9 336 396 360
1771 7 340 400 213
1772 8 360 400 213
1773 9 340 400 360
1774 7 343 403 211
1775 8 355 403 211
1776 9 343 403 355
1777 7 348 408 214
1778 8 352 408 214
1779 9 348 408 352
1780 1 185 9 395
1781 1 185 9 398
1782 1 185 9 196
1783 1 395 9 398
1784 1 196 9 395
1785 1 196 9 398
1786 7 337 397 215
1787 8 354 397 215
1788 9 337 397 354
1789 5 282 349 385
1790 5 282 349 402
1791 6 385 349 402
1792 2 346 290 218
1793 3 218 290 362
1794 4 346 290 362
1795 2 335 308 236
1796 3 236 308 380
1797 4 335 308 380
1798 7 330 390 214
1799 8 354 390 214
1800 9 330 390 354
1801 2 337 330 258
1802 3 258 330 390
1803 4 337 330 390
1804 2 308 335 263
1805 3 263 335 395
1806 4 308 335 395
1807 2 330 337 265
1808 3 265 337 397
1809 4 330 337 397
1810 2 290 346 274
1811 3 274 346 406
1812 4 290 346 406
1813 8 323 395 9
1814 7 335 395 9
1815 9 335 395 323
1816 5 281 354 390
1817 5 281 354 397
1818 6 390 354 397
1819 7 290 362 206
1820 8 350 362 206
1821 9 290 362 350
1822 7 308 380 205
1823 8 323 380 205
1824 9 308 380 323
1825 1 388 212 794
1826 1 401 212 794
1827 1 794 212 815
1828 1 388 212 401
1829 1 388 212 815
1830 1 401 212 815
1831 5 277 353 389
1832 5 277 353 401
1833 6 389 353 401
1834 1 361 205 771
1835 1 361 205 787
1836 1 361 205 380
1837 1 771 205 787
1838 1 380 205 771
1839 1 380 205 787
1840 5 279 1173 1199
1841 5 279 1173 1209
1842 6 1199 1173 1209
1843 5 250 722 790
1844 5 250 722 794
1845 6 790 722 794
1846 2 339 296 224
1847 3 224 296 368
1848 4 339 296 368
1849 2 327 309 237
1850 3 237 309 381
1851 4 327 309 381
1852 5 251 320 368
1853 5 251 320 399
1854 6 368 320 399
1855 2 309 327 255
1856 3 255 327 387
1857 4 309 327 387
1858 2 341 329 257
1859 3 257 329 389
1860 4 341 329 389
1861 2 296 339 267
1862 3 267 339 399
1863 4 296 339 399
1864 2 329 341 269
1865 3 269 341 401
1866 4 329 341 401
1867 5 283 154 166
1868 5 283 154 194
1869 6 166 154 194
1870 5 248 316 364
1871 5 248 316 384
1872 6 364 316 384
1873 7 296 368 210
1874 8 320 368 210
1875 9 296 368 320
1876 7 309 381 208
1877 8 351 381 208
1878 9 309 381 351
1879 7 327 387 1027
1880 8 351 387 1027
1881 9 327 387 351
1882 7 329 389 213
1883 8 353 389 213
1884 9 329 389 353
1885 8 320 399 1031
1886 7 339 399 1031
1887 9 339 399 320
1888 7 341 401 212
1889 8 353 401 212
1890 9 341 401 353
1891 7 311 383 1022
1892 8 357 383 1022
1893 9 311 383 357
1894 1 368 210 780
1895 1 368 210 378
1896 1 368 210 790
1897 1 378 210 780
1898 1 780 210 790
1899 1 378 210 790
1900 2 306 289 217
1901 3 217 289 361
1902 4 306 289 361
1903 2 338 298 226
1904 3 226 298 370
1905 4 338 298 370
1906 2 289 306 234
1907 3 234 306 378
1908 4 289 306 378
1909 2 333 311 239
1910 3 239 311 383
1911 4 333 311 383
1912 7 333 393 1031
1913 8 357 393 1031
1914 9 333 393 357
1915 2 311 333 261
1916 3 261 333 393
1917 4 311 333 393
1918 2 298 338 266
1919 3 266 338 398
1920 4 298 338 398
1921 7 306 378 210
1922 8 313 378 210
1923 9 306 378 313
1924 7 338 398 9
1925 8 358 398 9
1926 9 338 398 358
1927 7 289 361 205
1928 8 313 361 205
1929 9 289 361 313
1930 7 298 370 4
1931 8 358 370 4
1932 9 298 370 358
1933 5 278 1171 1207
1934 5 278 1171 1219
1935 6 1207 1171 1219
1936 1 393 1031 1207
1937 1 1207 1031 1213
1938 1 399 1031 1207
1939 1 393 1031 1213
1940 1 393 1031 399
1941 1 399 1031 1213
1942 5 244 323 380
1943 5 244 323 395
1944 6 380 323 395
1945 1 1206 1030 1618
1946 1 1206 1030 1629
1947 1 1206 1030 1224
1948 1 1618 1030 1629
1949 1 1224 1030 1618
1950 1 1224 1030 1629
1951 2 1164 1144 1072
1952 3 1072 1144 1204
1953 4 1164 1144 1204
1954 2 1159 1147 1075
1955 3 1075 1147 1207
1956 4 1159 1147 1207
1957 2 1156 1152 1080
1958 3 1080 1152 1212
1959 4 1156 1152 1212
1960 2 1152 1156 1084
1961 3 1084 1156 1216
1962 4 1152 1156 1216
1963 2 1147 1159 1087
1964 3 1087 1159 1219
1965 4 1147 1159 1219
1966 2 1144 1164 1092
1967 3 1092 1164 1224
1968 4 1144 1164 1224
1969 5 1101 972 1008
1970 5 1101 972 1012
1971 6 1008 972 1012
1972 5 1068 1539 1587
1973 5 1068 1539 1629
1974 6 1587 1539 1629
1975 7 1162 1222 828
1976 8 1166 1222 828
1977 9 1162 1222 1166
1978 7 1144 1204 1028
1979 8 1168 1204 1028
1980 9 1144 1204 1168
1981 7 1147 1207 1031
1982 8 1171 1207 1031
1983 9 1147 1207 1171
1984 7 1152 1212 1032
1985 8 1176 1212 1032
1986 9 1152 1212 1176
1987 7 1156 1216 1029
1988 8 1176 1216 1029
1989 9 1156 1216 1176
1990 7 1159 1219 1027
1991 8 1171 1219 1027
1992 9 1159 1219 1171
1993 7 1164 1224 1030
1994 8 1168 1224 1030
1995 9 1164 1224 1168
1996 1 1001 825 1211
1997 1 1001 825 1214
1998 1 1001 825 1012
1999 1 1211 825 1214
2000 1 1012 825 1211
2001 1 1012 825 1214
2002 7 1153 1213 1031
2003 8 1170 1213 1031
2004 9 1153 1213 1170
2005 5 1098 1165 1201
2006 5 1098 1165 1218
2007 6 1201 1165 1218
2008 2 1162 1106 1034
2009 3 1034 1106 1178
2010 4 1162 1106 1178
2011 2 1151 1124 1052
2012 3 1052 1124 1196
2013 4 1151 1124 1196
2014 7 1146 1206 1030
2015 8 1170 1206 1030
2016 9 1146 1206 1170
2017 2 1153 1146 1074
2018 3 1074 1146 1206
2019 4 1153 1146 1206
2020 2 1124 1151 1079
2021 3 1079 1151 1211
2022 4 1124 1151 1211
2023 2 1146 1153 1081
2024 3 1081 1153 1213
2025 4 1146 1153 1213
2026 2 1106 1162 1090
2027 3 1090 1162 1222
2028 4 1106 1162 1222
2029 8 1139 1211 825
2030 7 1151 1211 825
2031 9 1151 1211 1139
2032 5 1097 1170 1206
2033 5 1097 1170 1213
2034 6 1206 1170 1213
2035 7 1106 1178 1022
2036 8 1166 1178 1022
2037 9 1106 1178 1166
2038 7 1124 1196 1021
2039 8 1139 1196 1021
2040 9 1124 1196 1139
2041 1 1204 1028 1610
2042 1 1217 1028 1610
2043 1 1610 1028 1631
2044 1 1204 1028 1217
2045 1 1204 1028 1631
2046 1 1217 1028 1631
2047 5 1093 1169 1205
2048 5 1093 1169 1217
2049 6 1205 1169 1217
2050 1 1177 1021 1587
2051 1 1177 1021 1603
2052 1 1177 1021 1196
2053 1 1587 1021 1603
2054 1 1196 1021 1587
2055 1 1196 1021 1603
2056 5 1095 357 383
2057 5 1095 357 393
2058 6 383 357 393
2059 5 1066 1538 1606
2060 5 1066 1538 1610
2061 6 1606 1538 1610
2062 2 1155 1112 1040
2063 3 1040 1112 1184
2064 4 1155 1112 1184
2065 2 1143 1125 1053
2066 3 1053 1125 1197
2067 4 1143 1125 1197
2068 5 1067 1136 1184
2069 5 1067 1136 1215
2070 6 1184 1136 1215
2071 2 1125 1143 1071
2072 3 1071 1143 1203
2073 4 1125 1143 1203
2074 2 1157 1145 1073
2075 3 1073 1145 1205
2076 4 1157 1145 1205
2077 2 1112 1155 1083
2078 3 1083 1155 1215
2079 4 1112 1155 1215
2080 2 1145 1157 1085
2081 3 1085 1157 1217
2082 4 1145 1157 1217
2083 5 1099 970 982
2084 5 1099 970 1010
2085 6 982 970 1010
2086 5 1064 1132 1180
2087 5 1064 1132 1200
2088 6 1180 1132 1200
2089 7 1112 1184 1026
2090 8 1136 1184 1026
2091 9 1112 1184 1136
2092 7 1125 1197 1024
2093 8 1167 1197 1024
2094 9 1125 1197 1167
2095 7 1143 1203 211
2096 8 1167 1203 211
2097 9 1143 1203 1167
2098 7 1145 1205 1029
2099 8 1169 1205 1029
2100 9 1145 1205 1169
2101 8 1136 1215 215
2102 7 1155 1215 215
2103 9 1155 1215 1136
2104 7 1157 1217 1028
2105 8 1169 1217 1028
2106 9 1157 1217 1169
2107 7 1127 1199 206
2108 8 1173 1199 206
2109 9 1127 1199 1173
2110 1 1184 1026 1596
2111 1 1184 1026 1194
2112 1 1184 1026 1606
2113 1 1194 1026 1596
2114 1 1596 1026 1606
2115 1 1194 1026 1606
2116 2 1122 1105 1033
2117 3 1033 1105 1177
2118 4 1122 1105 1177
2119 2 1154 1114 1042
2120 3 1042 1114 1186
2121 4 1154 1114 1186
2122 2 1105 1122 1050
2123 3 1050 1122 1194
2124 4 1105 1122 1194
2125 2 1149 1127 1055
2126 3 1055 1127 1199
2127 4 1149 1127 1199
2128 7 1149 1209 215
2129 8 1173 1209 215
2130 9 1149 1209 1173
2131 2 1127 1149 1077
2132 3 1077 1149 1209
2133 4 1127 1149 1209
2134 2 1114 1154 1082
2135 3 1082 1154 1214
2136 4 1114 1154 1214
2137 7 1122 1194 1026
2138 8 1129 1194 1026
2139 9 1122 1194 1129
2140 7 1154 1214 825
2141 8 1174 1214 825
2142 9 1154 1214 1174
2143 7 1105 1177 1021
2144 8 1129 1177 1021
2145 9 1105 1177 1129
2146 7 1114 1186 820
2147 8 1174 1186 820
2148 9 1114 1186 1174
2149 5 1094 355 391
2150 5 1094 355 403
2151 6 391 355 403
2152 1 391 215 1209
2153 1 391 215 397
2154 1 391 215 1215
2155 1 397 215 1209
2156 1 1209 215 1215
2157 1 397 215 1215
2158 5 1060 1139 1196
2159 5 1060 1139 1211
2160 6 1196 1139 1211
2161 5 286 350 362
2162 5 286 350 406
2163 6 362 350 406
2164 2 347 297 225
2165 3 225 297 369
2166 4 347 297 369
2167 2 334 302 230
2168 3 230 302 374
2169 4 334 302 374
2170 1 192 12 392
2171 1 198 12 392
2172 1 392 12 406
2173 1 192 12 198
2174 1 192 12 406
2175 1 198 12 406
2176 5 247 322 374
2177 5 247 322 394
2178 6 374 322 394
2179 2 342 325 253
2180 3 253 325 385
2181 4 342 325 385
2182 2 302 334 262
2183 3 262 334 394
2184 4 302 334 394
2185 2 325 342 270
2186 3 270 342 402
2187 4 325 342 402
2188 2 297 347 275
2189 3 275 347 407
2190 4 297 347 407
2191 5 287 152 171
2192 5 287 152 188
2193 6 171 152 188
2194 7 297 369 209
2195 8 321 369 209
2196 9 297 369 321
2197 7 302 374 207
2198 8 322 374 207
2199 9 302 374 322
2200 7 325 385 211
2201 8 349 385 211
2202 9 325 385 349
2203 8 322 394 622
2204 7 334 394 622
2205 9 334 394 322
2206 7 342 402 216
2207 8 349 402 216
2208 9 342 402 349
2209 8 321 407 620
2210 7 347 407 620
2211 9 347 407 321
2212 5 284 760 796
2213 5 284 760 816
2214 6 796 760 816
2215 2 345 291 219
2216 3 219 291 363
2217 4 345 291 363
2218 2 305 293 221
2219 3 221 293 365
2220 4 305 293 365
2221 2 332 303 231
2222 3 231 303 375
2223 4 332 303 375
2224 2 293 305 233
2225 3 233 305 377
2226 4 293 305 377
2227 7 332 392 12
2228 8 356 392 12
2229 9 332 392 356
2230 7 305 377 206
2231 8 317 377 206
2232 9 305 377 317
2233 2 303 332 260
2234 3 260 332 392
2235 4 303 332 392
2236 2 291 345 273
2237 3 273 345 405
2238 4 291 345 405
2239 8 315 405 622
2240 7 345 405 622
2241 9 345 405 315
2242 7 291 363 613
2243 8 315 363 613
2244 9 291 363 315
2245 7 293 365 207
2246 8 317 365 207
2247 9 293 365 317
2248 7 303 375 5
2249 8 356 375 5
2250 9 303 375 356
2251 1 165 5 367
2252 1 169 5 367
2253 1 367 5 375
2254 1 165 5 169
2255 1 165 5 375
2256 1 169 5 375
2257 5 242 319 367
2258 5 242 319 379
2259 6 367 319 379
2260 5 280 1175 1187
2261 5 280 1175 1220
2262 6 1187 1175 1220
2263 1 364 1022 1178
2264 1 1178 1022 1193
2265 1 383 1022 1178
2266 1 364 1022 1193
2267 1 364 1022 383
2268 1 383 1022 1193
2269 7 312 384 4
2270 8 316 384 4
2271 9 312 384 316
2272 2 301 294 222
2273 3 222 294 366
2274 4 301 294 366
2275 2 344 299 227
2276 3 227 299 371
2277 4 344 299 371
2278 2 294 301 229
2279 3 229 301 373
2280 4 294 301 373
2281 2 326 310 238
2282 3 238 310 382
2283 4 326 310 382
2284 5 245 114 162
2285 5 245 114 169
2286 6 162 114 169
2287 7 307 379 613
2288 8 319 379 613
2289 9 307 379 319
2290 2 310 326 254
2291 3 254 326 386
2292 4 310 326 386
2293 2 299 344 272
2294 3 272 344 404
2295 4 299 344 404
2296 5 288 351 381
2297 5 288 351 387
2298 6 381 351 387
2299 7 294 366 208
2300 8 318 366 208
2301 9 294 366 318
2302 7 299 371 1023
2303 8 359 371 1023
2304 9 299 371 359
2305 7 301 373 209
2306 8 318 373 209
2307 9 301 373 318
2308 7 310 382 618
2309 8 314 382 618
2310 9 310 382 314
2311 8 314 386 620
2312 7 326 386 620
2313 9 326 386 314
2314 7 344 404 1027
2315 8 359 404 1027
2316 9 344 404 359
2317 2 312 292 220
2318 3 220 292 364
2319 4 312 292 364
2320 2 307 295 223
2321 3 223 295 367
2322 4 307 295 367
2323 2 304 300 228
2324 3 228 300 372
2325 4 304 300 372
2326 2 300 304 232
2327 3 232 304 376
2328 4 300 304 376
2329 2 295 307 235
2330 3 235 307 379
2331 4 295 307 379
2332 2 292 312 240
2333 3 240 312 384
2334 4 292 312 384
2335 5 246 721 769
2336 5 246 721 786
2337 6 769 721 786
2338 1 162 4 370
2339 1 162 4 177
2340 1 162 4 384
2341 1 177 4 370
2342 1 370 4 384
2343 1 177 4 384
2344 5 249 324 372
2345 5 249 324 376
2346 6 372 324 376
2347 7 292 364 1022
2348 8 316 364 1022
2349 9 292 364 316
2350 7 295 367 5
2351 8 319 367 5
2352 9 295 367 319
2353 7 300 372 618
2354 8 324 372 618
2355 9 300 372 324
2356 7 304 376 1023
2357 8 324 376 1023
2358 9 304 376 324
2359 1 387 1027 1201
2360 1 1201 1027 1219
2361 1 404 1027 1201
2362 1 387 1027 1219
2363 1 387 1027 404
2364 1 404 1027 1219
2365 1 371 1023 1181
2366 1 1181 1023 1190
2367 1 376 1023 1181
2368 1 371 1023 1190
2369 1 371 1023 376
2370 1 376 1023 1190
2371 5 241 1133 1181
2372 5 241 1133 1193
2373 6 1181 1133 1193
2374 5 243 321 369
2375 5 243 321 407
2376 6 369 321 407
2377 5 1102 1166 1178
2378 5 1102 1166 1222
2379 6 1178 1166 1222
2380 2 1163 1113 1041
2381 3 1041 1113 1185
2382 4 1163 1113 1185
2383 2 1150 1118 1046
2384 3 1046 1118 1190
2385 4 1150 1118 1190
2386 1 1008 828 1208
2387 1 1014 828 1208
2388 1 1208 828 1222
2389 1 1008 828 1014
2390 1 1008 828 1222
2391 1 1014 828 1222
2392 5 1063 1138 1190
2393 5 1063 1138 1210
2394 6 1190 1138 1210
2395 2 1158 1141 1069
2396 3 1069 1141 1201
2397 4 1158 1141 1201
2398 2 1118 1150 1078
2399 3 1078 1150 1210
2400 4 1118 1150 1210
2401 2 1141 1158 1086
2402 3 1086 1158 1218
2403 4 1141 1158 1218
2404 2 1113 1163 1091
2405 3 1091 1163 1223
2406 4 1113 1163 1223
2407 5 1103 968 987
2408 5 1103 968 1004
2409 6 987 968 1004
2410 7 1113 1185 1025
2411 8 1137 1185 1025
2412 9 1113 1185 1137
2413 7 1118 1190 1023
2414 8 1138 1190 1023
2415 9 1118 1190 1138
2416 7 1141 1201 1027
2417 8 1165 1201 1027
2418 9 1141 1201 1165
2419 8 1138 1210 1438
2420 7 1150 1210 1438
2421 9 1150 1210 1138
2422 7 1158 1218 1032
2423 8 1165 1218 1032
2424 9 1158 1218 1165
2425 8 1137 1223 1436
2426 7 1163 1223 1436
2427 9 1163 1223 1137
2428 5 1100 1576 1612
2429 5 1100 1576 1632
2430 6 1612 1576 1632
2431 2 1161 1107 1035
2432 3 1035 1107 1179
2433 4 1161 1107 1179
2434 2 1121 1109 1037
2435 3 1037 1109 1181
2436 4 1121 1109 1181
2437 2 1148 1119 1047
2438 3 1047 1119 1191
2439 4 1148 1119 1191
2440 2 1109 1121 1049
2441 3 1049 1121 1193
2442 4 1109 1121 1193
2443 7 1148 1208 828
2444 8 1172 1208 828
2445 9 1148 1208 1172
2446 7 1121 1193 1022
2447 8 1133 1193 1022
2448 9 1121 1193 1133
2449 2 1119 1148 1076
2450 3 1076 1148 1208
2451 4 1119 1148 1208
2452 2 1107 1161 1089
2453 3 1089 1161 1221
2454 4 1107 1161 1221
2455 8 1131 1221 1438
2456 7 1161 1221 1438
2457 9 1161 1221 1131
2458 7 1107 1179 1429
2459 8 1131 1179 1429
2460 9 1107 1179 1131
2461 7 1109 1181 1023
2462 8 1133 1181 1023
2463 9 1109 1181 1133
2464 7 1119 1191 821
2465 8 1172 1191 821
2466 9 1119 1191 1172
2467 1 981 821 1183
2468 1 985 821 1183
2469 1 1183 821 1191
2470 1 981 821 985
2471 1 981 821 1191
2472 1 985 821 1191
2473 5 1058 1135 1183
2474 5 1058 1135 1195
2475 6 1183 1135 1195
2476 5 1096 359 371
2477 5 1096 359 404
2478 6 371 359 404
2479 7 1128 1200 820
2480 8 1132 1200 820
2481 9 1128 1200 1132
2482 7 1123 1195 1429
2483 8 1135 1195 1429
2484 9 1123 1195 1135
2485 2 1117 1110 1038
2486 3 1038 1110 1182
2487 4 1117 1110 1182
2488 2 1160 1115 1043
2489 3 1043 1115 1187
2490 4 1160 1115 1187
2491 2 1110 1117 1045
2492 3 1045 1117 1189
2493 4 1110 1117 1189
2494 2 1142 1126 1054
2495 3 1054 1126 1198
2496 4 1142 1126 1198
2497 5 1061 930 978
2498 5 1061 930 985
2499 6 978 930 985
2500 7 1120 1192 207
2501 8 1140 1192 207
2502 9 1120 1192 1140
2503 2 1126 1142 1070
2504 3 1070 1142 1202
2505 4 1126 1142 1202
2506 2 1115 1160 1088
2507 3 1088 1160 1220
2508 4 1115 1160 1220
2509 5 1104 1167 1197
2510 5 1104 1167 1203
2511 6 1197 1167 1203
2512 7 1110 1182 1024
2513 8 1134 1182 1024
2514 9 1110 1182 1134
2515 7 1115 1187 207
2516 8 1175 1187 207
2517 9 1115 1187 1175
2518 7 1117 1189 1025
2519 8 1134 1189 1025
2520 9 1117 1189 1134
2521 7 1126 1198 1434
2522 8 1130 1198 1434
2523 9 1126 1198 1130
2524 8 1130 1202 1436
2525 7 1142 1202 1436
2526 9 1142 1202 1130
2527 7 1160 1220 211
2528 8 1175 1220 211
2529 9 1160 1220 1175
2530 1 362 206 1180
2531 1 362 206 377
2532 1 362 206 1199
2533 1 377 206 1180
2534 1 1180 206 1199
2535 1 377 206 1199
2536 2 1128 1108 1036
2537 3 1036 1108 1180
2538 4 1128 1108 1180
2539 2 1123 1111 1039
2540 3 1039 1111 1183
2541 4 1123 1111 1183
2542 2 1120 1116 1044
2543 3 1044 1116 1188
2544 4 1120 1116 1188
2545 2 1116 1120 1048
2546 3 1048 1120 1192
2547 4 1116 1120 1192
2548 2 1111 1123 1051
2549 3 1051 1123 1195
2550 4 1111 1123 1195
2551 2 1108 1128 1056
2552 3 1056 1128 1200
2553 4 1108 1128 1200
2554 5 1062 1537 1585
2555 5 1062 1537 1602
2556 6 1585 1537 1602
2557 1 978 820 1186
2558 1 978 820 993
2559 1 978 820 1200
2560 1 993 820 1186
2561 1 1186 820 1200
2562 1 993 820 1200
2563 5 1065 1140 1188
2564 5 1065 1140 1192
2565 6 1188 1140 1192
2566 7 1108 1180 206
2567 8 1132 1180 206
2568 9 1108 1180 1132
2569 7 1111 1183 821
2570 8 1135 1183 821
2571 9 1111 1183 1135
2572 7 1116 1188 1434
2573 8 1140 1188 1434
2574 9 1116 1188 1140
2575 1 385 211 1203
2576 1 385 211 403
2577 1 385 211 1220
2578 1 403 211 1203
2579 1 1203 211 1220
2580 1 403 211 1220
2581 1 365 207 1187
2582 1 365 207 374
2583 1 365 207 1192
2584 1 374 207 1187
2585 1 1187 207 1192
2586 1 374 207 1192
2587 5 1057 317 365
2588 5 1057 317 377
2589 6 365 317 377
2590 5 1059 1137 1185
2591 5 1059 1137 1223
2592 6 1185 1137 1223
2593 1 394 622 798
2594 1 405 622 798
2595 1 798 622 816
2596 1 394 622 405
2597 1 394 622 816
2598 1 405 622 816
2599 2 756 736 664
2600 3 664 736 796
2601 4 756 736 796
2602 2 751 739 667
2603 3 667 739 799
2604 4 751 739 799
2605 2 748 744 672
2606 3 672 744 804
2607 4 748 744 804
2608 2 744 748 676
2609 3 676 748 808
2610 4 744 748 808
2611 2 739 751 679
2612 3 679 751 811
2613 4 739 751 811
2614 2 736 756 684
2615 3 684 756 816
2616 4 736 756 816
2617 5 693 564 600
2618 5 693 564 604
2619 6 600 564 604
2620 5 660 315 363
2621 5 660 315 405
2622 6 363 315 405
2623 7 754 814 420
2624 8 758 814 420
2625 9 754 814 758
2626 7 736 796 620
2627 8 760 796 620
2628 9 736 796 760
2629 7 739 799 623
2630 8 763 799 623
2631 9 739 799 763
2632 7 744 804 624
2633 8 768 804 624
2634 9 744 804 768
2635 7 748 808 621
2636 8 768 808 621
2637 9 748 808 768
2638 7 751 811 619
2639 8 763 811 619
2640 9 751 811 763
2641 7 756 816 622
2642 8 760 816 622
2643 9 756 816 760
2644 1 593 417 803
2645 1 593 417 806
2646 1 593 417 604
2647 1 803 417 806
2648 1 604 417 803
2649 1 604 417 806
2650 7 745 805 623
2651 8 762 805 623
2652 9 745 805 762
2653 5 690 757 793
2654 5 690 757 810
2655 6 793 757 810
2656 2 754 698 626
2657 3 626 698 770
2658 4 754 698 770
2659 2 743 716 644
2660 3 644 716 788
2661 4 743 716 788
2662 7 738 798 622
2663 8 762 798 622
2664 9 738 798 762
2665 2 745 738 666
2666 3 666 738 798
2667 4 745 738 798
2668 2 716 743 671
2669 3 671 743 803
2670 4 716 743 803
2671 2 738 745 673
2672 3 673 745 805
2673 4 738 745 805
2674 2 698 754 682
2675 3 682 754 814
2676 4 698 754 814
2677 8 731 803 417
2678 7 743 803 417
2679 9 743 803 731
2680 5 689 762 798
2681 5 689 762 805
2682 6 798 762 805
2683 7 698 770 614
2684 8 758 770 614
2685 9 698 770 758
2686 7 716 788 613
2687 8 731 788 613
2688 9 716 788 731
2689 1 386 620 796
2690 1 386 620 809
2691 1 386 620 407
2692 1 796 620 809
2693 1 407 620 796
2694 1 407 620 809
2695 5 685 761 797
2696 5 685 761 809
2697 6 797 761 809
2698 1 363 613 769
2699 1 379 613 769
2700 1 769 613 788
2701 1 363 613 379
2702 1 363 613 788
2703 1 379 613 788
2704 5 687 1581 1607
2705 5 687 1581 1617
2706 6 1607 1581 1617
2707 5 658 314 382
2708 5 658 314 386
2709 6 382 314 386
2710 2 747 704 632
2711 3 632 704 776
2712 4 747 704 776
2713 2 735 717 645
2714 3 645 717 789
2715 4 735 717 789
2716 5 659 728 776
2717 5 659 728 807
2718 6 776 728 807
2719 2 717 735 663
2720 3 663 735 795
2721 4 717 735 795
2722 2 749 737 665
2723 3 665 737 797
2724 4 749 737 797
2725 2 704 747 675
2726 3 675 747 807
2727 4 704 747 807
2728 2 737 749 677
2729 3 677 749 809
2730 4 737 749 809
2731 5 691 562 574
2732 5 691 562 602
2733 6 574 562 602
2734 5 656 724 772
2735 5 656 724 792
2736 6 772 724 792
2737 7 704 776 618
2738 8 728 776 618
2739 9 704 776 728
2740 7 717 789 616
2741 8 759 789 616
2742 9 717 789 759
2743 7 735 795 1435
2744 8 759 795 1435
2745 9 735 795 759
2746 7 737 797 621
2747 8 761 797 621
2748 9 737 797 761
2749 8 728 807 1439
2750 7 747 807 1439
2751 9 747 807 728
2752 7 749 809 620
2753 8 761 809 620
2754 9 749 809 761
2755 7 719 791 1430
2756 8 765 791 1430
2757 9 719 791 765
2758 1 372 618 776
2759 1 776 618 786
2760 1 382 618 776
2761 1 372 618 786
2762 1 372 618 382
2763 1 382 618 786
2764 2 714 697 625
2765 3 625 697 769
2766 4 714 697 769
2767 2 746 706 634
2768 3 634 706 778
2769 4 746 706 778
2770 2 697 714 642
2771 3 642 714 786
2772 4 697 714 786
2773 2 741 719 647
2774 3 647 719 791
2775 4 741 719 791
2776 7 741 801 1439
2777 8 765 801 1439
2778 9 741 801 765
2779 2 719 741 669
2780 3 669 741 801
2781 4 719 741 801
2782 2 706 746 674
2783 3 674 746 806
2784 4 706 746 806
2785 7 714 786 618
2786 8 721 786 618
2787 9 714 786 721
2788 7 746 806 417
2789 8 766 806 417
2790 9 746 806 766
2791 7 697 769 613
2792 8 721 769 613
2793 9 697 769 721
2794 7 706 778 412
2795 8 766 778 412
2796 9 706 778 766
2797 5 686 1579 1615
2798 5 686 1579 1627
2799 6 1615 1579 1627
2800 1 801 1439 1615
2801 1 1615 1439 1621
2802 1 807 1439 1615
2803 1 801 1439 1621
2804 1 801 1439 807
2805 1 807 1439 1621
2806 5 652 731 788
2807 5 652 731 803
2808 6 788 731 803
2809 1 1210 1438 1614
2810 1 1221 1438 1614
2811 1 1614 1438 1632
2812 1 1210 1438 1221
2813 1 1210 1438 1632
2814 1 1221 1438 1632
2815 2 1572 1552 1480
2816 3 1480 1552 1612
2817 4 1572 1552 1612
2818 2 1567 1555 1483
2819 3 1483 1555 1615
2820 4 1567 1555 1615
2821 2 1564 1560 1488
2822 3 1488 1560 1620
2823 4 1564 1560 1620
2824 2 1560 1564 1492
2825 3 1492 1564 1624
2826 4 1560 1564 1624
2827 2 1555 1567 1495
2828 3 1495 1567 1627
2829 4 1555 1567 1627
2830 2 1552 1572 1500
2831 3 1500 1572 1632
2832 4 1552 1572 1632
2833 5 1509 1380 1416
2834 5 1509 1380 1420
2835 6 1416 1380 1420
2836 5 1476 1131 1179
2837 5 1476 1131 1221
2838 6 1179 1131 1221
2839 7 1570 1630 1236
2840 8 1574 1630 1236
2841 9 1570 1630 1574
2842 7 1552 1612 1436
2843 8 1576 1612 1436
2844 9 1552 1612 1576
2845 7 1555 1615 1439
2846 8 1579 1615 1439
2847 9 1555 1615 1579
2848 7 1560 1620 1440
2849 8 1584 1620 1440
2850 9 1560 1620 1584
2851 7 1564 1624 1437
2852 8 1584 1624 1437
2853 9 1564 1624 1584
2854 7 1567 1627 1435
2855 8 1579 1627 1435
2856 9 1567 1627 1579
2857 7 1572 1632 1438
2858 8 1576 1632 1438
2859 9 1572 1632 1576
2860 1 1409 1233 1619
2861 1 1409 1233 1622
2862 1 1409 1233 1420
2863 1 1619 1233 1622
2864 1 1420 1233 1619
2865 1 1420 1233 1622
2866 7 1561 1621 1439
2867 8 1578 1621 1439
2868 9 1561 1621 1578
2869 5 1506 1573 1609
2870 5 1506 1573 1626
2871 6 1609 1573 1626
2872 2 1570 1514 1442
2873 3 1442 1514 1586
2874 4 1570 1514 1586
2875 2 1559 1532 1460
2876 3 1460 1532 1604
2877 4 1559 1532 1604
2878 7 1554 1614 1438
2879 8 1578 1614 1438
2880 9 1554 1614 1578
2881 2 1561 1554 1482
2882 3 1482 1554 1614
2883 4 1561 1554 1614
2884 2 1532 1559 1487
2885 3 1487 1559 1619
2886 4 1532 1559 1619
2887 2 1554 1561 1489
2888 3 1489 1561 1621
2889 4 1554 1561 1621
2890 2 1514 1570 1498
2891 3 1498 1570 1630
2892 4 1514 1570 1630
2893 8 1547 1619 1233
2894 7 1559 1619 1233
2895 9 1559 1619 1547
2896 5 1505 1578 1614
2897 5 1505 1578 1621
2898 6 1614 1578 1621
2899 7 1514 1586 1430
2900 8 1574 1586 1430
2901 9 1514 1586 1574
2902 7 1532 1604 1429
2903 8 1547 1604 1429
2904 9 1532 1604 1547
2905 1 1202 1436 1612
2906 1 1202 1436 1625
2907 1 1202 1436 1223
2908 1 1612 1436 1625
2909 1 1223 1436 1612
2910 1 1223 1436 1625
2911 5 1501 1577 1613
2912 5 1501 1577 1625
2913 6 1613 1577 1625
2914 1 1179 1429 1585
2915 1 1195 1429 1585
2916 1 1585 1429 1604
2917 1 1179 1429 1195
2918 1 1179 1429 1604
2919 1 1195 1429 1604
2920 5 1503 765 791
2921 5 1503 765 801
2922 6 791 765 801
2923 5 1474 1130 1198
2924 5 1474 1130 1202
2925 6 1198 1130 1202
2926 2 1563 1520 1448
2927 3 1448 1520 1592
2928 4 1563 1520 1592
2929 2 1551 1533 1461
2930 3 1461 1533 1605
2931 4 1551 1533 1605
2932 5 1475 1544 1592
2933 5 1475 1544 1623
2934 6 1592 1544 1623
2935 2 1533 1551 1479
2936 3 1479 1551 1611
2937 4 1533 1551 1611
2938 2 1565 1553 1481
2939 3 1481 1553 1613
2940 4 1565 1553 1613
2941 2 1520 1563 1491
2942 3 1491 1563 1623
2943 4 1520 1563 1623
2944 2 1553 1565 1493
2945 3 1493 1565 1625
2946 4 1553 1565 1625
2947 5 1507 1378 1390
2948 5 1507 1378 1418
2949 6 1390 1378 1418
2950 5 1472 1540 1588
2951 5 1472 1540 1608
2952 6 1588 1540 1608
2953 7 1520 1592 1434
2954 8 1544 1592 1434
2955 9 1520 1592 1544
2956 7 1533 1605 1432
2957 8 1575 1605 1432
2958 9 1533 1605 1575
2959 7 1551 1611 619
2960 8 1575 1611 619
2961 9 1551 1611 1575
2962 7 1553 1613 1437
2963 8 1577 1613 1437
2964 9 1553 1613 1577
2965 8 1544 1623 623
2966 7 1563 1623 623
2967 9 1563 1623 1544
2968 7 1565 1625 1436
2969 8 1577 1625 1436
2970 9 1565 1625 1577
2971 7 1535 1607 614
2972 8 1581 1607 614
2973 9 1535 1607 1581
2974 1 1188 1434 1592
2975 1 1592 1434 1602
2976 1 1198 1434 1592
2977 1 1188 1434 1602
2978 1 1188 1434 1198
2979 1 1198 1434 1602
2980 2 1530 1513 1441
2981 3 1441 1513 1585
2982 4 1530 1513 1585
2983 2 1562 1522 1450
2984 3 1450 1522 1594
2985 4 1562 1522 1594
2986 2 1513 1530 1458
2987 3 1458 1530 1602
2988 4 1513 1530 1602
2989 2 1557 1535 1463
2990 3 1463 1535 1607
2991 4 1557 1535 1607
2992 7 1557 1617 623
2993 8 1581 1617 623
2994 9 1557 1617 1581
2995 2 1535 1557 1485
2996 3 1485 1557 1617
2997 4 1535 1557 1617
2998 2 1522 1562 1490
2999 3 1490 1562 1622
3000 4 1522 1562 1622
3001 7 1530 1602 1434
3002 8 1537 1602 1434
3003 9 1530 1602 1537
3004 7 1562 1622 1233
3005 8 1582 1622 1233
3006 9 1562 1622 1582
3007 7 1513 1585 1429
3008 8 1537 1585 1429
3009 9 1513 1585 1537
3010 7 1522 1594 1228
3011 8 1582 1594 1228
3012 9 1522 1594 1582
3013 5 1502 763 799
3014 5 1502 763 811
3015 6 799 763 811
3016 1 799 623 1617
3017 1 799 623 805
3018 1 799 623 1623
3019 1 805 623 1617
3020 1 1617 623 1623
3021 1 805 623 1623
3022 5 1468 1547 1604
3023 5 1468 1547 1619
3024 6 1604 1547 1619
3025 5 694 758 770
3026 5 694 758 814
3027 6 770 758 814
3028 2 755 705 633
3029 3 633 705 777
3030 4 755 705 777
3031 2 742 710 638
3032 3 638 710 782
3033 4 742 710 782
3034 1 600 420 800
3035 1 606 420 800
3036 1 800 420 814
3037 1 600 420 606
3038 1 600 420 814
3039 1 606 420 814
3040 5 655 730 782
3041 5 655 730 802
3042 6 782 730 802
3043 2 750 733 661
3044 3 661 733 793
3045 4 750 733 793
3046 2 710 742 670
3047 3 670 742 802
3048 4 710 742 802
3049 2 733 750 678
3050 3 678 750 810
3051 4 733 750 810
3052 2 705 755 683
3053 3 683 755 815
3054 4 705 755 815
3055 5 695 560 579
3056 5 695 560 596
3057 6 579 560 596
3058 7 705 777 617
3059 8 729 777 617
3060 9 705 777 729
3061 7 710 782 615
3062 8 730 782 615
3063 9 710 782 730
3064 7 733 793 619
3065 8 757 793 619
3066 9 733 793 757
3067 8 730 802 214
3068 7 742 802 214
3069 9 742 802 730
3070 7 750 810 624
3071 8 757 810 624
3072 9 750 810 757
3073 8 729 815 212
3074 7 755 815 212
3075 9 755 815 729
3076 5 692 352 388
3077 5 692 352 408
3078 6 388 352 408
3079 2 753 699 627
3080 3 627 699 771
3081 4 753 699 771
3082 2 713 701 629
3083 3 629 701 773
3084 4 713 701 773
3085 2 740 711 639
3086 3 639 711 783
3087 4 740 711 783
3088 2 701 713 641
3089 3 641 713 785
3090 4 701 713 785
3091 7 740 800 420
3092 8 764 800 420
3093 9 740 800 764
3094 7 713 785 614
3095 8 725 785 614
3096 9 713 785 725
3097 2 711 740 668
3098 3 668 740 800
3099 4 711 740 800
3100 2 699 753 681
3101 3 681 753 813
3102 4 699 753 813
3103 8 723 813 214
3104 7 753 813 214
3105 9 753 813 723
3106 7 699 771 205
3107 8 723 771 205
3108 9 699 771 723
3109 7 701 773 615
3110 8 725 773 615
3111 9 701 773 725
3112 7 711 783 413
3113 8 764 783 413
3114 9 711 783 764
3115 1 573 413 775
3116 1 577 413 775
3117 1 775 413 783
3118 1 573 413 577
3119 1 573 413 783
3120 1 577 413 783
3121 5 650 727 775
3122 5 650 727 787
3123 6 775 727 787
3124 5 688 1583 1595
3125 5 688 1583 1628
3126 6 1595 1583 1628
3127 1 772 1430 1586
3128 1 1586 1430 1601
3129 1 791 1430 1586
3130 1 772 1430 1601
3131 1 772 1430 791
3132 1 791 1430 1601
3133 7 720 792 412
3134 8 724 792 412
3135 9 720 792 724
3136 2 709 702 630
3137 3 630 702 774
3138 4 709 702 774
3139 2 752 707 635
3140 3 635 707 779
3141 4 752 707 779
3142 2 702 709 637
3143 3 637 709 781
3144 4 702 709 781
3145 2 734 718 646
3146 3 646 718 790
3147 4 734 718 790
3148 5 653 522 570
3149 5 653 522 577
3150 6 570 522 577
3151 7 715 787 205
3152 8 727 787 205
3153 9 715 787 727
3154 2 718 734 662
3155 3 662 734 794
3156 4 718 734 794
3157 2 707 752 680
3158 3 680 752 812
3159 4 707 752 812
3160 5 696 759 789
3161 5 696 759 795
3162 6 789 759 795
3163 7 702 774 616
3164 8 726 774 616
3165 9 702 774 726
3166 7 707 779 1431
3167 8 767 779 1431
3168 9 707 779 767
3169 7 709 781 617
3170 8 726 781 617
3171 9 709 781 726
3172 7 718 790 210
3173 8 722 790 210
3174 9 718 790 722
3175 8 722 794 212
3176 7 734 794 212
3177 9 734 794 722
3178 7 752 812 1435
3179 8 767 812 1435
3180 9 752 812 767
3181 2 720 700 628
3182 3 628 700 772
3183 4 720 700 772
3184 2 715 703 631
3185 3 631 703 775
3186 4 715 703 775
3187 2 712 708 636
3188 3 636 708 780
3189 4 712 708 780
3190 2 708 712 640
3191 3 640 712 784
3192 4 708 712 784
3193 2 703 715 643
3194 3 643 715 787
3195 4 703 715 787
3196 2 700 720 648
3197 3 648 720 792
3198 4 700 720 792
3199 5 654 313 361
3200 5 654 313 378
3201 6 361 313 378
3202 1 570 412 778
3203 1 570 412 585
3204 1 570 412 792
3205 1 585 412 778
3206 1 778 412 792
3207 1 585 412 792
3208 5 657 732 780
3209 5 657 732 784
3210 6 780 732 784
3211 7 700 772 1430
3212 8 724 772 1430
3213 9 700 772 724
3214 7 703 775 413
3215 8 727 775 413
3216 9 703 775 727
3217 7 708 780 210
3218 8 732 780 210
3219 9 708 780 732
3220 7 712 784 1431
3221 8 732 784 1431
3222 9 712 784 732
3223 1 795 1435 1609
3224 1 1609 1435 1627
3225 1 812 1435 1609
3226 1 795 1435 1627
3227 1 795 1435 812
3228 1 812 1435 1627
3229 1 779 1431 1589
3230 1 1589 1431 1598
3231 1 784 1431 1589
3232 1 779 1431 1598
3233 1 779 1431 784
3234 1 784 1431 1598
3235 5 649 1541 1589
3236 5 649 1541 1601
3237 6 1589 1541 1601
3238 5 651 729 777
3239 5 651 729 815
3240 6 777 729 815
3241 5 1510 1574 1586
3242 5 1510 1574 1630
3243 6 1586 1574 1630
3244 2 1571 1521 1449
3245 3 1449 1521 1593
3246 4 1571 1521 1593
3247 2 1558 1526 1454
3248 3 1454 1526 1598
3249 4 1558 1526 1598
3250 1 1416 1236 1616
3251 1 1422 1236 1616
3252 1 1616 1236 1630
3253 1 1416 1236 1422
3254 1 1416 1236 1630
3255 1 1422 1236 1630
3256 5 1471 1546 1598
3257 5 1471 1546 1618
3258 6 1598 1546 1618
3259 2 1566 1549 1477
3260 3 1477 1549 1609
3261 4 1566 1549 1609
3262 2 1526 1558 1486
3263 3 1486 1558 1618
3264 4 1526 1558 1618
3265 2 1549 1566 1494
3266 3 1494 1566 1626
3267 4 1549 1566 1626
3268 2 1521 1571 1499
3269 3 1499 1571 1631
3270 4 1521 1571 1631
3271 5 1511 1376 1395
3272 5 1511 1376 1412
3273 6 1395 1376 1412
3274 7 1521 1593 1433
3275 8 1545 1593 1433
3276 9 1521 1593 1545
3277 7 1526 1598 1431
3278 8 1546 1598 1431
3279 9 1526 1598 1546
3280 7 1549 1609 1435
3281 8 1573 1609 1435
3282 9 1549 1609 1573
3283 8 1546 1618 1030
3284 7 1558 1618 1030
3285 9 1558 1618 1546
3286 7 1566 1626 1440
3287 8 1573 1626 1440
3288 9 1566 1626 1573
3289 8 1545 1631 1028
3290 7 1571 1631 1028
3291 9 1571 1631 1545
3292 5 1508 1168 1204
3293 5 1508 1168 1224
3294 6 1204 1168 1224
3295 2 1569 1515 1443
3296 3 1443 1515 1587
3297 4 1569 1515 1587
3298 2 1529 1517 1445
3299 3 1445 1517 1589
3300 4 1529 1517 1589
3301 2 1556 1527 1455
3302 3 1455 1527 1599
3303 4 1556 1527 1599
3304 2 1517 1529 1457
3305 3 1457 1529 1601
3306 4 1517 1529 1601
3307 7 1556 1616 1236
3308 8 1580 1616 1236
3309 9 1556 1616 1580
3310 7 1529 1601 1430
3311 8 1541 1601 1430
3312 9 1529 1601 1541
3313 2 1527 1556 1484
3314 3 1484 1556 1616
3315 4 1527 1556 1616
3316 2 1515 1569 1497
3317 3 1497 1569 1629
3318 4 1515 1569 1629
3319 8 1539 1629 1030
3320 7 1569 1629 1030
3321 9 1569 1629 1539
3322 7 1515 1587 1021
3323 8 1539 1587 1021
3324 9 1515 1587 1539
3325 7 1517 1589 1431
3326 8 1541 1589 1431
3327 9 1517 1589 1541
3328 7 1527 1599 1229
3329 8 1580 1599 1229
3330 9 1527 1599 1580
3331 1 1389 1229 1591
3332 1 1393 1229 1591
3333 1 1591 1229 1599
3334 1 1389 1229 1393
3335 1 1389 1229 1599
3336 1 1393 1229 1599
3337 5 1466 1543 1591
3338 5 1466 1543 1603
3339 6 1591 1543 1603
3340 5 1504 767 779
3341 5 1504 767 812
3342 6 779 767 812
3343 7 1536 1608 1228
3344 8 1540 1608 1228
3345 9 1536 1608 1540
3346 7 1531 1603 1021
3347 8 1543 1603 1021
3348 9 1531 1603 1543
3349 2 1525 1518 1446
3350 3 1446 1518 1590
3351 4 1525 1518 1590
3352 2 1568 1523 1451
3353 3 1451 1523 1595
3354 4 1568 1523 1595
3355 2 1518 1525 1453
3356 3 1453 1525 1597
3357 4 1518 1525 1597
3358 2 1550 1534 1462
3359 3 1462 1534 1606
3360 4 1550 1534 1606
3361 5 1469 1338 1386
3362 5 1469 1338 1393
3363 6 1386 1338 1393
3364 7 1528 1600 615
3365 8 1548 1600 615
3366 9 1528 1600 1548
3367 2 1534 1550 1478
3368 3 1478 1550 1610
3369 4 1534 1550 1610
3370 2 1523 1568 1496
3371 3 1496 1568 1628
3372 4 1523 1568 1628
3373 5 1512 1575 1605
3374 5 1512 1575 1611
3375 6 1605 1575 1611
3376 7 1518 1590 1432
3377 8 1542 1590 1432
3378 9 1518 1590 1542
3379 7 1523 1595 615
3380 8 1583 1595 615
3381 9 1523 1595 1583
3382 7 1525 1597 1433
3383 8 1542 1597 1433
3384 9 1525 1597 1542
3385 7 1534 1606 1026
3386 8 1538 1606 1026
3387 9 1534 1606 1538
3388 8 1538 1610 1028
3389 7 1550 1610 1028
3390 9 1550 1610 1538
3391 7 1568 1628 619
3392 8 1583 1628 619
3393 9 1568 1628 1583
3394 1 770 614 1588
3395 1 770 614 785
3396 1 770 614 1607
3397 1 785 614 1588
3398 1 1588 614 1607
3399 1 785 614 1607
3400 2 1536 1516 1444
3401 3 1444 1516 1588
3402 4 1536 1516 1588
3403 2 1531 1519 1447
3404 3 1447 1519 1591
3405 4 1531 1519 1591
3406 2 1528 1524 1452
3407 3 1452 1524 1596
3408 4 1528 1524 1596
3409 2 1524 1528 1456
3410 3 1456 1528 1600
3411 4 1524 1528 1600
3412 2 1519 1531 1459
3413 3 1459 1531 1603
3414 4 1519 1531 1603
3415 2 1516 1536 1464
3416 3 1464 1536 1608
3417 4 1516 1536 1608
3418 5 1470 1129 1177
3419 5 1470 1129 1194
3420 6 1177 1129 1194
3421 1 1386 1228 1594
3422 1 1386 1228 1401
3423 1 1386 1228 1608
3424 1 1401 1228 1594
3425 1 1594 1228 1608
3426 1 1401 1228 1608
3427 5 1473 1548 1596
3428 5 1473 1548 1600
3429 6 1596 1548 1600
3430 7 1516 1588 614
3431 8 1540 1588 614
3432 9 1516 1588 1540
3433 7 1519 1591 1229
3434 8 1543 1591 1229
3435 9 1519 1591 1543
3436 7 1524 1596 1026
3437 8 1548 1596 1026
3438 9 1524 1596 1548
3439 1 793 619 1611
3440 1 793 619 811
3441 1 793 619 1628
3442 1 811 619 1611
3443 1 1611 619 1628
3444 1 811 619 1628
3445 1 773 615 1595
3446 1 773 615 782
3447 1 773 615 1600
3448 1 782 615 1595
3449 1 1595 615 1600
3450 1 782 615 1600
3451 5 1465 725 773
3452 5 1465 725 785
3453 6 773 725 785
3454 5 1467 1545 1593
3455 5 1467 1545 1631
3456 6 1593 1545 1631

Dihedrals

1 1 598 10 186 126
2 2 598 10 186 150
3 1 609 10 186 126
4 2 609 10 186 150
5 1 204 10 186 126
6 2 204 10 186 150
7 2 186 10 598 526
8 1 186 10 598 538
9 2 609 10 598 526
10 1 609 10 598 538
11 2 204 10 598 526
12 1 204 10 598 538
13 2 186 10 609 519
14 1 186 10 609 549
15 2 598 10 609 519
16 1 598 10 609 549
17 2 204 10 609 519
18 1 204 10 609 549
19 1 186 10 204 144
20 2 186 10 204 148
21 1 598 10 204 144
22 2 598 10 204 148
23 1 609 10 204 144
24 2 609 10 204 148
25 3 52 124 144 72
26 4 52 124 144 204
27 4 184 124 144 72
28 5 184 124 144 204
29 6 52 124 184 8
30 7 52 124 184 148
31 8 144 124 184 8
32 9 144 124 184 148
33 3 55 127 139 67
34 4 55 127 139 199
35 4 187 127 139 67
36 5 187 127 139 199
37 6 55 127 187 11
38 7 55 127 187 151
39 8 139 127 187 11
40 9 139 127 187 151
41 3 60 132 136 64
42 4 60 132 136 196
43 4 192 132 136 64
44 5 192 132 136 196
45 6 60 132 192 12
46 7 60 132 192 156
47 8 136 132 192 12
48 9 136 132 192 156
49 6 64 136 196 9
50 7 64 136 196 156
51 8 132 136 196 9
52 9 132 136 196 156
53 6 67 139 199 7
54 7 67 139 199 151
55 8 127 139 199 7
56 9 127 139 199 151
57 6 72 144 204 10
58 7 72 144 204 148
59 8 124 144 204 10
60 9 124 144 204 148
61 10 81 360 396 216
62 11 81 360 396 336
63 12 400 360 396 216
64 13 400 360 396 336
65 10 81 360 400 213
66 11 81 360 400 340
67 12 396 360 400 213
68 13 396 360 400 340
69 10 48 519 567 1
70 11 48 519 567 495
71 12 609 519 567 1
72 13 609 519 567 495
73 10 48 519 609 10
74 11 48 519 609 549
75 12 567 519 609 10
76 13 567 519 609 549
77 1 191 213 389 329
78 2 191 213 389 353
79 1 194 213 389 329
80 2 194 213 389 353
81 1 400 213 389 329
82 2 400 213 389 353
83 1 389 213 400 340
84 2 389 213 400 360
85 1 191 213 400 340
86 2 191 213 400 360
87 1 194 213 400 340
88 2 194 213 400 360
89 10 78 145 181 7
90 11 78 145 181 121
91 12 198 145 181 7
92 13 198 145 181 121
93 10 78 145 198 12
94 11 78 145 198 138
95 12 181 145 198 12
96 13 181 145 198 138
97 3 14 86 142 70
98 4 14 86 142 202
99 4 158 86 142 70
100 5 158 86 142 202
101 6 14 86 158 2
102 7 14 86 158 146
103 8 142 86 158 2
104 9 142 86 158 146
105 3 32 104 131 59
106 4 32 104 131 191
107 4 176 104 131 59
108 5 176 104 131 191
109 6 32 104 176 1
110 7 32 104 176 119
111 8 131 104 176 1
112 9 131 104 176 119
113 3 54 126 133 61
114 4 54 126 133 193
115 4 186 126 133 61
116 5 186 126 133 193
117 6 54 126 186 10
118 7 54 126 186 150
119 8 133 126 186 10
120 9 133 126 186 150
121 6 59 131 191 213
122 7 59 131 191 119
123 8 104 131 191 213
124 9 104 131 191 119
125 6 61 133 193 11
126 7 61 133 193 150
127 8 126 133 193 11
128 9 126 133 193 150
129 6 70 142 202 216
130 7 70 142 202 146
131 8 86 142 202 216
132 9 86 142 202 146
133 1 142 202 216 188
134 1 142 202 216 396
135 1 142 202 216 402
136 2 146 202 216 188
137 2 146 202 216 396
138 2 146 202 216 402
139 10 77 150 186 10
140 11 77 150 186 126
141 12 193 150 186 10
142 13 193 150 186 126
143 10 77 150 193 11
144 11 77 150 193 133
145 12 186 150 193 11
146 13 186 150 193 133
147 2 119 191 213 389
148 2 119 191 213 194
149 2 119 191 213 400
150 1 131 191 213 389
151 1 131 191 213 194
152 1 131 191 213 400
153 2 184 8 590 518
154 1 184 8 590 530
155 2 197 8 590 518
156 1 197 8 590 530
157 2 611 8 590 518
158 1 611 8 590 530
159 1 590 8 184 124
160 2 590 8 184 148
161 1 197 8 184 124
162 2 197 8 184 148
163 1 611 8 184 124
164 2 611 8 184 148
165 1 590 8 197 137
166 2 590 8 197 149
167 1 184 8 197 137
168 2 184 8 197 149
169 1 611 8 197 137
170 2 611 8 197 149
171 2 590 8 611 525
172 1 590 8 611 551
173 2 184 8 611 525
174 1 184 8 611 551
175 2 197 8 611 525
176 1 197 8 611 551
177 10 73 149 185 9
178 11 73 149 185 125
179 12 197 149 185 9
180 13 197 149 185 125
181 10 73 149 197 8
182 11 73 149 197 137
183 12 185 149 197 8
184 13 185 149 197 137
185 1 567 1 157 85
186 2 567 1 157 109
187 1 583 1 157 85
188 2 583 1 157 109
189 1 176 1 157 85
190 2 176 1 157 109
191 1 157 1 567 495
192 2 157 1 567 519
193 1 583 1 567 495
194 2 583 1 567 519
195 1 176 1 567 495
196 2 176 1 567 519
197 1 157 1 583 511
198 2 157 1 583 523
199 1 567 1 583 511
200 2 567 1 583 523
201 1 176 1 583 511
202 2 176 1 583 523
203 1 157 1 176 104
204 2 157 1 176 119
205 1 567 1 176 104
206 2 567 1 176 119
207 1 583 1 176 104
208 2 583 1 176 119
209 10 75 969 995 2
210 11 75 969 995 923
211 12 1005 969 995 2
212 13 1005 969 995 923
213 10 75 969 1005 11
214 11 75 969 1005 945
215 12 995 969 1005 11
216 13 995 969 1005 945
217 10 46 518 586 6
218 11 46 518 586 514
219 12 590 518 586 6
220 13 590 518 586 514
221 10 46 518 590 8
222 11 46 518 590 530
223 12 586 518 590 8
224 13 586 518 590 530
225 3 20 92 135 63
226 4 20 92 135 195
227 4 164 92 135 63
228 5 164 92 135 195
229 6 20 92 164 6
230 7 20 92 164 116
231 8 135 92 164 6
232 9 135 92 164 116
233 3 33 105 123 51
234 4 33 105 123 183
235 4 177 105 123 51
236 5 177 105 123 183
237 6 33 105 177 4
238 7 33 105 177 147
239 8 123 105 177 4
240 9 123 105 177 147
241 10 47 116 164 6
242 11 47 116 164 92
243 12 195 116 164 6
244 13 195 116 164 92
245 10 47 116 195 827
246 11 47 116 195 135
247 12 164 116 195 827
248 13 164 116 195 135
249 6 51 123 183 823
250 7 51 123 183 147
251 8 105 123 183 823
252 9 105 123 183 147
253 3 53 125 137 65
254 4 53 125 137 197
255 4 185 125 137 65
256 5 185 125 137 197
257 6 53 125 185 9
258 7 53 125 185 149
259 8 137 125 185 9
260 9 137 125 185 149
261 6 63 135 195 827
262 7 63 135 195 116
263 8 92 135 195 827
264 9 92 135 195 116
265 6 65 137 197 8
266 7 65 137 197 149
267 8 125 137 197 8
268 9 125 137 197 149
269 10 79 358 370 4
270 11 79 358 370 298
271 12 398 358 370 4
272 13 398 358 370 298
273 10 79 358 398 9
274 11 79 358 398 338
275 12 370 358 398 9
276 13 370 358 398 338
277 10 44 112 160 818
278 11 44 112 160 88
279 12 180 112 160 818
280 13 180 112 160 88
281 10 44 112 180 208
282 11 44 112 180 108
283 12 160 112 180 208
284 13 160 112 180 108
285 1 123 183 823 997
286 1 123 183 823 1015
287 1 123 183 823 200
288 2 147 183 823 997
289 2 147 183 823 1015
290 2 147 183 823 200
291 2 116 195 827 1003
292 2 116 195 827 189
293 2 116 195 827 1009
294 1 135 195 827 1003
295 1 135 195 827 189
296 1 135 195 827 1009
297 1 107 179 818 974
298 1 107 179 818 160
299 1 107 179 818 989
300 2 153 179 818 974
301 2 153 179 818 160
302 2 153 179 818 989
303 1 576 6 164 92
304 2 576 6 164 116
305 1 174 6 164 92
306 2 174 6 164 116
307 1 586 6 164 92
308 2 586 6 164 116
309 1 164 6 576 504
310 2 164 6 576 528
311 1 174 6 576 504
312 2 174 6 576 528
313 1 586 6 576 504
314 2 586 6 576 528
315 1 164 6 174 102
316 2 164 6 174 109
317 1 576 6 174 102
318 2 576 6 174 109
319 1 586 6 174 102
320 2 586 6 174 109
321 1 164 6 586 514
322 2 164 6 586 518
323 1 576 6 586 514
324 2 576 6 586 518
325 1 174 6 586 514
326 2 174 6 586 518
327 3 13 85 102 30
328 4 13 85 102 174
329 4 157 85 102 30
330 5 157 85 102 174
331 6 13 85 157 1
332 7 13 85 157 109
333 8 102 85 157 1
334 9 102 85 157 109
335 3 22 94 134 62
336 4 22 94 134 194
337 4 166 94 134 62
338 5 166 94 134 194
339 6 22 94 166 208
340 7 22 94 166 154
341 8 134 94 166 208
342 9 134 94 166 154
343 6 30 102 174 6
344 7 30 102 174 109
345 8 85 102 174 6
346 9 85 102 174 109
347 3 35 107 129 57
348 4 35 107 129 189
349 4 179 107 129 57
350 5 179 107 129 189
351 6 35 107 179 818
352 7 35 107 179 153
353 8 129 107 179 818
354 9 129 107 179 153
355 1 129 189 827 1003
356 1 129 189 827 1009
357 1 129 189 827 195
358 2 153 189 827 1003
359 2 153 189 827 1009
360 2 153 189 827 195
361 6 57 129 189 827
362 7 57 129 189 153
363 8 107 129 189 827
364 9 107 129 189 153
365 6 62 134 194 213
366 7 62 134 194 154
367 8 94 134 194 213
368 9 94 134 194 154
369 1 134 194 213 389
370 1 134 194 213 191
371 1 134 194 213 400
372 2 154 194 213 389
373 2 154 194 213 191
374 2 154 194 213 400
375 1 94 166 208 366
376 1 94 166 208 381
377 1 94 166 208 180
378 2 154 166 208 366
379 2 154 166 208 381
380 2 154 166 208 180
381 10 74 967 1003 827
382 11 74 967 1003 943
383 12 1015 967 1003 827
384 13 1015 967 1003 943
385 10 74 967 1015 823
386 11 74 967 1015 955
387 12 1003 967 1015 823
388 13 1003 967 1015 955
389 1 189 827 1003 943
390 2 189 827 1003 967
391 1 1009 827 1003 943
392 2 1009 827 1003 967
393 1 195 827 1003 943
394 2 195 827 1003 967
395 1 1003 827 1009 949
396 2 1003 827 1009 966
397 1 189 827 1009 949
398 2 189 827 1009 966
399 1 195 827 1009 949
400 2 195 827 1009 966
401 10 40 119 176 1
402 11 40 119 176 104
403 12 191 119 176 1
404 13 191 119 176 104
405 10 40 119 191 213
406 11 40 119 191 131
407 12 176 119 191 213
408 13 176 119 191 131
409 1 1414 826 1002 942
410 2 1414 826 1002 966
411 1 1425 826 1002 942
412 2 1425 826 1002 966
413 1 1020 826 1002 942
414 2 1020 826 1002 966
415 2 1002 826 1414 1342
416 1 1002 826 1414 1354
417 2 1425 826 1414 1342
418 1 1425 826 1414 1354
419 2 1020 826 1414 1342
420 1 1020 826 1414 1354
421 2 1002 826 1425 1335
422 1 1002 826 1425 1365
423 2 1414 826 1425 1335
424 1 1414 826 1425 1365
425 2 1020 826 1425 1335
426 1 1020 826 1425 1365
427 1 1002 826 1020 960
428 2 1002 826 1020 964
429 1 1414 826 1020 960
430 2 1414 826 1020 964
431 1 1425 826 1020 960
432 2 1425 826 1020 964
433 3 868 940 960 888
434 4 868 940 960 1020
435 4 1000 940 960 888
436 5 1000 940 960 1020
437 6 868 940 1000 824
438 7 868 940 1000 964
439 8 960 940 1000 824
440 9 960 940 1000 964
441 3 871 943 955 883
442 4 871 943 955 1015
443 4 1003 943 955 883
444 5 1003 943 955 1015
445 6 871 943 1003 827
446 7 871 943 1003 967
447 8 955 943 1003 827
448 9 955 943 1003 967
449 3 876 948 952 880
450 4 876 948 952 1012
451 4 1008 948 952 880
452 5 1008 948 952 1012
453 6 876 948 1008 828
454 7 876 948 1008 972
455 8 952 948 1008 828
456 9 952 948 1008 972
457 6 880 952 1012 825
458 7 880 952 1012 972
459 8 948 952 1012 825
460 9 948 952 1012 972
461 6 883 955 1015 823
462 7 883 955 1015 967
463 8 943 955 1015 823
464 9 943 955 1015 967
465 6 888 960 1020 826
466 7 888 960 1020 964
467 8 940 960 1020 826
468 9 940 960 1020 964
469 10 897 1176 1212 1032
470 11 897 1176 1212 1152
471 12 1216 1176 1212 1032
472 13 1216 1176 1212 1152
473 10 897 1176 1216 1029
474 11 897 1176 1216 1156
475 12 1212 1176 1216 1029
476 13 1212 1176 1216 1156
477 10 864 1335 1383 817
478 11 864 1335 1383 1311
479 12 1425 1335 1383 817
480 13 1425 1335 1383 1311
481 10 864 1335 1425 826
482 11 864 1335 1425 1365
483 12 1383 1335 1425 826
484 13 1383 1335 1425 1365
485 1 1007 1029 1205 1145
486 2 1007 1029 1205 1169
487 1 1010 1029 1205 1145
488 2 1010 1029 1205 1169
489 1 1216 1029 1205 1145
490 2 1216 1029 1205 1169
491 1 1205 1029 1216 1156
492 2 1205 1029 1216 1176
493 1 1007 1029 1216 1156
494 2 1007 1029 1216 1176
495 1 1010 1029 1216 1156
496 2 1010 1029 1216 1176
497 10 894 961 997 823
498 11 894 961 997 937
499 12 1014 961 997 823
500 13 1014 961 997 937
501 10 894 961 1014 828
502 11 894 961 1014 954
503 12 997 961 1014 828
504 13 997 961 1014 954
505 3 830 902 958 886
506 4 830 902 958 1018
507 4 974 902 958 886
508 5 974 902 958 1018
509 6 830 902 974 818
510 7 830 902 974 962
511 8 958 902 974 818
512 9 958 902 974 962
513 3 848 920 947 875
514 4 848 920 947 1007
515 4 992 920 947 875
516 5 992 920 947 1007
517 6 848 920 992 817
518 7 848 920 992 935
519 8 947 920 992 817
520 9 947 920 992 935
521 3 870 942 949 877
522 4 870 942 949 1009
523 4 1002 942 949 877
524 5 1002 942 949 1009
525 6 870 942 1002 826
526 7 870 942 1002 966
527 8 949 942 1002 826
528 9 949 942 1002 966
529 6 875 947 1007 1029
530 7 875 947 1007 935
531 8 920 947 1007 1029
532 9 920 947 1007 935
533 6 877 949 1009 827
534 7 877 949 1009 966
535 8 942 949 1009 827
536 9 942 949 1009 966
537 6 886 958 1018 1032
538 7 886 958 1018 962
539 8 902 958 1018 1032
540 9 902 958 1018 962
541 1 958 1018 1032 1004
542 1 958 1018 1032 1212
543 1 958 1018 1032 1218
544 2 962 1018 1032 1004
545 2 962 1018 1032 1212
546 2 962 1018 1032 1218
547 10 893 966 1002 826
548 11 893 966 1002 942
549 12 1009 966 1002 826
550 13 1009 966 1002 942
551 10 893 966 1009 827
552 11 893 966 1009 949
553 12 1002 966 1009 827
554 13 1002 966 1009 949
555 2 935 1007 1029 1205
556 2 935 1007 1029 1010
557 2 935 1007 1029 1216
558 1 947 1007 1029 1205
559 1 947 1007 1029 1010
560 1 947 1007 1029 1216
561 2 1000 824 1406 1334
562 1 1000 824 1406 1346
563 2 1013 824 1406 1334
564 1 1013 824 1406 1346
565 2 1427 824 1406 1334
566 1 1427 824 1406 1346
567 1 1406 824 1000 940
568 2 1406 824 1000 964
569 1 1013 824 1000 940
570 2 1013 824 1000 964
571 1 1427 824 1000 940
572 2 1427 824 1000 964
573 1 1406 824 1013 953
574 2 1406 824 1013 965
575 1 1000 824 1013 953
576 2 1000 824 1013 965
577 1 1427 824 1013 953
578 2 1427 824 1013 965
579 2 1406 824 1427 1341
580 1 1406 824 1427 1367
581 2 1000 824 1427 1341
582 1 1000 824 1427 1367
583 2 1013 824 1427 1341
584 1 1013 824 1427 1367
585 10 889 965 1001 825
586 11 889 965 1001 941
587 12 1013 965 1001 825
588 13 1013 965 1001 941
589 10 889 965 1013 824
590 11 889 965 1013 953
591 12 1001 965 1013 824
592 13 1001 965 1013 953
593 1 1383 817 973 901
594 2 1383 817 973 925
595 1 1399 817 973 901
596 2 1399 817 973 925
597 1 992 817 973 901
598 2 992 817 973 925
599 1 973 817 1383 1311
600 2 973 817 1383 1335
601 1 1399 817 1383 1311
602 2 1399 817 1383 1335
603 1 992 817 1383 1311
604 2 992 817 1383 1335
605 1 973 817 1399 1327
606 2 973 817 1399 1339
607 1 1383 817 1399 1327
608 2 1383 817 1399 1339
609 1 992 817 1399 1327
610 2 992 817 1399 1339
611 1 973 817 992 920
612 2 973 817 992 935
613 1 1383 817 992 920
614 2 1383 817 992 935
615 1 1399 817 992 920
616 2 1399 817 992 935
617 10 891 153 179 818
618 11 891 153 179 107
619 12 189 153 179 818
620 13 189 153 179 107
621 10 891 153 189 827
622 11 891 153 189 129
623 12 179 153 189 827
624 13 179 153 189 129
625 10 862 1334 1402 822
626 11 862 1334 1402 1330
627 12 1406 1334 1402 822
628 13 1406 1334 1402 1330
629 10 862 1334 1406 824
630 11 862 1334 1406 1346
631 12 1402 1334 1406 824
632 13 1402 1334 1406 1346
633 3 836 908 951 879
634 4 836 908 951 1011
635 4 980 908 951 879
636 5 980 908 951 1011
637 6 836 908 980 822
638 7 836 908 980 932
639 8 951 908 980 822
640 9 951 908 980 932
641 3 849 921 939 867
642 4 849 921 939 999
643 4 993 921 939 867
644 5 993 921 939 999
645 6 849 921 993 820
646 7 849 921 993 963
647 8 939 921 993 820
648 9 939 921 993 963
649 10 863 932 980 822
650 11 863 932 980 908
651 12 1011 932 980 822
652 13 1011 932 980 908
653 10 863 932 1011 11
654 11 863 932 1011 951
655 12 980 932 1011 11
656 13 980 932 1011 951
657 6 867 939 999 7
658 7 867 939 999 963
659 8 921 939 999 7
660 9 921 939 999 963
661 3 869 941 953 881
662 4 869 941 953 1013
663 4 1001 941 953 881
664 5 1001 941 953 1013
665 6 869 941 1001 825
666 7 869 941 1001 965
667 8 953 941 1001 825
668 9 953 941 1001 965
669 6 879 951 1011 11
670 7 879 951 1011 932
671 8 908 951 1011 11
672 9 908 951 1011 932
673 6 881 953 1013 824
674 7 881 953 1013 965
675 8 941 953 1013 824
676 9 941 953 1013 965
677 10 895 1174 1186 820
678 11 895 1174 1186 1114
679 12 1214 1174 1186 820
680 13 1214 1174 1186 1114
681 10 895 1174 1214 825
682 11 895 1174 1214 1154
683 12 1186 1174 1214 825
684 13 1186 1174 1214 1154
685 10 860 928 976 2
686 11 860 928 976 904
687 12 996 928 976 2
688 13 996 928 976 904
689 10 860 928 996 1024
690 11 860 928 996 924
691 12 976 928 996 1024
692 13 976 928 996 924
693 1 1392 822 980 908
694 2 1392 822 980 932
695 1 990 822 980 908
696 2 990 822 980 932
697 1 1402 822 980 908
698 2 1402 822 980 932
699 1 980 822 1392 1320
700 2 980 822 1392 1344
701 1 990 822 1392 1320
702 2 990 822 1392 1344
703 1 1402 822 1392 1320
704 2 1402 822 1392 1344
705 1 980 822 990 918
706 2 980 822 990 925
707 1 1392 822 990 918
708 2 1392 822 990 925
709 1 1402 822 990 918
710 2 1402 822 990 925
711 1 980 822 1402 1330
712 2 980 822 1402 1334
713 1 1392 822 1402 1330
714 2 1392 822 1402 1334
715 1 990 822 1402 1330
716 2 990 822 1402 1334
717 3 829 901 918 846
718 4 829 901 918 990
719 4 973 901 918 846
720 5 973 901 918 990
721 6 829 901 973 817
722 7 829 901 973 925
723 8 918 901 973 817
724 9 918 901 973 925
725 3 838 910 950 878
726 4 838 910 950 1010
727 4 982 910 950 878
728 5 982 910 950 1010
729 6 838 910 982 1024
730 7 838 910 982 970
731 8 950 910 982 1024
732 9 950 910 982 970
733 6 846 918 990 822
734 7 846 918 990 925
735 8 901 918 990 822
736 9 901 918 990 925
737 3 851 923 945 873
738 4 851 923 945 1005
739 4 995 923 945 873
740 5 995 923 945 1005
741 6 851 923 995 2
742 7 851 923 995 969
743 8 945 923 995 2
744 9 945 923 995 969
745 6 873 945 1005 11
746 7 873 945 1005 969
747 8 923 945 1005 11
748 9 923 945 1005 969
749 6 878 950 1010 1029
750 7 878 950 1010 970
751 8 910 950 1010 1029
752 9 910 950 1010 970
753 1 950 1010 1029 1205
754 1 950 1010 1029 1007
755 1 950 1010 1029 1216
756 2 970 1010 1029 1205
757 2 970 1010 1029 1007
758 2 970 1010 1029 1216
759 1 910 982 1024 1182
760 1 910 982 1024 1197
761 1 910 982 1024 996
762 2 970 982 1024 1182
763 2 970 982 1024 1197
764 2 970 982 1024 996
765 10 890 151 187 11
766 11 890 151 187 127
767 12 199 151 187 11
768 13 199 151 187 127
769 10 890 151 199 7
770 11 890 151 199 139
771 12 187 151 199 7
772 13 187 151 199 139
773 1 1005 11 187 127
774 2 1005 11 187 151
775 1 193 11 187 127
776 2 193 11 187 151
777 1 1011 11 187 127
778 2 1011 11 187 151
779 1 187 11 1005 945
780 2 187 11 1005 969
781 1 193 11 1005 945
782 2 193 11 1005 969
783 1 1011 11 1005 945
784 2 1011 11 1005 969
785 1 187 11 193 133
786 2 187 11 193 150
787 1 1005 11 193 133
788 2 1005 11 193 150
789 1 1011 11 193 133
790 2 1011 11 193 150
791 2 187 11 1011 932
792 1 187 11 1011 951
793 2 1005 11 1011 932
794 1 1005 11 1011 951
795 2 193 11 1011 932
796 1 193 11 1011 951
797 10 856 935 992 817
798 11 856 935 992 920
799 12 1007 935 992 817
800 13 1007 935 992 920
801 10 856 935 1007 1029
802 11 856 935 1007 947
803 12 992 935 1007 1029
804 13 992 935 1007 947
805 10 82 146 158 2
806 11 82 146 158 86
807 12 202 146 158 2
808 13 202 146 158 86
809 10 82 146 202 216
810 11 82 146 202 142
811 12 158 146 202 216
812 13 158 146 202 142
813 3 21 93 143 71
814 4 21 93 143 203
815 4 165 93 143 71
816 5 165 93 143 203
817 6 21 93 165 5
818 7 21 93 165 117
819 8 143 93 165 5
820 9 143 93 165 117
821 3 26 98 130 58
822 4 26 98 130 190
823 4 170 98 130 58
824 5 170 98 130 190
825 6 26 98 170 3
826 7 26 98 170 118
827 8 130 98 170 3
828 9 130 98 170 118
829 1 188 216 396 336
830 2 188 216 396 360
831 1 402 216 396 336
832 2 402 216 396 360
833 1 202 216 396 336
834 2 202 216 396 360
835 1 188 216 402 342
836 2 188 216 402 349
837 1 396 216 402 342
838 2 396 216 402 349
839 1 202 216 402 342
840 2 202 216 402 349
841 10 43 118 170 3
842 11 43 118 170 98
843 12 190 118 170 3
844 13 190 118 170 98
845 10 43 118 190 418
846 11 43 118 190 130
847 12 170 118 190 418
848 13 170 118 190 130
849 3 49 121 138 66
850 4 49 121 138 198
851 4 181 121 138 66
852 5 181 121 138 198
853 6 49 121 181 7
854 7 49 121 181 145
855 8 138 121 181 7
856 9 138 121 181 145
857 6 58 130 190 418
858 7 58 130 190 118
859 8 98 130 190 418
860 9 98 130 190 118
861 6 66 138 198 12
862 7 66 138 198 145
863 8 121 138 198 12
864 9 121 138 198 145
865 6 71 143 203 416
866 7 71 143 203 117
867 8 93 143 203 416
868 9 93 143 203 117
869 10 83 356 375 5
870 11 83 356 375 303
871 12 392 356 375 5
872 13 392 356 375 303
873 10 83 356 392 12
874 11 83 356 392 332
875 12 375 356 392 12
876 13 375 356 392 332
877 2 118 190 418 594
878 2 118 190 418 201
879 2 118 190 418 612
880 1 130 190 418 594
881 1 130 190 418 201
882 1 130 190 418 612
883 2 117 203 416 182
884 2 117 203 416 592
885 2 117 203 416 605
886 1 143 203 416 182
887 1 143 203 416 592
888 1 143 203 416 605
889 10 80 556 592 416
890 11 80 556 592 532
891 12 612 556 592 416
892 13 612 556 592 532
893 10 80 556 612 418
894 11 80 556 612 552
895 12 592 556 612 418
896 13 592 556 612 552
897 3 15 87 141 69
898 4 15 87 141 201
899 4 159 87 141 69
900 5 159 87 141 201
901 6 15 87 159 409
902 7 15 87 159 111
903 8 141 87 159 409
904 9 141 87 159 111
905 3 17 89 101 29
906 4 17 89 101 173
907 4 161 89 101 29
908 5 161 89 101 173
909 6 17 89 161 3
910 7 17 89 161 113
911 8 101 89 161 3
912 9 101 89 161 113
913 3 27 99 128 56
914 4 27 99 128 188
915 4 171 99 128 56
916 5 171 99 128 188
917 6 27 99 171 209
918 7 27 99 171 152
919 8 128 99 171 209
920 9 128 99 171 152
921 6 29 101 173 2
922 7 29 101 173 113
923 8 89 101 173 2
924 9 89 101 173 113
925 1 128 188 216 396
926 1 128 188 216 402
927 1 128 188 216 202
928 2 152 188 216 396
929 2 152 188 216 402
930 2 152 188 216 202
931 6 56 128 188 216
932 7 56 128 188 152
933 8 99 128 188 216
934 9 99 128 188 152
935 6 69 141 201 418
936 7 69 141 201 111
937 8 87 141 201 418
938 9 87 141 201 111
939 2 111 201 418 594
940 2 111 201 418 190
941 2 111 201 418 612
942 1 141 201 418 594
943 1 141 201 418 190
944 1 141 201 418 612
945 1 87 159 409 565
946 1 87 159 409 175
947 1 87 159 409 584
948 2 111 159 409 565
949 2 111 159 409 175
950 2 111 159 409 584
951 1 99 171 209 163
952 1 99 171 209 369
953 1 99 171 209 373
954 2 152 171 209 163
955 2 152 171 209 369
956 2 152 171 209 373
957 1 163 209 369 297
958 2 163 209 369 321
959 1 373 209 369 297
960 2 373 209 369 321
961 1 171 209 369 297
962 2 171 209 369 321
963 1 163 209 373 301
964 2 163 209 373 318
965 1 369 209 373 301
966 2 369 209 373 318
967 1 171 209 373 301
968 2 171 209 373 318
969 10 38 115 163 209
970 11 38 115 163 91
971 12 175 115 163 209
972 13 175 115 163 91
973 10 38 115 175 409
974 11 38 115 175 103
975 12 163 115 175 409
976 13 163 115 175 103
977 10 76 971 983 3
978 11 76 971 983 911
979 12 1016 971 983 3
980 13 1016 971 983 911
981 10 76 971 1016 7
982 11 76 971 1016 956
983 12 983 971 1016 7
984 13 983 971 1016 956
985 1 160 818 974 902
986 2 160 818 974 962
987 1 989 818 974 902
988 2 989 818 974 962
989 1 179 818 974 902
990 2 179 818 974 962
991 1 974 818 989 917
992 2 974 818 989 929
993 1 160 818 989 917
994 2 160 818 989 929
995 1 179 818 989 917
996 2 179 818 989 929
997 1 108 180 208 366
998 1 108 180 208 166
999 1 108 180 208 381
1000 2 112 180 208 366
1001 2 112 180 208 166
1002 2 112 180 208 381
1003 3 18 90 97 25
1004 4 18 90 97 169
1005 4 162 90 97 25
1006 5 162 90 97 169
1007 6 18 90 162 4
1008 7 18 90 162 114
1009 8 97 90 162 4
1010 9 97 90 162 114
1011 3 23 95 140 68
1012 4 23 95 140 200
1013 4 167 95 140 68
1014 5 167 95 140 200
1015 6 23 95 167 819
1016 7 23 95 167 155
1017 8 140 95 167 819
1018 9 140 95 167 155
1019 6 25 97 169 5
1020 7 25 97 169 114
1021 8 90 97 169 5
1022 9 90 97 169 114
1023 3 34 106 122 50
1024 4 34 106 122 182
1025 4 178 106 122 50
1026 5 178 106 122 182
1027 6 34 106 178 414
1028 7 34 106 178 110
1029 8 122 106 178 414
1030 9 122 106 178 110
1031 10 41 318 366 208
1032 11 41 318 366 294
1033 12 373 318 366 208
1034 13 373 318 366 294
1035 10 41 318 373 209
1036 11 41 318 373 301
1037 12 366 318 373 209
1038 13 366 318 373 301
1039 1 103 175 409 565
1040 1 103 175 409 159
1041 1 103 175 409 584
1042 2 115 175 409 565
1043 2 115 175 409 159
1044 2 115 175 409 584
1045 6 50 122 182 416
1046 7 50 122 182 110
1047 8 106 122 182 416
1048 9 106 122 182 110
1049 6 68 140 200 823
1050 7 68 140 200 155
1051 8 95 140 200 823
1052 9 95 140 200 155
1053 10 84 147 177 4
1054 11 84 147 177 105
1055 12 183 147 177 4
1056 13 183 147 177 105
1057 10 84 147 183 823
1058 11 84 147 183 123
1059 12 177 147 183 823
1060 13 177 147 183 123
1061 1 95 167 819 977
1062 1 95 167 819 986
1063 1 95 167 819 172
1064 2 155 167 819 977
1065 2 155 167 819 986
1066 2 155 167 819 172
1067 1 106 178 414 572
1068 1 106 178 414 168
1069 1 106 178 414 582
1070 2 110 178 414 572
1071 2 110 178 414 168
1072 2 110 178 414 582
1073 2 110 182 416 592
1074 2 110 182 416 605
1075 2 110 182 416 203
1076 1 122 182 416 592
1077 1 122 182 416 605
1078 1 122 182 416 203
1079 1 140 200 823 997
1080 1 140 200 823 183
1081 1 140 200 823 1015
1082 2 155 200 823 997
1083 2 155 200 823 183
1084 2 155 200 823 1015
1085 3 16 88 108 36
1086 4 16 88 108 180
1087 4 160 88 108 36
1088 5 160 88 108 180
1089 6 16 88 160 818
1090 7 16 88 160 112
1091 8 108 88 160 818
1092 9 108 88 160 112
1093 3 19 91 103 31
1094 4 19 91 103 175
1095 4 163 91 103 31
1096 5 163 91 103 175
1097 6 19 91 163 209
1098 7 19 91 163 115
1099 8 103 91 163 209
1100 9 103 91 163 115
1101 3 24 96 100 28
1102 4 24 96 100 172
1103 4 168 96 100 28
1104 5 168 96 100 172
1105 6 24 96 168 414
1106 7 24 96 168 120
1107 8 100 96 168 414
1108 9 100 96 168 120
1109 6 28 100 172 819
1110 7 28 100 172 120
1111 8 96 100 172 819
1112 9 96 100 172 120
1113 6 31 103 175 409
1114 7 31 103 175 115
1115 8 91 103 175 409
1116 9 91 103 175 115
1117 6 36 108 180 208
1118 7 36 108 180 112
1119 8 88 108 180 208
1120 9 88 108 180 112
1121 10 42 517 565 409
1122 11 42 517 565 493
1123 12 582 517 565 409
1124 13 582 517 565 493
1125 10 42 517 582 414
1126 11 42 517 582 510
1127 12 565 517 582 414
1128 13 565 517 582 510
1129 1 166 208 366 294
1130 2 166 208 366 318
1131 1 381 208 366 294
1132 2 381 208 366 318
1133 1 180 208 366 294
1134 2 180 208 366 318
1135 1 366 208 381 309
1136 2 366 208 381 351
1137 1 166 208 381 309
1138 2 166 208 381 351
1139 1 180 208 381 309
1140 2 180 208 381 351
1141 10 45 120 168 414
1142 11 45 120 168 96
1143 12 172 120 168 414
1144 13 172 120 168 96
1145 10 45 120 172 819
1146 11 45 120 172 100
1147 12 168 120 172 819
1148 13 168 120 172 100
1149 1 88 160 818 974
1150 1 88 160 818 989
1151 1 88 160 818 179
1152 2 112 160 818 974
1153 2 112 160 818 989
1154 2 112 160 818 179
1155 1 91 163 209 369
1156 1 91 163 209 373
1157 1 91 163 209 171
1158 2 115 163 209 369
1159 2 115 163 209 373
1160 2 115 163 209 171
1161 1 96 168 414 572
1162 1 96 168 414 582
1163 1 96 168 414 178
1164 2 120 168 414 572
1165 2 120 168 414 582
1166 2 120 168 414 178
1167 1 100 172 819 977
1168 1 100 172 819 167
1169 1 100 172 819 986
1170 2 120 172 819 977
1171 2 120 172 819 167
1172 2 120 172 819 986
1173 1 183 823 997 937
1174 2 183 823 997 961
1175 1 1015 823 997 937
1176 2 1015 823 997 961
1177 1 200 823 997 937
1178 2 200 823 997 961
1179 1 997 823 1015 955
1180 2 997 823 1015 967
1181 1 183 823 1015 955
1182 2 183 823 1015 967
1183 1 200 823 1015 955
1184 2 200 823 1015 967
1185 1 167 819 977 905
1186 2 167 819 977 929
1187 1 986 819 977 905
1188 2 986 819 977 929
1189 1 172 819 977 905
1190 2 172 819 977 929
1191 1 977 819 986 914
1192 2 977 819 986 934
1193 1 167 819 986 914
1194 2 167 819 986 934
1195 1 172 819 986 914
1196 2 172 819 986 934
1197 10 37 929 977 819
1198 11 37 929 977 905
1199 12 989 929 977 819
1200 13 989 929 977 905
1201 10 37 929 989 818
1202 11 37 929 989 917
1203 12 977 929 989 818
1204 13 977 929 989 917
1205 10 39 117 165 5
1206 11 39 117 165 93
1207 12 203 117 165 5
1208 13 203 117 165 93
1209 10 39 117 203 416
1210 11 39 117 203 143
1211 12 165 117 203 416
1212 13 165 117 203 143
1213 10 898 962 974 818
1214 11 898 962 974 902
1215 12 1018 962 974 818
1216 13 1018 962 974 902
1217 10 898 962 1018 1032
1218 11 898 962 1018 958
1219 12 974 962 1018 1032
1220 13 974 962 1018 958
1221 3 837 909 959 887
1222 4 837 909 959 1019
1223 4 981 909 959 887
1224 5 981 909 959 1019
1225 6 837 909 981 821
1226 7 837 909 981 933
1227 8 959 909 981 821
1228 9 959 909 981 933
1229 3 842 914 946 874
1230 4 842 914 946 1006
1231 4 986 914 946 874
1232 5 986 914 946 1006
1233 6 842 914 986 819
1234 7 842 914 986 934
1235 8 946 914 986 819
1236 9 946 914 986 934
1237 1 1004 1032 1212 1152
1238 2 1004 1032 1212 1176
1239 1 1218 1032 1212 1152
1240 2 1218 1032 1212 1176
1241 1 1018 1032 1212 1152
1242 2 1018 1032 1212 1176
1243 1 1004 1032 1218 1158
1244 2 1004 1032 1218 1165
1245 1 1212 1032 1218 1158
1246 2 1212 1032 1218 1165
1247 1 1018 1032 1218 1158
1248 2 1018 1032 1218 1165
1249 10 859 934 986 819
1250 11 859 934 986 914
1251 12 1006 934 986 819
1252 13 1006 934 986 914
1253 10 859 934 1006 1234
1254 11 859 934 1006 946
1255 12 986 934 1006 1234
1256 13 986 934 1006 946
1257 3 865 937 954 882
1258 4 865 937 954 1014
1259 4 997 937 954 882
1260 5 997 937 954 1014
1261 6 865 937 997 823
1262 7 865 937 997 961
1263 8 954 937 997 823
1264 9 954 937 997 961
1265 6 874 946 1006 1234
1266 7 874 946 1006 934
1267 8 914 946 1006 1234
1268 9 914 946 1006 934
1269 6 882 954 1014 828
1270 7 882 954 1014 961
1271 8 937 954 1014 828
1272 9 937 954 1014 961
1273 6 887 959 1019 1232
1274 7 887 959 1019 933
1275 8 909 959 1019 1232
1276 9 909 959 1019 933
1277 10 899 1172 1191 821
1278 11 899 1172 1191 1119
1279 12 1208 1172 1191 821
1280 13 1208 1172 1191 1119
1281 10 899 1172 1208 828
1282 11 899 1172 1208 1148
1283 12 1191 1172 1208 828
1284 13 1191 1172 1208 1148
1285 2 934 1006 1234 1410
1286 2 934 1006 1234 1017
1287 2 934 1006 1234 1428
1288 1 946 1006 1234 1410
1289 1 946 1006 1234 1017
1290 1 946 1006 1234 1428
1291 2 933 1019 1232 998
1292 2 933 1019 1232 1408
1293 2 933 1019 1232 1421
1294 1 959 1019 1232 998
1295 1 959 1019 1232 1408
1296 1 959 1019 1232 1421
1297 10 896 1372 1408 1232
1298 11 896 1372 1408 1348
1299 12 1428 1372 1408 1232
1300 13 1428 1372 1408 1348
1301 10 896 1372 1428 1234
1302 11 896 1372 1428 1368
1303 12 1408 1372 1428 1234
1304 13 1408 1372 1428 1368
1305 3 831 903 957 885
1306 4 831 903 957 1017
1307 4 975 903 957 885
1308 5 975 903 957 1017
1309 6 831 903 975 1225
1310 7 831 903 975 927
1311 8 957 903 975 1225
1312 9 957 903 975 927
1313 3 833 905 917 845
1314 4 833 905 917 989
1315 4 977 905 917 845
1316 5 977 905 917 989
1317 6 833 905 977 819
1318 7 833 905 977 929
1319 8 917 905 977 819
1320 9 917 905 977 929
1321 3 843 915 944 872
1322 4 843 915 944 1004
1323 4 987 915 944 872
1324 5 987 915 944 1004
1325 6 843 915 987 1025
1326 7 843 915 987 968
1327 8 944 915 987 1025
1328 9 944 915 987 968
1329 6 845 917 989 818
1330 7 845 917 989 929
1331 8 905 917 989 818
1332 9 905 917 989 929
1333 1 944 1004 1032 1212
1334 1 944 1004 1032 1218
1335 1 944 1004 1032 1018
1336 2 968 1004 1032 1212
1337 2 968 1004 1032 1218
1338 2 968 1004 1032 1018
1339 6 872 944 1004 1032
1340 7 872 944 1004 968
1341 8 915 944 1004 1032
1342 9 915 944 1004 968
1343 6 885 957 1017 1234
1344 7 885 957 1017 927
1345 8 903 957 1017 1234
1346 9 903 957 1017 927
1347 2 927 1017 1234 1410
1348 2 927 1017 1234 1006
1349 2 927 1017 1234 1428
1350 1 957 1017 1234 1410
1351 1 957 1017 1234 1006
1352 1 957 1017 1234 1428
1353 1 903 975 1225 1381
1354 1 903 975 1225 991
1355 1 903 975 1225 1400
1356 2 927 975 1225 1381
1357 2 927 975 1225 991
1358 2 927 975 1225 1400
1359 1 915 987 1025 979
1360 1 915 987 1025 1185
1361 1 915 987 1025 1189
1362 2 968 987 1025 979
1363 2 968 987 1025 1185
1364 2 968 987 1025 1189
1365 1 979 1025 1185 1113
1366 2 979 1025 1185 1137
1367 1 1189 1025 1185 1113
1368 2 1189 1025 1185 1137
1369 1 987 1025 1185 1113
1370 2 987 1025 1185 1137
1371 1 979 1025 1189 1117
1372 2 979 1025 1189 1134
1373 1 1185 1025 1189 1117
1374 2 1185 1025 1189 1134
1375 1 987 1025 1189 1117
1376 2 987 1025 1189 1134
1377 10 854 931 979 1025
1378 11 854 931 979 907
1379 12 991 931 979 1025
1380 13 991 931 979 907
1381 10 854 931 991 1225
1382 11 854 931 991 919
1383 12 979 931 991 1225
1384 13 979 931 991 919
1385 10 892 155 167 819
1386 11 892 155 167 95
1387 12 200 155 167 819
1388 13 200 155 167 95
1389 10 892 155 200 823
1390 11 892 155 200 140
1391 12 167 155 200 823
1392 13 167 155 200 140
1393 1 924 996 1024 1182
1394 1 924 996 1024 982
1395 1 924 996 1024 1197
1396 2 928 996 1024 1182
1397 2 928 996 1024 982
1398 2 928 996 1024 1197
1399 1 919 991 1225 1381
1400 1 919 991 1225 975
1401 1 919 991 1225 1400
1402 2 931 991 1225 1381
1403 2 931 991 1225 975
1404 2 931 991 1225 1400
1405 3 834 906 913 841
1406 4 834 906 913 985
1407 4 978 906 913 841
1408 5 978 906 913 985
1409 6 834 906 978 820
1410 7 834 906 978 930
1411 8 913 906 978 820
1412 9 913 906 978 930
1413 3 839 911 956 884
1414 4 839 911 956 1016
1415 4 983 911 956 884
1416 5 983 911 956 1016
1417 6 839 911 983 3
1418 7 839 911 983 971
1419 8 956 911 983 3
1420 9 956 911 983 971
1421 6 841 913 985 821
1422 7 841 913 985 930
1423 8 906 913 985 821
1424 9 906 913 985 930
1425 3 850 922 938 866
1426 4 850 922 938 998
1427 4 994 922 938 866
1428 5 994 922 938 998
1429 6 850 922 994 1230
1430 7 850 922 994 926
1431 8 938 922 994 1230
1432 9 938 922 994 926
1433 10 857 1134 1182 1024
1434 11 857 1134 1182 1110
1435 12 1189 1134 1182 1024
1436 13 1189 1134 1182 1110
1437 10 857 1134 1189 1025
1438 11 857 1134 1189 1117
1439 12 1182 1134 1189 1025
1440 13 1182 1134 1189 1117
1441 6 866 938 998 1232
1442 7 866 938 998 926
1443 8 922 938 998 1232
1444 9 922 938 998 926
1445 6 884 956 1016 7
1446 7 884 956 1016 971
1447 8 911 956 1016 7
1448 9 911 956 1016 971
1449 10 900 963 993 820
1450 11 900 963 993 921
1451 12 999 963 993 820
1452 13 999 963 993 921
1453 10 900 963 999 7
1454 11 900 963 999 939
1455 12 993 963 999 7
1456 13 993 963 999 939
1457 1 922 994 1230 1388
1458 1 922 994 1230 984
1459 1 922 994 1230 1398
1460 2 926 994 1230 1388
1461 2 926 994 1230 984
1462 2 926 994 1230 1398
1463 2 926 998 1232 1408
1464 2 926 998 1232 1421
1465 2 926 998 1232 1019
1466 1 938 998 1232 1408
1467 1 938 998 1232 1421
1468 1 938 998 1232 1019
1469 1 976 2 158 86
1470 2 976 2 158 146
1471 1 173 2 158 86
1472 2 173 2 158 146
1473 1 995 2 158 86
1474 2 995 2 158 146
1475 1 158 2 976 904
1476 2 158 2 976 928
1477 1 173 2 976 904
1478 2 173 2 976 928
1479 1 995 2 976 904
1480 2 995 2 976 928
1481 1 158 2 173 101
1482 2 158 2 173 113
1483 1 976 2 173 101
1484 2 976 2 173 113
1485 1 995 2 173 101
1486 2 995 2 173 113
1487 1 158 2 995 923
1488 2 158 2 995 969
1489 1 976 2 995 923
1490 2 976 2 995 969
1491 1 173 2 995 923
1492 2 173 2 995 969
1493 3 832 904 924 852
1494 4 832 904 924 996
1495 4 976 904 924 852
1496 5 976 904 924 996
1497 6 832 904 976 2
1498 7 832 904 976 928
1499 8 924 904 976 2
1500 9 924 904 976 928
1501 3 835 907 919 847
1502 4 835 907 919 991
1503 4 979 907 919 847
1504 5 979 907 919 991
1505 6 835 907 979 1025
1506 7 835 907 979 931
1507 8 919 907 979 1025
1508 9 919 907 979 931
1509 3 840 912 916 844
1510 4 840 912 916 988
1511 4 984 912 916 844
1512 5 984 912 916 988
1513 6 840 912 984 1230
1514 7 840 912 984 936
1515 8 916 912 984 1230
1516 9 916 912 984 936
1517 6 844 916 988 3
1518 7 844 916 988 936
1519 8 912 916 988 3
1520 9 912 916 988 936
1521 6 847 919 991 1225
1522 7 847 919 991 931
1523 8 907 919 991 1225
1524 9 907 919 991 931
1525 6 852 924 996 1024
1526 7 852 924 996 928
1527 8 904 924 996 1024
1528 9 904 924 996 928
1529 10 858 1333 1381 1225
1530 11 858 1333 1381 1309
1531 12 1398 1333 1381 1225
1532 13 1398 1333 1381 1309
1533 10 858 1333 1398 1230
1534 11 858 1333 1398 1326
1535 12 1381 1333 1398 1230
1536 13 1381 1333 1398 1326
1537 1 982 1024 1182 1110
1538 2 982 1024 1182 1134
1539 1 1197 1024 1182 1110
1540 2 1197 1024 1182 1134
1541 1 996 1024 1182 1110
1542 2 996 1024 1182 1134
1543 1 1182 1024 1197 1125
1544 2 1182 1024 1197 1167
1545 1 982 1024 1197 1125
1546 2 982 1024 1197 1167
1547 1 996 1024 1197 1125
1548 2 996 1024 1197 1167
1549 10 861 936 984 1230
1550 11 861 936 984 912
1551 12 988 936 984 1230
1552 13 988 936 984 912
1553 10 861 936 988 3
1554 11 861 936 988 916
1555 12 984 936 988 3
1556 13 984 936 988 916
1557 1 907 979 1025 1185
1558 1 907 979 1025 1189
1559 1 907 979 1025 987
1560 2 931 979 1025 1185
1561 2 931 979 1025 1189
1562 2 931 979 1025 987
1563 1 912 984 1230 1388
1564 1 912 984 1230 1398
1565 1 912 984 1230 994
1566 2 936 984 1230 1388
1567 2 936 984 1230 1398
1568 2 936 984 1230 994
1569 1 999 7 181 121
1570 2 999 7 181 145
1571 1 199 7 181 121
1572 2 199 7 181 145
1573 1 1016 7 181 121
1574 2 1016 7 181 145
1575 1 181 7 999 939
1576 2 181 7 999 963
1577 1 199 7 999 939
1578 2 199 7 999 963
1579 1 1016 7 999 939
1580 2 1016 7 999 963
1581 1 181 7 199 139
1582 2 181 7 199 151
1583 1 999 7 199 139
1584 2 999 7 199 151
1585 1 1016 7 199 139
1586 2 1016 7 199 151
1587 1 181 7 1016 956
1588 2 181 7 1016 971
1589 1 999 7 1016 956
1590 2 999 7 1016 971
1591 1 199 7 1016 956
1592 2 199 7 1016 971
1593 1 983 3 161 89
1594 2 983 3 161 113
1595 1 170 3 161 89
1596 2 170 3 161 113
1597 1 988 3 161 89
1598 2 988 3 161 113
1599 1 161 3 983 911
1600 2 161 3 983 971
1601 1 170 3 983 911
1602 2 170 3 983 971
1603 1 988 3 983 911
1604 2 988 3 983 971
1605 1 161 3 170 98
1606 2 161 3 170 118
1607 1 983 3 170 98
1608 2 983 3 170 118
1609 1 988 3 170 98
1610 2 988 3 170 118
1611 1 161 3 988 916
1612 2 161 3 988 936
1613 1 983 3 988 916
1614 2 983 3 988 936
1615 1 170 3 988 916
1616 2 170 3 988 936
1617 10 853 113 161 3
1618 11 853 113 161 89
1619 12 173 113 161 3
1620 13 173 113 161 89
1621 10 853 113 173 2
1622 11 853 113 173 101
1623 12 161 113 173 2
1624 13 161 113 173 101
1625 10 855 933 981 821
1626 11 855 933 981 909
1627 12 1019 933 981 821
1628 13 1019 933 981 909
1629 10 855 933 1019 1232
1630 11 855 933 1019 959
1631 12 981 933 1019 1232
1632 13 981 933 1019 959
1633 1 190 418 594 534
1634 2 190 418 594 558
1635 1 201 418 594 534
1636 2 201 418 594 558
1637 1 612 418 594 534
1638 2 612 418 594 558
1639 1 594 418 612 552
1640 2 594 418 612 556
1641 1 190 418 612 552
1642 2 190 418 612 556
1643 1 201 418 612 552
1644 2 201 418 612 556
1645 3 460 532 552 480
1646 4 460 532 552 612
1647 4 592 532 552 480
1648 5 592 532 552 612
1649 6 460 532 592 416
1650 7 460 532 592 556
1651 8 552 532 592 416
1652 9 552 532 592 556
1653 3 463 535 547 475
1654 4 463 535 547 607
1655 4 595 535 547 475
1656 5 595 535 547 607
1657 6 463 535 595 419
1658 7 463 535 595 559
1659 8 547 535 595 419
1660 9 547 535 595 559
1661 3 468 540 544 472
1662 4 468 540 544 604
1663 4 600 540 544 472
1664 5 600 540 544 604
1665 6 468 540 600 420
1666 7 468 540 600 564
1667 8 544 540 600 420
1668 9 544 540 600 564
1669 6 472 544 604 417
1670 7 472 544 604 564
1671 8 540 544 604 417
1672 9 540 544 604 564
1673 6 475 547 607 415
1674 7 475 547 607 559
1675 8 535 547 607 415
1676 9 535 547 607 559
1677 6 480 552 612 418
1678 7 480 552 612 556
1679 8 532 552 612 418
1680 9 532 552 612 556
1681 10 489 768 804 624
1682 11 489 768 804 744
1683 12 808 768 804 624
1684 13 808 768 804 744
1685 10 489 768 808 621
1686 11 489 768 808 748
1687 12 804 768 808 621
1688 13 804 768 808 748
1689 10 456 111 159 409
1690 11 456 111 159 87
1691 12 201 111 159 409
1692 13 201 111 159 87
1693 10 456 111 201 418
1694 11 456 111 201 141
1695 12 159 111 201 418
1696 13 159 111 201 141
1697 1 599 621 797 737
1698 2 599 621 797 761
1699 1 602 621 797 737
1700 2 602 621 797 761
1701 1 808 621 797 737
1702 2 808 621 797 761
1703 1 797 621 808 748
1704 2 797 621 808 768
1705 1 599 621 808 748
1706 2 599 621 808 768
1707 1 602 621 808 748
1708 2 602 621 808 768
1709 10 486 553 589 415
1710 11 486 553 589 529
1711 12 606 553 589 415
1712 13 606 553 589 529
1713 10 486 553 606 420
1714 11 486 553 606 546
1715 12 589 553 606 420
1716 13 589 553 606 546
1717 3 422 494 550 478
1718 4 422 494 550 610
1719 4 566 494 550 478
1720 5 566 494 550 610
1721 6 422 494 566 410
1722 7 422 494 566 554
1723 8 550 494 566 410
1724 9 550 494 566 554
1725 3 440 512 539 467
1726 4 440 512 539 599
1727 4 584 512 539 467
1728 5 584 512 539 599
1729 6 440 512 584 409
1730 7 440 512 584 527
1731 8 539 512 584 409
1732 9 539 512 584 527
1733 3 462 534 541 469
1734 4 462 534 541 601
1735 4 594 534 541 469
1736 5 594 534 541 601
1737 6 462 534 594 418
1738 7 462 534 594 558
1739 8 541 534 594 418
1740 9 541 534 594 558
1741 6 467 539 599 621
1742 7 467 539 599 527
1743 8 512 539 599 621
1744 9 512 539 599 527
1745 6 469 541 601 419
1746 7 469 541 601 558
1747 8 534 541 601 419
1748 9 534 541 601 558
1749 6 478 550 610 624
1750 7 478 550 610 554
1751 8 494 550 610 624
1752 9 494 550 610 554
1753 1 550 610 624 596
1754 1 550 610 624 804
1755 1 550 610 624 810
1756 2 554 610 624 596
1757 2 554 610 624 804
1758 2 554 610 624 810
1759 10 485 558 594 418
1760 11 485 558 594 534
1761 12 601 558 594 418
1762 13 601 558 594 534
1763 10 485 558 601 419
1764 11 485 558 601 541
1765 12 594 558 601 419
1766 13 594 558 601 541
1767 2 527 599 621 797
1768 2 527 599 621 602
1769 2 527 599 621 808
1770 1 539 599 621 797
1771 1 539 599 621 602
1772 1 539 599 621 808
1773 1 182 416 592 532
1774 2 182 416 592 556
1775 1 605 416 592 532
1776 2 605 416 592 556
1777 1 203 416 592 532
1778 2 203 416 592 556
1779 1 182 416 605 545
1780 2 182 416 605 557
1781 1 592 416 605 545
1782 2 592 416 605 557
1783 1 203 416 605 545
1784 2 203 416 605 557
1785 10 481 557 593 417
1786 11 481 557 593 533
1787 12 605 557 593 417
1788 13 605 557 593 533
1789 10 481 557 605 416
1790 11 481 557 605 545
1791 12 593 557 605 416
1792 13 593 557 605 545
1793 1 159 409 565 493
1794 2 159 409 565 517
1795 1 175 409 565 493
1796 2 175 409 565 517
1797 1 584 409 565 493
1798 2 584 409 565 517
1799 1 565 409 584 512
1800 2 565 409 584 527
1801 1 159 409 584 512
1802 2 159 409 584 527
1803 1 175 409 584 512
1804 2 175 409 584 527
1805 10 483 1377 1403 410
1806 11 483 1377 1403 1331
1807 12 1413 1377 1403 410
1808 13 1413 1377 1403 1331
1809 10 483 1377 1413 419
1810 11 483 1377 1413 1353
1811 12 1403 1377 1413 419
1812 13 1403 1377 1413 1353
1813 10 454 110 178 414
1814 11 454 110 178 106
1815 12 182 110 178 414
1816 13 182 110 178 106
1817 10 454 110 182 416
1818 11 454 110 182 122
1819 12 178 110 182 416
1820 13 178 110 182 122
1821 3 428 500 543 471
1822 4 428 500 543 603
1823 4 572 500 543 471
1824 5 572 500 543 603
1825 6 428 500 572 414
1826 7 428 500 572 524
1827 8 543 500 572 414
1828 9 543 500 572 524
1829 3 441 513 531 459
1830 4 441 513 531 591
1831 4 585 513 531 459
1832 5 585 513 531 591
1833 6 441 513 585 412
1834 7 441 513 585 555
1835 8 531 513 585 412
1836 9 531 513 585 555
1837 10 455 524 572 414
1838 11 455 524 572 500
1839 12 603 524 572 414
1840 13 603 524 572 500
1841 10 455 524 603 1235
1842 11 455 524 603 543
1843 12 572 524 603 1235
1844 13 572 524 603 543
1845 6 459 531 591 1231
1846 7 459 531 591 555
1847 8 513 531 591 1231
1848 9 513 531 591 555
1849 3 461 533 545 473
1850 4 461 533 545 605
1851 4 593 533 545 473
1852 5 593 533 545 605
1853 6 461 533 593 417
1854 7 461 533 593 557
1855 8 545 533 593 417
1856 9 545 533 593 557
1857 6 471 543 603 1235
1858 7 471 543 603 524
1859 8 500 543 603 1235
1860 9 500 543 603 524
1861 6 473 545 605 416
1862 7 473 545 605 557
1863 8 533 545 605 416
1864 9 533 545 605 557
1865 10 487 766 778 412
1866 11 487 766 778 706
1867 12 806 766 778 412
1868 13 806 766 778 706
1869 10 487 766 806 417
1870 11 487 766 806 746
1871 12 778 766 806 417
1872 13 778 766 806 746
1873 10 452 520 568 1226
1874 11 452 520 568 496
1875 12 588 520 568 1226
1876 13 588 520 568 496
1877 10 452 520 588 616
1878 11 452 520 588 516
1879 12 568 520 588 616
1880 13 568 520 588 516
1881 1 531 591 1231 1405
1882 1 531 591 1231 1423
1883 1 531 591 1231 608
1884 2 555 591 1231 1405
1885 2 555 591 1231 1423
1886 2 555 591 1231 608
1887 2 524 603 1235 1411
1888 2 524 603 1235 597
1889 2 524 603 1235 1417
1890 1 543 603 1235 1411
1891 1 543 603 1235 597
1892 1 543 603 1235 1417
1893 1 515 587 1226 1382
1894 1 515 587 1226 568
1895 1 515 587 1226 1397
1896 2 561 587 1226 1382
1897 2 561 587 1226 568
1898 2 561 587 1226 1397
1899 1 168 414 572 500
1900 2 168 414 572 524
1901 1 582 414 572 500
1902 2 582 414 572 524
1903 1 178 414 572 500
1904 2 178 414 572 524
1905 1 572 414 582 510
1906 2 572 414 582 517
1907 1 168 414 582 510
1908 2 168 414 582 517
1909 1 178 414 582 510
1910 2 178 414 582 517
1911 3 421 493 510 438
1912 4 421 493 510 582
1913 4 565 493 510 438
1914 5 565 493 510 582
1915 6 421 493 565 409
1916 7 421 493 565 517
1917 8 510 493 565 409
1918 9 510 493 565 517
1919 3 430 502 542 470
1920 4 430 502 542 602
1921 4 574 502 542 470
1922 5 574 502 542 602
1923 6 430 502 574 616
1924 7 430 502 574 562
1925 8 542 502 574 616
1926 9 542 502 574 562
1927 6 438 510 582 414
1928 7 438 510 582 517
1929 8 493 510 582 414
1930 9 493 510 582 517
1931 3 443 515 537 465
1932 4 443 515 537 597
1933 4 587 515 537 465
1934 5 587 515 537 597
1935 6 443 515 587 1226
1936 7 443 515 587 561
1937 8 537 515 587 1226
1938 9 537 515 587 561
1939 1 537 597 1235 1411
1940 1 537 597 1235 1417
1941 1 537 597 1235 603
1942 2 561 597 1235 1411
1943 2 561 597 1235 1417
1944 2 561 597 1235 603
1945 6 465 537 597 1235
1946 7 465 537 597 561
1947 8 515 537 597 1235
1948 9 515 537 597 561
1949 6 470 542 602 621
1950 7 470 542 602 562
1951 8 502 542 602 621
1952 9 502 542 602 562
1953 1 542 602 621 797
1954 1 542 602 621 599
1955 1 542 602 621 808
1956 2 562 602 621 797
1957 2 562 602 621 599
1958 2 562 602 621 808
1959 1 502 574 616 774
1960 1 502 574 616 789
1961 1 502 574 616 588
1962 2 562 574 616 774
1963 2 562 574 616 789
1964 2 562 574 616 588
1965 10 482 1375 1411 1235
1966 11 482 1375 1411 1351
1967 12 1423 1375 1411 1235
1968 13 1423 1375 1411 1351
1969 10 482 1375 1423 1231
1970 11 482 1375 1423 1363
1971 12 1411 1375 1423 1231
1972 13 1411 1375 1423 1363
1973 1 597 1235 1411 1351
1974 2 597 1235 1411 1375
1975 1 1417 1235 1411 1351
1976 2 1417 1235 1411 1375
1977 1 603 1235 1411 1351
1978 2 603 1235 1411 1375
1979 1 1411 1235 1417 1357
1980 2 1411 1235 1417 1374
1981 1 597 1235 1417 1357
1982 2 597 1235 1417 1374
1983 1 603 1235 1417 1357
1984 2 603 1235 1417 1374
1985 10 448 527 584 409
1986 11 448 527 584 512
1987 12 599 527 584 409
1988 13 599 527 584 512
1989 10 448 527 599 621
1990 11 448 527 599 539
1991 12 584 527 599 621
1992 13 584 527 599 539
1993 1 1006 1234 1410 1350
1994 2 1006 1234 1410 1374
1995 1 1017 1234 1410 1350
1996 2 1017 1234 1410 1374
1997 1 1428 1234 1410 1350
1998 2 1428 1234 1410 1374
1999 1 1410 1234 1428 1368
2000 2 1410 1234 1428 1372
2001 1 1006 1234 1428 1368
2002 2 1006 1234 1428 1372
2003 1 1017 1234 1428 1368
2004 2 1017 1234 1428 1372
2005 3 1276 1348 1368 1296
2006 4 1276 1348 1368 1428
2007 4 1408 1348 1368 1296
2008 5 1408 1348 1368 1428
2009 6 1276 1348 1408 1232
2010 7 1276 1348 1408 1372
2011 8 1368 1348 1408 1232
2012 9 1368 1348 1408 1372
2013 3 1279 1351 1363 1291
2014 4 1279 1351 1363 1423
2015 4 1411 1351 1363 1291
2016 5 1411 1351 1363 1423
2017 6 1279 1351 1411 1235
2018 7 1279 1351 1411 1375
2019 8 1363 1351 1411 1235
2020 9 1363 1351 1411 1375
2021 3 1284 1356 1360 1288
2022 4 1284 1356 1360 1420
2023 4 1416 1356 1360 1288
2024 5 1416 1356 1360 1420
2025 6 1284 1356 1416 1236
2026 7 1284 1356 1416 1380
2027 8 1360 1356 1416 1236
2028 9 1360 1356 1416 1380
2029 6 1288 1360 1420 1233
2030 7 1288 1360 1420 1380
2031 8 1356 1360 1420 1233
2032 9 1356 1360 1420 1380
2033 6 1291 1363 1423 1231
2034 7 1291 1363 1423 1375
2035 8 1351 1363 1423 1231
2036 9 1351 1363 1423 1375
2037 6 1296 1368 1428 1234
2038 7 1296 1368 1428 1372
2039 8 1348 1368 1428 1234
2040 9 1348 1368 1428 1372
2041 10 1305 1584 1620 1440
2042 11 1305 1584 1620 1560
2043 12 1624 1584 1620 1440
2044 13 1624 1584 1620 1560
2045 10 1305 1584 1624 1437
2046 11 1305 1584 1624 1564
2047 12 1620 1584 1624 1437
2048 13 1620 1584 1624 1564
2049 10 1272 927 975 1225
2050 11 1272 927 975 903
2051 12 1017 927 975 1225
2052 13 1017 927 975 903
2053 10 1272 927 1017 1234
2054 11 1272 927 1017 957
2055 12 975 927 1017 1234
2056 13 975 927 1017 957
2057 1 1415 1437 1613 1553
2058 2 1415 1437 1613 1577
2059 1 1418 1437 1613 1553
2060 2 1418 1437 1613 1577
2061 1 1624 1437 1613 1553
2062 2 1624 1437 1613 1577
2063 1 1613 1437 1624 1564
2064 2 1613 1437 1624 1584
2065 1 1415 1437 1624 1564
2066 2 1415 1437 1624 1584
2067 1 1418 1437 1624 1564
2068 2 1418 1437 1624 1584
2069 10 1302 1369 1405 1231
2070 11 1302 1369 1405 1345
2071 12 1422 1369 1405 1231
2072 13 1422 1369 1405 1345
2073 10 1302 1369 1422 1236
2074 11 1302 1369 1422 1362
2075 12 1405 1369 1422 1236
2076 13 1405 1369 1422 1362
2077 3 1238 1310 1366 1294
2078 4 1238 1310 1366 1426
2079 4 1382 1310 1366 1294
2080 5 1382 1310 1366 1426
2081 6 1238 1310 1382 1226
2082 7 1238 1310 1382 1370
2083 8 1366 1310 1382 1226
2084 9 1366 1310 1382 1370
2085 3 1256 1328 1355 1283
2086 4 1256 1328 1355 1415
2087 4 1400 1328 1355 1283
2088 5 1400 1328 1355 1415
2089 6 1256 1328 1400 1225
2090 7 1256 1328 1400 1343
2091 8 1355 1328 1400 1225
2092 9 1355 1328 1400 1343
2093 3 1278 1350 1357 1285
2094 4 1278 1350 1357 1417
2095 4 1410 1350 1357 1285
2096 5 1410 1350 1357 1417
2097 6 1278 1350 1410 1234
2098 7 1278 1350 1410 1374
2099 8 1357 1350 1410 1234
2100 9 1357 1350 1410 1374
2101 6 1283 1355 1415 1437
2102 7 1283 1355 1415 1343
2103 8 1328 1355 1415 1437
2104 9 1328 1355 1415 1343
2105 6 1285 1357 1417 1235
2106 7 1285 1357 1417 1374
2107 8 1350 1357 1417 1235
2108 9 1350 1357 1417 1374
2109 6 1294 1366 1426 1440
2110 7 1294 1366 1426 1370
2111 8 1310 1366 1426 1440
2112 9 1310 1366 1426 1370
2113 1 1366 1426 1440 1412
2114 1 1366 1426 1440 1620
2115 1 1366 1426 1440 1626
2116 2 1370 1426 1440 1412
2117 2 1370 1426 1440 1620
2118 2 1370 1426 1440 1626
2119 10 1301 1374 1410 1234
2120 11 1301 1374 1410 1350
2121 12 1417 1374 1410 1234
2122 13 1417 1374 1410 1350
2123 10 1301 1374 1417 1235
2124 11 1301 1374 1417 1357
2125 12 1410 1374 1417 1235
2126 13 1410 1374 1417 1357
2127 2 1343 1415 1437 1613
2128 2 1343 1415 1437 1418
2129 2 1343 1415 1437 1624
2130 1 1355 1415 1437 1613
2131 1 1355 1415 1437 1418
2132 1 1355 1415 1437 1624
2133 1 998 1232 1408 1348
2134 2 998 1232 1408 1372
2135 1 1421 1232 1408 1348
2136 2 1421 1232 1408 1372
2137 1 1019 1232 1408 1348
2138 2 1019 1232 1408 1372
2139 1 998 1232 1421 1361
2140 2 998 1232 1421 1373
2141 1 1408 1232 1421 1361
2142 2 1408 1232 1421 1373
2143 1 1019 1232 1421 1361
2144 2 1019 1232 1421 1373
2145 10 1297 1373 1409 1233
2146 11 1297 1373 1409 1349
2147 12 1421 1373 1409 1233
2148 13 1421 1373 1409 1349
2149 10 1297 1373 1421 1232
2150 11 1297 1373 1421 1361
2151 12 1409 1373 1421 1232
2152 13 1409 1373 1421 1361
2153 1 975 1225 1381 1309
2154 2 975 1225 1381 1333
2155 1 991 1225 1381 1309
2156 2 991 1225 1381 1333
2157 1 1400 1225 1381 1309
2158 2 1400 1225 1381 1333
2159 1 1381 1225 1400 1328
2160 2 1381 1225 1400 1343
2161 1 975 1225 1400 1328
2162 2 975 1225 1400 1343
2163 1 991 1225 1400 1328
2164 2 991 1225 1400 1343
2165 10 1299 561 587 1226
2166 11 1299 561 587 515
2167 12 597 561 587 1226
2168 13 597 561 587 515
2169 10 1299 561 597 1235
2170 11 1299 561 597 537
2171 12 587 561 597 1235
2172 13 587 561 597 537
2173 10 1270 926 994 1230
2174 11 1270 926 994 922
2175 12 998 926 994 1230
2176 13 998 926 994 922
2177 10 1270 926 998 1232
2178 11 1270 926 998 938
2179 12 994 926 998 1232
2180 13 994 926 998 938
2181 3 1244 1316 1359 1287
2182 4 1244 1316 1359 1419
2183 4 1388 1316 1359 1287
2184 5 1388 1316 1359 1419
2185 6 1244 1316 1388 1230
2186 7 1244 1316 1388 1340
2187 8 1359 1316 1388 1230
2188 9 1359 1316 1388 1340
2189 3 1257 1329 1347 1275
2190 4 1257 1329 1347 1407
2191 4 1401 1329 1347 1275
2192 5 1401 1329 1347 1407
2193 6 1257 1329 1401 1228
2194 7 1257 1329 1401 1371
2195 8 1347 1329 1401 1228
2196 9 1347 1329 1401 1371
2197 10 1271 1340 1388 1230
2198 11 1271 1340 1388 1316
2199 12 1419 1340 1388 1230
2200 13 1419 1340 1388 1316
2201 10 1271 1340 1419 419
2202 11 1271 1340 1419 1359
2203 12 1388 1340 1419 419
2204 13 1388 1340 1419 1359
2205 6 1275 1347 1407 415
2206 7 1275 1347 1407 1371
2207 8 1329 1347 1407 415
2208 9 1329 1347 1407 1371
2209 3 1277 1349 1361 1289
2210 4 1277 1349 1361 1421
2211 4 1409 1349 1361 1289
2212 5 1409 1349 1361 1421
2213 6 1277 1349 1409 1233
2214 7 1277 1349 1409 1373
2215 8 1361 1349 1409 1233
2216 9 1361 1349 1409 1373
2217 6 1287 1359 1419 419
2218 7 1287 1359 1419 1340
2219 8 1316 1359 1419 419
2220 9 1316 1359 1419 1340
2221 6 1289 1361 1421 1232
2222 7 1289 1361 1421 1373
2223 8 1349 1361 1421 1232
2224 9 1349 1361 1421 1373
2225 10 1303 1582 1594 1228
2226 11 1303 1582 1594 1522
2227 12 1622 1582 1594 1228
2228 13 1622 1582 1594 1522
2229 10 1303 1582 1622 1233
2230 11 1303 1582 1622 1562
2231 12 1594 1582 1622 1233
2232 13 1594 1582 1622 1562
2233 10 1268 1336 1384 410
2234 11 1268 1336 1384 1312
2235 12 1404 1336 1384 410
2236 13 1404 1336 1384 1312
2237 10 1268 1336 1404 1432
2238 11 1268 1336 1404 1332
2239 12 1384 1336 1404 1432
2240 13 1384 1336 1404 1332
2241 1 984 1230 1388 1316
2242 2 984 1230 1388 1340
2243 1 1398 1230 1388 1316
2244 2 1398 1230 1388 1340
2245 1 994 1230 1388 1316
2246 2 994 1230 1388 1340
2247 1 1388 1230 1398 1326
2248 2 1388 1230 1398 1333
2249 1 984 1230 1398 1326
2250 2 984 1230 1398 1333
2251 1 994 1230 1398 1326
2252 2 994 1230 1398 1333
2253 3 1237 1309 1326 1254
2254 4 1237 1309 1326 1398
2255 4 1381 1309 1326 1254
2256 5 1381 1309 1326 1398
2257 6 1237 1309 1381 1225
2258 7 1237 1309 1381 1333
2259 8 1326 1309 1381 1225
2260 9 1326 1309 1381 1333
2261 3 1246 1318 1358 1286
2262 4 1246 1318 1358 1418
2263 4 1390 1318 1358 1286
2264 5 1390 1318 1358 1418
2265 6 1246 1318 1390 1432
2266 7 1246 1318 1390 1378
2267 8 1358 1318 1390 1432
2268 9 1358 1318 1390 1378
2269 6 1254 1326 1398 1230
2270 7 1254 1326 1398 1333
2271 8 1309 1326 1398 1230
2272 9 1309 1326 1398 1333
2273 3 1259 1331 1353 1281
2274 4 1259 1331 1353 1413
2275 4 1403 1331 1353 1281
2276 5 1403 1331 1353 1413
2277 6 1259 1331 1403 410
2278 7 1259 1331 1403 1377
2279 8 1353 1331 1403 410
2280 9 1353 1331 1403 1377
2281 6 1281 1353 1413 419
2282 7 1281 1353 1413 1377
2283 8 1331 1353 1413 419
2284 9 1331 1353 1413 1377
2285 6 1286 1358 1418 1437
2286 7 1286 1358 1418 1378
2287 8 1318 1358 1418 1437
2288 9 1318 1358 1418 1378
2289 1 1358 1418 1437 1613
2290 1 1358 1418 1437 1415
2291 1 1358 1418 1437 1624
2292 2 1378 1418 1437 1613
2293 2 1378 1418 1437 1415
2294 2 1378 1418 1437 1624
2295 1 1318 1390 1432 1590
2296 1 1318 1390 1432 1605
2297 1 1318 1390 1432 1404
2298 2 1378 1390 1432 1590
2299 2 1378 1390 1432 1605
2300 2 1378 1390 1432 1404
2301 10 1298 559 595 419
2302 11 1298 559 595 535
2303 12 607 559 595 419
2304 13 607 559 595 535
2305 10 1298 559 607 415
2306 11 1298 559 607 547
2307 12 595 559 607 415
2308 13 595 559 607 547
2309 1 1413 419 595 535
2310 2 1413 419 595 559
2311 1 601 419 595 535
2312 2 601 419 595 559
2313 1 1419 419 595 535
2314 2 1419 419 595 559
2315 1 595 419 1413 1353
2316 2 595 419 1413 1377
2317 1 601 419 1413 1353
2318 2 601 419 1413 1377
2319 1 1419 419 1413 1353
2320 2 1419 419 1413 1377
2321 1 595 419 601 541
2322 2 595 419 601 558
2323 1 1413 419 601 541
2324 2 1413 419 601 558
2325 1 1419 419 601 541
2326 2 1419 419 601 558
2327 2 595 419 1419 1340
2328 1 595 419 1419 1359
2329 2 1413 419 1419 1340
2330 1 1413 419 1419 1359
2331 2 601 419 1419 1340
2332 1 601 419 1419 1359
2333 10 1264 1343 1400 1225
2334 11 1264 1343 1400 1328
2335 12 1415 1343 1400 1225
2336 13 1415 1343 1400 1328
2337 10 1264 1343 1415 1437
2338 11 1264 1343 1415 1355
2339 12 1400 1343 1415 1437
2340 13 1400 1343 1415 1355
2341 10 490 554 566 410
2342 11 490 554 566 494
2343 12 610 554 566 410
2344 13 610 554 566 494
2345 10 490 554 610 624
2346 11 490 554 610 550
2347 12 566 554 610 624
2348 13 566 554 610 550
2349 3 429 501 551 479
2350 4 429 501 551 611
2351 4 573 501 551 479
2352 5 573 501 551 611
2353 6 429 501 573 413
2354 7 429 501 573 525
2355 8 551 501 573 413
2356 9 551 501 573 525
2357 3 434 506 538 466
2358 4 434 506 538 598
2359 4 578 506 538 466
2360 5 578 506 538 598
2361 6 434 506 578 411
2362 7 434 506 578 526
2363 8 538 506 578 411
2364 9 538 506 578 526
2365 1 596 624 804 744
2366 2 596 624 804 768
2367 1 810 624 804 744
2368 2 810 624 804 768
2369 1 610 624 804 744
2370 2 610 624 804 768
2371 1 596 624 810 750
2372 2 596 624 810 757
2373 1 804 624 810 750
2374 2 804 624 810 757
2375 1 610 624 810 750
2376 2 610 624 810 757
2377 10 451 526 578 411
2378 11 451 526 578 506
2379 12 598 526 578 411
2380 13 598 526 578 506
2381 10 451 526 598 10
2382 11 451 526 598 538
2383 12 578 526 598 10
2384 13 578 526 598 538
2385 3 457 529 546 474
2386 4 457 529 546 606
2387 4 589 529 546 474
2388 5 589 529 546 606
2389 6 457 529 589 415
2390 7 457 529 589 553
2391 8 546 529 589 415
2392 9 546 529 589 553
2393 6 466 538 598 10
2394 7 466 538 598 526
2395 8 506 538 598 10
2396 9 506 538 598 526
2397 6 474 546 606 420
2398 7 474 546 606 553
2399 8 529 546 606 420
2400 9 529 546 606 553
2401 6 479 551 611 8
2402 7 479 551 611 525
2403 8 501 551 611 8
2404 9 501 551 611 525
2405 10 491 764 783 413
2406 11 491 764 783 711
2407 12 800 764 783 413
2408 13 800 764 783 711
2409 10 491 764 800 420
2410 11 491 764 800 740
2411 12 783 764 800 420
2412 13 783 764 800 740
2413 10 488 148 184 8
2414 11 488 148 184 124
2415 12 204 148 184 8
2416 13 204 148 184 124
2417 10 488 148 204 10
2418 11 488 148 204 144
2419 12 184 148 204 10
2420 13 184 148 204 144
2421 3 423 495 549 477
2422 4 423 495 549 609
2423 4 567 495 549 477
2424 5 567 495 549 609
2425 6 423 495 567 1
2426 7 423 495 567 519
2427 8 549 495 567 1
2428 9 549 495 567 519
2429 3 425 497 509 437
2430 4 425 497 509 581
2431 4 569 497 509 437
2432 5 569 497 509 581
2433 6 425 497 569 411
2434 7 425 497 569 521
2435 8 509 497 569 411
2436 9 509 497 569 521
2437 3 435 507 536 464
2438 4 435 507 536 596
2439 4 579 507 536 464
2440 5 579 507 536 596
2441 6 435 507 579 617
2442 7 435 507 579 560
2443 8 536 507 579 617
2444 9 536 507 579 560
2445 6 437 509 581 410
2446 7 437 509 581 521
2447 8 497 509 581 410
2448 9 497 509 581 521
2449 1 536 596 624 804
2450 1 536 596 624 810
2451 1 536 596 624 610
2452 2 560 596 624 804
2453 2 560 596 624 810
2454 2 560 596 624 610
2455 6 464 536 596 624
2456 7 464 536 596 560
2457 8 507 536 596 624
2458 9 507 536 596 560
2459 6 477 549 609 10
2460 7 477 549 609 519
2461 8 495 549 609 10
2462 9 495 549 609 519
2463 1 507 579 617 571
2464 1 507 579 617 777
2465 1 507 579 617 781
2466 2 560 579 617 571
2467 2 560 579 617 777
2468 2 560 579 617 781
2469 1 571 617 777 705
2470 2 571 617 777 729
2471 1 781 617 777 705
2472 2 781 617 777 729
2473 1 579 617 777 705
2474 2 579 617 777 729
2475 1 571 617 781 709
2476 2 571 617 781 726
2477 1 777 617 781 709
2478 2 777 617 781 726
2479 1 579 617 781 709
2480 2 579 617 781 726
2481 10 446 523 571 617
2482 11 446 523 571 499
2483 12 583 523 571 617
2484 13 583 523 571 499
2485 10 446 523 583 1
2486 11 446 523 583 511
2487 12 571 523 583 1
2488 13 571 523 583 511
2489 10 484 1379 1391 411
2490 11 484 1379 1391 1319
2491 12 1424 1379 1391 411
2492 13 1424 1379 1391 1319
2493 10 484 1379 1424 415
2494 11 484 1379 1424 1364
2495 12 1391 1379 1424 415
2496 13 1391 1379 1424 1364
2497 1 568 1226 1382 1310
2498 2 568 1226 1382 1370
2499 1 1397 1226 1382 1310
2500 2 1397 1226 1382 1370
2501 1 587 1226 1382 1310
2502 2 587 1226 1382 1370
2503 1 1382 1226 1397 1325
2504 2 1382 1226 1397 1337
2505 1 568 1226 1397 1325
2506 2 568 1226 1397 1337
2507 1 587 1226 1397 1325
2508 2 587 1226 1397 1337
2509 1 516 588 616 774
2510 1 516 588 616 574
2511 1 516 588 616 789
2512 2 520 588 616 774
2513 2 520 588 616 574
2514 2 520 588 616 789
2515 3 426 498 505 433
2516 4 426 498 505 577
2517 4 570 498 505 433
2518 5 570 498 505 577
2519 6 426 498 570 412
2520 7 426 498 570 522
2521 8 505 498 570 412
2522 9 505 498 570 522
2523 3 431 503 548 476
2524 4 431 503 548 608
2525 4 575 503 548 476
2526 5 575 503 548 608
2527 6 431 503 575 1227
2528 7 431 503 575 563
2529 8 548 503 575 1227
2530 9 548 503 575 563
2531 6 433 505 577 413
2532 7 433 505 577 522
2533 8 498 505 577 413
2534 9 498 505 577 522
2535 3 442 514 530 458
2536 4 442 514 530 590
2537 4 586 514 530 458
2538 5 586 514 530 590
2539 6 442 514 586 6
2540 7 442 514 586 518
2541 8 530 514 586 6
2542 9 530 514 586 518
2543 10 449 726 774 616
2544 11 449 726 774 702
2545 12 781 726 774 616
2546 13 781 726 774 702
2547 10 449 726 781 617
2548 11 449 726 781 709
2549 12 774 726 781 617
2550 13 774 726 781 709
2551 6 458 530 590 8
2552 7 458 530 590 518
2553 8 514 530 590 8
2554 9 514 530 590 518
2555 6 476 548 608 1231
2556 7 476 548 608 563
2557 8 503 548 608 1231
2558 9 503 548 608 563
2559 10 492 555 585 412
2560 11 492 555 585 513
2561 12 591 555 585 412
2562 13 591 555 585 513
2563 10 492 555 591 1231
2564 11 492 555 591 531
2565 12 585 555 591 1231
2566 13 585 555 591 531
2567 1 503 575 1227 1385
2568 1 503 575 1227 1394
2569 1 503 575 1227 580
2570 2 563 575 1227 1385
2571 2 563 575 1227 1394
2572 2 563 575 1227 580
2573 1 548 608 1231 1405
2574 1 548 608 1231 591
2575 1 548 608 1231 1423
2576 2 563 608 1231 1405
2577 2 563 608 1231 591
2578 2 563 608 1231 1423
2579 3 424 496 516 444
2580 4 424 496 516 588
2581 4 568 496 516 444
2582 5 568 496 516 588
2583 6 424 496 568 1226
2584 7 424 496 568 520
2585 8 516 496 568 1226
2586 9 516 496 568 520
2587 3 427 499 511 439
2588 4 427 499 511 583
2589 4 571 499 511 439
2590 5 571 499 511 583
2591 6 427 499 571 617
2592 7 427 499 571 523
2593 8 511 499 571 617
2594 9 511 499 571 523
2595 3 432 504 508 436
2596 4 432 504 508 580
2597 4 576 504 508 436
2598 5 576 504 508 580
2599 6 432 504 576 6
2600 7 432 504 576 528
2601 8 508 504 576 6
2602 9 508 504 576 528
2603 6 436 508 580 1227
2604 7 436 508 580 528
2605 8 504 508 580 1227
2606 9 504 508 580 528
2607 6 439 511 583 1
2608 7 439 511 583 523
2609 8 499 511 583 1
2610 9 499 511 583 523
2611 6 444 516 588 616
2612 7 444 516 588 520
2613 8 496 516 588 616
2614 9 496 516 588 520
2615 10 450 109 157 1
2616 11 450 109 157 85
2617 12 174 109 157 1
2618 13 174 109 157 85
2619 10 450 109 174 6
2620 11 450 109 174 102
2621 12 157 109 174 6
2622 13 157 109 174 102
2623 1 574 616 774 702
2624 2 574 616 774 726
2625 1 789 616 774 702
2626 2 789 616 774 726
2627 1 588 616 774 702
2628 2 588 616 774 726
2629 1 774 616 789 717
2630 2 774 616 789 759
2631 1 574 616 789 717
2632 2 574 616 789 759
2633 1 588 616 789 717
2634 2 588 616 789 759
2635 10 453 528 576 6
2636 11 453 528 576 504
2637 12 580 528 576 6
2638 13 580 528 576 504
2639 10 453 528 580 1227
2640 11 453 528 580 508
2641 12 576 528 580 1227
2642 13 576 528 580 508
2643 1 496 568 1226 1382
2644 1 496 568 1226 1397
2645 1 496 568 1226 587
2646 2 520 568 1226 1382
2647 2 520 568 1226 1397
2648 2 520 568 1226 587
2649 1 499 571 617 777
2650 1 499 571 617 781
2651 1 499 571 617 579
2652 2 523 571 617 777
2653 2 523 571 617 781
2654 2 523 571 617 579
2655 1 508 580 1227 1385
2656 1 508 580 1227 575
2657 1 508 580 1227 1394
2658 2 528 580 1227 1385
2659 2 528 580 1227 575
2660 2 528 580 1227 1394
2661 1 591 1231 1405 1345
2662 2 591 1231 1405 1369
2663 1 1423 1231 1405 1345
2664 2 1423 1231 1405 1369
2665 1 608 1231 1405 1345
2666 2 608 1231 1405 1369
2667 1 1405 1231 1423 1363
2668 2 1405 1231 1423 1375
2669 1 591 1231 1423 1363
2670 2 591 1231 1423 1375
2671 1 608 1231 1423 1363
2672 2 608 1231 1423 1375
2673 1 575 1227 1385 1313
2674 2 575 1227 1385 1337
2675 1 1394 1227 1385 1313
2676 2 1394 1227 1385 1337
2677 1 580 1227 1385 1313
2678 2 580 1227 1385 1337
2679 1 1385 1227 1394 1322
2680 2 1385 1227 1394 1342
2681 1 575 1227 1394 1322
2682 2 575 1227 1394 1342
2683 1 580 1227 1394 1322
2684 2 580 1227 1394 1342
2685 10 445 1337 1385 1227
2686 11 445 1337 1385 1313
2687 12 1397 1337 1385 1227
2688 13 1397 1337 1385 1313
2689 10 445 1337 1397 1226
2690 11 445 1337 1397 1325
2691 12 1385 1337 1397 1226
2692 13 1385 1337 1397 1325
2693 10 447 525 573 413
2694 11 447 525 573 501
2695 12 611 525 573 413
2696 13 611 525 573 501
2697 10 447 525 611 8
2698 11 447 525 611 551
2699 12 573 525 611 8
2700 13 573 525 611 551
2701 10 1306 1370 1382 1226
2702 11 1306 1370 1382 1310
2703 12 1426 1370 1382 1226
2704 13 1426 1370 1382 1310
2705 10 1306 1370 1426 1440
2706 11 1306 1370 1426 1366
2707 12 1382 1370 1426 1440
2708 13 1382 1370 1426 1366
2709 3 1245 1317 1367 1295
2710 4 1245 1317 1367 1427
2711 4 1389 1317 1367 1295
2712 5 1389 1317 1367 1427
2713 6 1245 1317 1389 1229
2714 7 1245 1317 1389 1341
2715 8 1367 1317 1389 1229
2716 9 1367 1317 1389 1341
2717 3 1250 1322 1354 1282
2718 4 1250 1322 1354 1414
2719 4 1394 1322 1354 1282
2720 5 1394 1322 1354 1414
2721 6 1250 1322 1394 1227
2722 7 1250 1322 1394 1342
2723 8 1354 1322 1394 1227
2724 9 1354 1322 1394 1342
2725 1 1412 1440 1620 1560
2726 2 1412 1440 1620 1584
2727 1 1626 1440 1620 1560
2728 2 1626 1440 1620 1584
2729 1 1426 1440 1620 1560
2730 2 1426 1440 1620 1584
2731 1 1412 1440 1626 1566
2732 2 1412 1440 1626 1573
2733 1 1620 1440 1626 1566
2734 2 1620 1440 1626 1573
2735 1 1426 1440 1626 1566
2736 2 1426 1440 1626 1573
2737 10 1267 1342 1394 1227
2738 11 1267 1342 1394 1322
2739 12 1414 1342 1394 1227
2740 13 1414 1342 1394 1322
2741 10 1267 1342 1414 826
2742 11 1267 1342 1414 1354
2743 12 1394 1342 1414 826
2744 13 1394 1342 1414 1354
2745 3 1273 1345 1362 1290
2746 4 1273 1345 1362 1422
2747 4 1405 1345 1362 1290
2748 5 1405 1345 1362 1422
2749 6 1273 1345 1405 1231
2750 7 1273 1345 1405 1369
2751 8 1362 1345 1405 1231
2752 9 1362 1345 1405 1369
2753 6 1282 1354 1414 826
2754 7 1282 1354 1414 1342
2755 8 1322 1354 1414 826
2756 9 1322 1354 1414 1342
2757 6 1290 1362 1422 1236
2758 7 1290 1362 1422 1369
2759 8 1345 1362 1422 1236
2760 9 1345 1362 1422 1369
2761 6 1295 1367 1427 824
2762 7 1295 1367 1427 1341
2763 8 1317 1367 1427 824
2764 9 1317 1367 1427 1341
2765 10 1307 1580 1599 1229
2766 11 1307 1580 1599 1527
2767 12 1616 1580 1599 1229
2768 13 1616 1580 1599 1527
2769 10 1307 1580 1616 1236
2770 11 1307 1580 1616 1556
2771 12 1599 1580 1616 1236
2772 13 1599 1580 1616 1556
2773 10 1304 964 1000 824
2774 11 1304 964 1000 940
2775 12 1020 964 1000 824
2776 13 1020 964 1000 940
2777 10 1304 964 1020 826
2778 11 1304 964 1020 960
2779 12 1000 964 1020 826
2780 13 1000 964 1020 960
2781 3 1239 1311 1365 1293
2782 4 1239 1311 1365 1425
2783 4 1383 1311 1365 1293
2784 5 1383 1311 1365 1425
2785 6 1239 1311 1383 817
2786 7 1239 1311 1383 1335
2787 8 1365 1311 1383 817
2788 9 1365 1311 1383 1335
2789 3 1241 1313 1325 1253
2790 4 1241 1313 1325 1397
2791 4 1385 1313 1325 1253
2792 5 1385 1313 1325 1397
2793 6 1241 1313 1385 1227
2794 7 1241 1313 1385 1337
2795 8 1325 1313 1385 1227
2796 9 1325 1313 1385 1337
2797 3 1251 1323 1352 1280
2798 4 1251 1323 1352 1412
2799 4 1395 1323 1352 1280
2800 5 1395 1323 1352 1412
2801 6 1251 1323 1395 1433
2802 7 1251 1323 1395 1376
2803 8 1352 1323 1395 1433
2804 9 1352 1323 1395 1376
2805 6 1253 1325 1397 1226
2806 7 1253 1325 1397 1337
2807 8 1313 1325 1397 1226
2808 9 1313 1325 1397 1337
2809 1 1352 1412 1440 1620
2810 1 1352 1412 1440 1626
2811 1 1352 1412 1440 1426
2812 2 1376 1412 1440 1620
2813 2 1376 1412 1440 1626
2814 2 1376 1412 1440 1426
2815 6 1280 1352 1412 1440
2816 7 1280 1352 1412 1376
2817 8 1323 1352 1412 1440
2818 9 1323 1352 1412 1376
2819 6 1293 1365 1425 826
2820 7 1293 1365 1425 1335
2821 8 1311 1365 1425 826
2822 9 1311 1365 1425 1335
2823 1 1323 1395 1433 1387
2824 1 1323 1395 1433 1593
2825 1 1323 1395 1433 1597
2826 2 1376 1395 1433 1387
2827 2 1376 1395 1433 1593
2828 2 1376 1395 1433 1597
2829 1 1387 1433 1593 1521
2830 2 1387 1433 1593 1545
2831 1 1597 1433 1593 1521
2832 2 1597 1433 1593 1545
2833 1 1395 1433 1593 1521
2834 2 1395 1433 1593 1545
2835 1 1387 1433 1597 1525
2836 2 1387 1433 1597 1542
2837 1 1593 1433 1597 1525
2838 2 1593 1433 1597 1542
2839 1 1395 1433 1597 1525
2840 2 1395 1433 1597 1542
2841 10 1262 1339 1387 1433
2842 11 1262 1339 1387 1315
2843 12 1399 1339 1387 1433
2844 13 1399 1339 1387 1315
2845 10 1262 1339 1399 817
2846 11 1262 1339 1399 1327
2847 12 1387 1339 1399 817
2848 13 1387 1339 1399 1327
2849 10 1300 563 575 1227
2850 11 1300 563 575 503
2851 12 608 563 575 1227
2852 13 608 563 575 503
2853 10 1300 563 608 1231
2854 11 1300 563 608 548
2855 12 575 563 608 1231
2856 13 575 563 608 548
2857 1 1332 1404 1432 1590
2858 1 1332 1404 1432 1390
2859 1 1332 1404 1432 1605
2860 2 1336 1404 1432 1590
2861 2 1336 1404 1432 1390
2862 2 1336 1404 1432 1605
2863 3 1242 1314 1321 1249
2864 4 1242 1314 1321 1393
2865 4 1386 1314 1321 1249
2866 5 1386 1314 1321 1393
2867 6 1242 1314 1386 1228
2868 7 1242 1314 1386 1338
2869 8 1321 1314 1386 1228
2870 9 1321 1314 1386 1338
2871 3 1247 1319 1364 1292
2872 4 1247 1319 1364 1424
2873 4 1391 1319 1364 1292
2874 5 1391 1319 1364 1424
2875 6 1247 1319 1391 411
2876 7 1247 1319 1391 1379
2877 8 1364 1319 1391 411
2878 9 1364 1319 1391 1379
2879 6 1249 1321 1393 1229
2880 7 1249 1321 1393 1338
2881 8 1314 1321 1393 1229
2882 9 1314 1321 1393 1338
2883 3 1258 1330 1346 1274
2884 4 1258 1330 1346 1406
2885 4 1402 1330 1346 1274
2886 5 1402 1330 1346 1406
2887 6 1258 1330 1402 822
2888 7 1258 1330 1402 1334
2889 8 1346 1330 1402 822
2890 9 1346 1330 1402 1334
2891 10 1265 1542 1590 1432
2892 11 1265 1542 1590 1518
2893 12 1597 1542 1590 1432
2894 13 1597 1542 1590 1518
2895 10 1265 1542 1597 1433
2896 11 1265 1542 1597 1525
2897 12 1590 1542 1597 1433
2898 13 1590 1542 1597 1525
2899 6 1274 1346 1406 824
2900 7 1274 1346 1406 1334
2901 8 1330 1346 1406 824
2902 9 1330 1346 1406 1334
2903 6 1292 1364 1424 415
2904 7 1292 1364 1424 1379
2905 8 1319 1364 1424 415
2906 9 1319 1364 1424 1379
2907 10 1308 1371 1401 1228
2908 11 1308 1371 1401 1329
2909 12 1407 1371 1401 1228
2910 13 1407 1371 1401 1329
2911 10 1308 1371 1407 415
2912 11 1308 1371 1407 1347
2913 12 1401 1371 1407 415
2914 13 1401 1371 1407 1347
2915 1 1384 410 566 494
2916 2 1384 410 566 554
2917 1 581 410 566 494
2918 2 581 410 566 554
2919 1 1403 410 566 494
2920 2 1403 410 566 554
2921 1 566 410 1384 1312
2922 2 566 410 1384 1336
2923 1 581 410 1384 1312
2924 2 581 410 1384 1336
2925 1 1403 410 1384 1312
2926 2 1403 410 1384 1336
2927 1 566 410 581 509
2928 2 566 410 581 521
2929 1 1384 410 581 509
2930 2 1384 410 581 521
2931 1 1403 410 581 509
2932 2 1403 410 581 521
2933 1 566 410 1403 1331
2934 2 566 410 1403 1377
2935 1 1384 410 1403 1331
2936 2 1384 410 1403 1377
2937 1 581 410 1403 1331
2938 2 581 410 1403 1377
2939 3 1240 1312 1332 1260
2940 4 1240 1312 1332 1404
2941 4 1384 1312 1332 1260
2942 5 1384 1312 1332 1404
2943 6 1240 1312 1384 410
2944 7 1240 1312 1384 1336
2945 8 1332 1312 1384 410
2946 9 1332 1312 1384 1336
2947 3 1243 1315 1327 1255
2948 4 1243 1315 1327 1399
2949 4 1387 1315 1327 1255
2950 5 1387 1315 1327 1399
2951 6 1243 1315 1387 1433
2952 7 1243 1315 1387 1339
2953 8 1327 1315 1387 1433
2954 9 1327 1315 1387 1339
2955 3 1248 1320 1324 1252
2956 4 1248 1320 1324 1396
2957 4 1392 1320 1324 1252
2958 5 1392 1320 1324 1396
2959 6 1248 1320 1392 822
2960 7 1248 1320 1392 1344
2961 8 1324 1320 1392 822
2962 9 1324 1320 1392 1344
2963 6 1252 1324 1396 411
2964 7 1252 1324 1396 1344
2965 8 1320 1324 1396 411
2966 9 1320 1324 1396 1344
2967 6 1255 1327 1399 817
2968 7 1255 1327 1399 1339
2969 8 1315 1327 1399 817
2970 9 1315 1327 1399 1339
2971 6 1260 1332 1404 1432
2972 7 1260 1332 1404 1336
2973 8 1312 1332 1404 1432
2974 9 1312 1332 1404 1336
2975 10 1266 925 973 817
2976 11 1266 925 973 901
2977 12 990 925 973 817
2978 13 990 925 973 901
2979 10 1266 925 990 822
2980 11 1266 925 990 918
2981 12 973 925 990 822
2982 13 973 925 990 918
2983 1 1390 1432 1590 1518
2984 2 1390 1432 1590 1542
2985 1 1605 1432 1590 1518
2986 2 1605 1432 1590 1542
2987 1 1404 1432 1590 1518
2988 2 1404 1432 1590 1542
2989 1 1590 1432 1605 1533
2990 2 1590 1432 1605 1575
2991 1 1390 1432 1605 1533
2992 2 1390 1432 1605 1575
2993 1 1404 1432 1605 1533
2994 2 1404 1432 1605 1575
2995 10 1269 1344 1392 822
2996 11 1269 1344 1392 1320
2997 12 1396 1344 1392 822
2998 13 1396 1344 1392 1320
2999 10 1269 1344 1396 411
3000 11 1269 1344 1396 1324
3001 12 1392 1344 1396 411
3002 13 1392 1344 1396 1324
3003 1 1315 1387 1433 1593
3004 1 1315 1387 1433 1597
3005 1 1315 1387 1433 1395
3006 2 1339 1387 1433 1593
3007 2 1339 1387 1433 1597
3008 2 1339 1387 1433 1395
3009 1 1407 415 589 529
3010 2 1407 415 589 553
3011 1 607 415 589 529
3012 2 607 415 589 553
3013 1 1424 415 589 529
3014 2 1424 415 589 553
3015 1 589 415 1407 1347
3016 2 589 415 1407 1371
3017 1 607 415 1407 1347
3018 2 607 415 1407 1371
3019 1 1424 415 1407 1347
3020 2 1424 415 1407 1371
3021 1 589 415 607 547
3022 2 589 415 607 559
3023 1 1407 415 607 547
3024 2 1407 415 607 559
3025 1 1424 415 607 547
3026 2 1424 415 607 559
3027 1 589 415 1424 1364
3028 2 589 415 1424 1379
3029 1 1407 415 1424 1364
3030 2 1407 415 1424 1379
3031 1 607 415 1424 1364
3032 2 607 415 1424 1379
3033 1 1391 411 569 497
3034 2 1391 411 569 521
3035 1 578 411 569 497
3036 2 578 411 569 521
3037 1 1396 411 569 497
3038 2 1396 411 569 521
3039 1 569 411 1391 1319
3040 2 569 411 1391 1379
3041 1 578 411 1391 1319
3042 2 578 411 1391 1379
3043 1 1396 411 1391 1319
3044 2 1396 411 1391 1379
3045 1 569 411 578 506
3046 2 569 411 578 526
3047 1 1391 411 578 506
3048 2 1391 411 578 526
3049 1 1396 411 578 506
3050 2 1396 411 578 526
3051 1 569 411 1396 1324
3052 2 569 411 1396 1344
3053 1 1391 411 1396 1324
3054 2 1391 411 1396 1344
3055 1 578 411 1396 1324
3056 2 578 411 1396 1344
3057 10 1261 521 569 411
3058 11 1261 521 569 497
3059 12 581 521 569 411
3060 13 581 521 569 497
3061 10 1261 521 581 410
3062 11 1261 521 581 509
3063 12 569 521 581 410
3064 13 569 521 581 509
3065 10 1263 1341 1389 1229
3066 11 1263 1341 1389 1317
3067 12 1427 1341 1389 1229
3068 13 1427 1341 1389 1317
3069 10 1263 1341 1427 824
3070 11 1263 1341 1427 1367
3071 12 1389 1341 1427 824
3072 13 1389 1341 1427 1367
3073 1 802 214 390 330
3074 2 802 214 390 354
3075 1 813 214 390 330
3076 2 813 214 390 354
3077 1 408 214 390 330
3078 2 408 214 390 354
3079 2 390 214 802 730
3080 1 390 214 802 742
3081 2 813 214 802 730
3082 1 813 214 802 742
3083 2 408 214 802 730
3084 1 408 214 802 742
3085 2 390 214 813 723
3086 1 390 214 813 753
3087 2 802 214 813 723
3088 1 802 214 813 753
3089 2 408 214 813 723
3090 1 408 214 813 753
3091 1 390 214 408 348
3092 2 390 214 408 352
3093 1 802 214 408 348
3094 2 802 214 408 352
3095 1 813 214 408 348
3096 2 813 214 408 352
3097 3 256 328 348 276
3098 4 256 328 348 408
3099 4 388 328 348 276
3100 5 388 328 348 408
3101 6 256 328 388 212
3102 7 256 328 388 352
3103 8 348 328 388 212
3104 9 348 328 388 352
3105 3 259 331 343 271
3106 4 259 331 343 403
3107 4 391 331 343 271
3108 5 391 331 343 403
3109 6 259 331 391 215
3110 7 259 331 391 355
3111 8 343 331 391 215
3112 9 343 331 391 355
3113 3 264 336 340 268
3114 4 264 336 340 400
3115 4 396 336 340 268
3116 5 396 336 340 400
3117 6 264 336 396 216
3118 7 264 336 396 360
3119 8 340 336 396 216
3120 9 340 336 396 360
3121 6 268 340 400 213
3122 7 268 340 400 360
3123 8 336 340 400 213
3124 9 336 340 400 360
3125 6 271 343 403 211
3126 7 271 343 403 355
3127 8 331 343 403 211
3128 9 331 343 403 355
3129 6 276 348 408 214
3130 7 276 348 408 352
3131 8 328 348 408 214
3132 9 328 348 408 352
3133 10 285 156 192 12
3134 11 285 156 192 132
3135 12 196 156 192 12
3136 13 196 156 192 132
3137 10 285 156 196 9
3138 11 285 156 196 136
3139 12 192 156 196 9
3140 13 192 156 196 136
3141 10 252 723 771 205
3142 11 252 723 771 699
3143 12 813 723 771 205
3144 13 813 723 771 699
3145 10 252 723 813 214
3146 11 252 723 813 753
3147 12 771 723 813 214
3148 13 771 723 813 753
3149 1 395 9 185 125
3150 2 395 9 185 149
3151 1 398 9 185 125
3152 2 398 9 185 149
3153 1 196 9 185 125
3154 2 196 9 185 149
3155 2 185 9 395 323
3156 1 185 9 395 335
3157 2 398 9 395 323
3158 1 398 9 395 335
3159 2 196 9 395 323
3160 1 196 9 395 335
3161 1 185 9 398 338
3162 2 185 9 398 358
3163 1 395 9 398 338
3164 2 395 9 398 358
3165 1 196 9 398 338
3166 2 196 9 398 358
3167 1 185 9 196 136
3168 2 185 9 196 156
3169 1 395 9 196 136
3170 2 395 9 196 156
3171 1 398 9 196 136
3172 2 398 9 196 156
3173 10 282 349 385 211
3174 11 282 349 385 325
3175 12 402 349 385 211
3176 13 402 349 385 325
3177 10 282 349 402 216
3178 11 282 349 402 342
3179 12 385 349 402 216
3180 13 385 349 402 342
3181 3 218 290 346 274
3182 4 218 290 346 406
3183 4 362 290 346 274
3184 5 362 290 346 406
3185 6 218 290 362 206
3186 7 218 290 362 350
3187 8 346 290 362 206
3188 9 346 290 362 350
3189 3 236 308 335 263
3190 4 236 308 335 395
3191 4 380 308 335 263
3192 5 380 308 335 395
3193 6 236 308 380 205
3194 7 236 308 380 323
3195 8 335 308 380 205
3196 9 335 308 380 323
3197 3 258 330 337 265
3198 4 258 330 337 397
3199 4 390 330 337 265
3200 5 390 330 337 397
3201 6 258 330 390 214
3202 7 258 330 390 354
3203 8 337 330 390 214
3204 9 337 330 390 354
3205 6 263 335 395 9
3206 7 263 335 395 323
3207 8 308 335 395 9
3208 9 308 335 395 323
3209 6 265 337 397 215
3210 7 265 337 397 354
3211 8 330 337 397 215
3212 9 330 337 397 354
3213 6 274 346 406 12
3214 7 274 346 406 350
3215 8 290 346 406 12
3216 9 290 346 406 350
3217 10 281 354 390 214
3218 11 281 354 390 330
3219 12 397 354 390 214
3220 13 397 354 390 330
3221 10 281 354 397 215
3222 11 281 354 397 337
3223 12 390 354 397 215
3224 13 390 354 397 337
3225 2 388 212 794 722
3226 1 388 212 794 734
3227 2 401 212 794 722
3228 1 401 212 794 734
3229 2 815 212 794 722
3230 1 815 212 794 734
3231 1 794 212 388 328
3232 2 794 212 388 352
3233 1 401 212 388 328
3234 2 401 212 388 352
3235 1 815 212 388 328
3236 2 815 212 388 352
3237 1 794 212 401 341
3238 2 794 212 401 353
3239 1 388 212 401 341
3240 2 388 212 401 353
3241 1 815 212 401 341
3242 2 815 212 401 353
3243 2 794 212 815 729
3244 1 794 212 815 755
3245 2 388 212 815 729
3246 1 388 212 815 755
3247 2 401 212 815 729
3248 1 401 212 815 755
3249 10 277 353 389 213
3250 11 277 353 389 329
3251 12 401 353 389 213
3252 13 401 353 389 329
3253 10 277 353 401 212
3254 11 277 353 401 341
3255 12 389 353 401 212
3256 13 389 353 401 341
3257 1 771 205 361 289
3258 2 771 205 361 313
3259 1 787 205 361 289
3260 2 787 205 361 313
3261 1 380 205 361 289
3262 2 380 205 361 313
3263 1 361 205 771 699
3264 2 361 205 771 723
3265 1 787 205 771 699
3266 2 787 205 771 723
3267 1 380 205 771 699
3268 2 380 205 771 723
3269 1 361 205 787 715
3270 2 361 205 787 727
3271 1 771 205 787 715
3272 2 771 205 787 727
3273 1 380 205 787 715
3274 2 380 205 787 727
3275 1 361 205 380 308
3276 2 361 205 380 323
3277 1 771 205 380 308
3278 2 771 205 380 323
3279 1 787 205 380 308
3280 2 787 205 380 323
3281 10 279 1173 1199 206
3282 11 279 1173 1199 1127
3283 12 1209 1173 1199 206
3284 13 1209 1173 1199 1127
3285 10 279 1173 1209 215
3286 11 279 1173 1209 1149
3287 12 1199 1173 1209 215
3288 13 1199 1173 1209 1149
3289 10 250 722 790 210
3290 11 250 722 790 718
3291 12 794 722 790 210
3292 13 794 722 790 718
3293 10 250 722 794 212
3294 11 250 722 794 734
3295 12 790 722 794 212
3296 13 790 722 794 734
3297 3 224 296 339 267
3298 4 224 296 339 399
3299 4 368 296 339 267
3300 5 368 296 339 399
3301 6 224 296 368 210
3302 7 224 296 368 320
3303 8 339 296 368 210
3304 9 339 296 368 320
3305 3 237 309 327 255
3306 4 237 309 327 387
3307 4 381 309 327 255
3308 5 381 309 327 387
3309 6 237 309 381 208
3310 7 237 309 381 351
3311 8 327 309 381 208
3312 9 327 309 381 351
3313 10 251 320 368 210
3314 11 251 320 368 296
3315 12 399 320 368 210
3316 13 399 320 368 296
3317 10 251 320 399 1031
3318 11 251 320 399 339
3319 12 368 320 399 1031
3320 13 368 320 399 339
3321 6 255 327 387 1027
3322 7 255 327 387 351
3323 8 309 327 387 1027
3324 9 309 327 387 351
3325 3 257 329 341 269
3326 4 257 329 341 401
3327 4 389 329 341 269
3328 5 389 329 341 401
3329 6 257 329 389 213
3330 7 257 329 389 353
3331 8 341 329 389 213
3332 9 341 329 389 353
3333 6 267 339 399 1031
3334 7 267 339 399 320
3335 8 296 339 399 1031
3336 9 296 339 399 320
3337 6 269 341 401 212
3338 7 269 341 401 353
3339 8 329 341 401 212
3340 9 329 341 401 353
3341 10 283 154 166 208
3342 11 283 154 166 94
3343 12 194 154 166 208
3344 13 194 154 166 94
3345 10 283 154 194 213
3346 11 283 154 194 134
3347 12 166 154 194 213
3348 13 166 154 194 134
3349 10 248 316 364 1022
3350 11 248 316 364 292
3351 12 384 316 364 1022
3352 13 384 316 364 292
3353 10 248 316 384 4
3354 11 248 316 384 312
3355 12 364 316 384 4
3356 13 364 316 384 312
3357 1 327 387 1027 1201
3358 1 327 387 1027 1219
3359 1 327 387 1027 404
3360 2 351 387 1027 1201
3361 2 351 387 1027 1219
3362 2 351 387 1027 404
3363 2 320 399 1031 1207
3364 2 320 399 1031 393
3365 2 320 399 1031 1213
3366 1 339 399 1031 1207
3367 1 339 399 1031 393
3368 1 339 399 1031 1213
3369 1 311 383 1022 1178
3370 1 311 383 1022 364
3371 1 311 383 1022 1193
3372 2 357 383 1022 1178
3373 2 357 383 1022 364
3374 2 357 383 1022 1193
3375 1 780 210 368 296
3376 2 780 210 368 320
3377 1 378 210 368 296
3378 2 378 210 368 320
3379 1 790 210 368 296
3380 2 790 210 368 320
3381 1 368 210 780 708
3382 2 368 210 780 732
3383 1 378 210 780 708
3384 2 378 210 780 732
3385 1 790 210 780 708
3386 2 790 210 780 732
3387 1 368 210 378 306
3388 2 368 210 378 313
3389 1 780 210 378 306
3390 2 780 210 378 313
3391 1 790 210 378 306
3392 2 790 210 378 313
3393 1 368 210 790 718
3394 2 368 210 790 722
3395 1 780 210 790 718
3396 2 780 210 790 722
3397 1 378 210 790 718
3398 2 378 210 790 722
3399 3 217 289 306 234
3400 4 217 289 306 378
3401 4 361 289 306 234
3402 5 361 289 306 378
3403 6 217 289 361 205
3404 7 217 289 361 313
3405 8 306 289 361 205
3406 9 306 289 361 313
3407 3 226 298 338 266
3408 4 226 298 338 398
3409 4 370 298 338 266
3410 5 370 298 338 398
3411 6 226 298 370 4
3412 7 226 298 370 358
3413 8 338 298 370 4
3414 9 338 298 370 358
3415 6 234 306 378 210
3416 7 234 306 378 313
3417 8 289 306 378 210
3418 9 289 306 378 313
3419 3 239 311 333 261
3420 4 239 311 333 393
3421 4 383 311 333 261
3422 5 383 311 333 393
3423 6 239 311 383 1022
3424 7 239 311 383 357
3425 8 333 311 383 1022
3426 9 333 311 383 357
3427 1 333 393 1031 1207
3428 1 333 393 1031 1213
3429 1 333 393 1031 399
3430 2 357 393 1031 1207
3431 2 357 393 1031 1213
3432 2 357 393 1031 399
3433 6 261 333 393 1031
3434 7 261 333 393 357
3435 8 311 333 393 1031
3436 9 311 333 393 357
3437 6 266 338 398 9
3438 7 266 338 398 358
3439 8 298 338 398 9
3440 9 298 338 398 358
3441 10 278 1171 1207 1031
3442 11 278 1171 1207 1147
3443 12 1219 1171 1207 1031
3444 13 1219 1171 1207 1147
3445 10 278 1171 1219 1027
3446 11 278 1171 1219 1159
3447 12 1207 1171 1219 1027
3448 13 1207 1171 1219 1159
3449 1 393 1031 1207 1147
3450 2 393 1031 1207 1171
3451 1 1213 1031 1207 1147
3452 2 1213 1031 1207 1171
3453 1 399 1031 1207 1147
3454 2 399 1031 1207 1171
3455 1 1207 1031 1213 1153
3456 2 1207 1031 1213 1170
3457 1 393 1031 1213 1153
3458 2 393 1031 1213 1170
3459 1 399 1031 1213 1153
3460 2 399 1031 1213 1170
3461 10 244 323 380 205
3462 11 244 323 380 308
3463 12 395 323 380 205
3464 13 395 323 380 308
3465 10 244 323 395 9
3466 11 244 323 395 335
3467 12 380 323 395 9
3468 13 380 323 395 335
3469 1 1618 1030 1206 1146
3470 2 1618 1030 1206 1170
3471 1 1629 1030 1206 1146
3472 2 1629 1030 1206 1170
3473 1 1224 1030 1206 1146
3474 2 1224 1030 1206 1170
3475 2 1206 1030 1618 1546
3476 1 1206 1030 1618 1558
3477 2 1629 1030 1618 1546
3478 1 1629 1030 1618 1558
3479 2 1224 1030 1618 1546
3480 1 1224 1030 1618 1558
3481 2 1206 1030 1629 1539
3482 1 1206 1030 1629 1569
3483 2 1618 1030 1629 1539
3484 1 1618 1030 1629 1569
3485 2 1224 1030 1629 1539
3486 1 1224 1030 1629 1569
3487 1 1206 1030 1224 1164
3488 2 1206 1030 1224 1168
3489 1 1618 1030 1224 1164
3490 2 1618 1030 1224 1168
3491 1 1629 1030 1224 1164
3492 2 1629 1030 1224 1168
3493 3 1072 1144 1164 1092
3494 4 1072 1144 1164 1224
3495 4 1204 1144 1164 1092
3496 5 1204 1144 1164 1224
3497 6 1072 1144 1204 1028
3498 7 1072 1144 1204 1168
3499 8 1164 1144 1204 1028
3500 9 1164 1144 1204 1168
3501 3 1075 1147 1159 1087
3502 4 1075 1147 1159 1219
3503 4 1207 1147 1159 1087
3504 5 1207 1147 1159 1219
3505 6 1075 1147 1207 1031
3506 7 1075 1147 1207 1171
3507 8 1159 1147 1207 1031
3508 9 1159 1147 1207 1171
3509 3 1080 1152 1156 1084
3510 4 1080 1152 1156 1216
3511 4 1212 1152 1156 1084
3512 5 1212 1152 1156 1216
3513 6 1080 1152 1212 1032
3514 7 1080 1152 1212 1176
3515 8 1156 1152 1212 1032
3516 9 1156 1152 1212 1176
3517 6 1084 1156 1216 1029
3518 7 1084 1156 1216 1176
3519 8 1152 1156 1216 1029
3520 9 1152 1156 1216 1176
3521 6 1087 1159 1219 1027
3522 7 1087 1159 1219 1171
3523 8 1147 1159 1219 1027
3524 9 1147 1159 1219 1171
3525 6 1092 1164 1224 1030
3526 7 1092 1164 1224 1168
3527 8 1144 1164 1224 1030
3528 9 1144 1164 1224 1168
3529 10 1101 972 1008 828
3530 11 1101 972 1008 948
3531 12 1012 972 1008 828
3532 13 1012 972 1008 948
3533 10 1101 972 1012 825
3534 11 1101 972 1012 952
3535 12 1008 972 1012 825
3536 13 1008 972 1012 952
3537 10 1068 1539 1587 1021
3538 11 1068 1539 1587 1515
3539 12 1629 1539 1587 1021
3540 13 1629 1539 1587 1515
3541 10 1068 1539 1629 1030
3542 11 1068 1539 1629 1569
3543 12 1587 1539 1629 1030
3544 13 1587 1539 1629 1569
3545 1 1211 825 1001 941
3546 2 1211 825 1001 965
3547 1 1214 825 1001 941
3548 2 1214 825 1001 965
3549 1 1012 825 1001 941
3550 2 1012 825 1001 965
3551 2 1001 825 1211 1139
3552 1 1001 825 1211 1151
3553 2 1214 825 1211 1139
3554 1 1214 825 1211 1151
3555 2 1012 825 1211 1139
3556 1 1012 825 1211 1151
3557 1 1001 825 1214 1154
3558 2 1001 825 1214 1174
3559 1 1211 825 1214 1154
3560 2 1211 825 1214 1174
3561 1 1012 825 1214 1154
3562 2 1012 825 1214 1174
3563 1 1001 825 1012 952
3564 2 1001 825 1012 972
3565 1 1211 825 1012 952
3566 2 1211 825 1012 972
3567 1 1214 825 1012 952
3568 2 1214 825 1012 972
3569 10 1098 1165 1201 1027
3570 11 1098 1165 1201 1141
3571 12 1218 1165 1201 1027
3572 13 1218 1165 1201 1141
3573 10 1098 1165 1218 1032
3574 11 1098 1165 1218 1158
3575 12 1201 1165 1218 1032
3576 13 1201 1165 1218 1158
3577 3 1034 1106 1162 1090
3578 4 1034 1106 1162 1222
3579 4 1178 1106 1162 1090
3580 5 1178 1106 1162 1222
3581 6 1034 1106 1178 1022
3582 7 1034 1106 1178 1166
3583 8 1162 1106 1178 1022
3584 9 1162 1106 1178 1166
3585 3 1052 1124 1151 1079
3586 4 1052 1124 1151 1211
3587 4 1196 1124 1151 1079
3588 5 1196 1124 1151 1211
3589 6 1052 1124 1196 1021
3590 7 1052 1124 1196 1139
3591 8 1151 1124 1196 1021
3592 9 1151 1124 1196 1139
3593 3 1074 1146 1153 1081
3594 4 1074 1146 1153 1213
3595 4 1206 1146 1153 1081
3596 5 1206 1146 1153 1213
3597 6 1074 1146 1206 1030
3598 7 1074 1146 1206 1170
3599 8 1153 1146 1206 1030
3600 9 1153 1146 1206 1170
3601 6 1079 1151 1211 825
3602 7 1079 1151 1211 1139
3603 8 1124 1151 1211 825
3604 9 1124 1151 1211 1139
3605 6 1081 1153 1213 1031
3606 7 1081 1153 1213 1170
3607 8 1146 1153 1213 1031
3608 9 1146 1153 1213 1170
3609 6 1090 1162 1222 828
3610 7 1090 1162 1222 1166
3611 8 1106 1162 1222 828
3612 9 1106 1162 1222 1166
3613 10 1097 1170 1206 1030
3614 11 1097 1170 1206 1146
3615 12 1213 1170 1206 1030
3616 13 1213 1170 1206 1146
3617 10 1097 1170 1213 1031
3618 11 1097 1170 1213 1153
3619 12 1206 1170 1213 1031
3620 13 1206 1170 1213 1153
3621 2 1204 1028 1610 1538
3622 1 1204 1028 1610 1550
3623 2 1217 1028 1610 1538
3624 1 1217 1028 1610 1550
3625 2 1631 1028 1610 1538
3626 1 1631 1028 1610 1550
3627 1 1610 1028 1204 1144
3628 2 1610 1028 1204 1168
3629 1 1217 1028 1204 1144
3630 2 1217 1028 1204 1168
3631 1 1631 1028 1204 1144
3632 2 1631 1028 1204 1168
3633 1 1610 1028 1217 1157
3634 2 1610 1028 1217 1169
3635 1 1204 1028 1217 1157
3636 2 1204 1028 1217 1169
3637 1 1631 1028 1217 1157
3638 2 1631 1028 1217 1169
3639 2 1610 1028 1631 1545
3640 1 1610 1028 1631 1571
3641 2 1204 1028 1631 1545
3642 1 1204 1028 1631 1571
3643 2 1217 1028 1631 1545
3644 1 1217 1028 1631 1571
3645 10 1093 1169 1205 1029
3646 11 1093 1169 1205 1145
3647 12 1217 1169 1205 1029
3648 13 1217 1169 1205 1145
3649 10 1093 1169 1217 1028
3650 11 1093 1169 1217 1157
3651 12 1205 1169 1217 1028
3652 13 1205 1169 1217 1157
3653 1 1587 1021 1177 1105
3654 2 1587 1021 1177 1129
3655 1 1603 1021 1177 1105
3656 2 1603 1021 1177 1129
3657 1 1196 1021 1177 1105
3658 2 1196 1021 1177 1129
3659 1 1177 1021 1587 1515
3660 2 1177 1021 1587 1539
3661 1 1603 1021 1587 1515
3662 2 1603 1021 1587 1539
3663 1 1196 1021 1587 1515
3664 2 1196 1021 1587 1539
3665 1 1177 1021 1603 1531
3666 2 1177 1021 1603 1543
3667 1 1587 1021 1603 1531
3668 2 1587 1021 1603 1543
3669 1 1196 1021 1603 1531
3670 2 1196 1021 1603 1543
3671 1 1177 1021 1196 1124
3672 2 1177 1021 1196 1139
3673 1 1587 1021 1196 1124
3674 2 1587 1021 1196 1139
3675 1 1603 1021 1196 1124
3676 2 1603 1021 1196 1139
3677 10 1095 357 383 1022
3678 11 1095 357 383 311
3679 12 393 357 383 1022
3680 13 393 357 383 311
3681 10 1095 357 393 1031
3682 11 1095 357 393 333
3683 12 383 357 393 1031
3684 13 383 357 393 333
3685 10 1066 1538 1606 1026
3686 11 1066 1538 1606 1534
3687 12 1610 1538 1606 1026
3688 13 1610 1538 1606 1534
3689 10 1066 1538 1610 1028
3690 11 1066 1538 1610 1550
3691 12 1606 1538 1610 1028
3692 13 1606 1538 1610 1550
3693 3 1040 1112 1155 1083
3694 4 1040 1112 1155 1215
3695 4 1184 1112 1155 1083
3696 5 1184 1112 1155 1215
3697 6 1040 1112 1184 1026
3698 7 1040 1112 1184 1136
3699 8 1155 1112 1184 1026
3700 9 1155 1112 1184 1136
3701 3 1053 1125 1143 1071
3702 4 1053 1125 1143 1203
3703 4 1197 1125 1143 1071
3704 5 1197 1125 1143 1203
3705 6 1053 1125 1197 1024
3706 7 1053 1125 1197 1167
3707 8 1143 1125 1197 1024
3708 9 1143 1125 1197 1167
3709 10 1067 1136 1184 1026
3710 11 1067 1136 1184 1112
3711 12 1215 1136 1184 1026
3712 13 1215 1136 1184 1112
3713 10 1067 1136 1215 215
3714 11 1067 1136 1215 1155
3715 12 1184 1136 1215 215
3716 13 1184 1136 1215 1155
3717 6 1071 1143 1203 211
3718 7 1071 1143 1203 1167
3719 8 1125 1143 1203 211
3720 9 1125 1143 1203 1167
3721 3 1073 1145 1157 1085
3722 4 1073 1145 1157 1217
3723 4 1205 1145 1157 1085
3724 5 1205 1145 1157 1217
3725 6 1073 1145 1205 1029
3726 7 1073 1145 1205 1169
3727 8 1157 1145 1205 1029
3728 9 1157 1145 1205 1169
3729 6 1083 1155 1215 215
3730 7 1083 1155 1215 1136
3731 8 1112 1155 1215 215
3732 9 1112 1155 1215 1136
3733 6 1085 1157 1217 1028
3734 7 1085 1157 1217 1169
3735 8 1145 1157 1217 1028
3736 9 1145 1157 1217 1169
3737 10 1099 970 982 1024
3738 11 1099 970 982 910
3739 12 1010 970 982 1024
3740 13 1010 970 982 910
3741 10 1099 970 1010 1029
3742 11 1099 970 1010 950
3743 12 982 970 1010 1029
3744 13 982 970 1010 950
3745 10 1064 1132 1180 206
3746 11 1064 1132 1180 1108
3747 12 1200 1132 1180 206
3748 13 1200 1132 1180 1108
3749 10 1064 1132 1200 820
3750 11 1064 1132 1200 1128
3751 12 1180 1132 1200 820
3752 13 1180 1132 1200 1128
3753 1 1596 1026 1184 1112
3754 2 1596 1026 1184 1136
3755 1 1194 1026 1184 1112
3756 2 1194 1026 1184 1136
3757 1 1606 1026 1184 1112
3758 2 1606 1026 1184 1136
3759 1 1184 1026 1596 1524
3760 2 1184 1026 1596 1548
3761 1 1194 1026 1596 1524
3762 2 1194 1026 1596 1548
3763 1 1606 1026 1596 1524
3764 2 1606 1026 1596 1548
3765 1 1184 1026 1194 1122
3766 2 1184 1026 1194 1129
3767 1 1596 1026 1194 1122
3768 2 1596 1026 1194 1129
3769 1 1606 1026 1194 1122
3770 2 1606 1026 1194 1129
3771 1 1184 1026 1606 1534
3772 2 1184 1026 1606 1538
3773 1 1596 1026 1606 1534
3774 2 1596 1026 1606 1538
3775 1 1194 1026 1606 1534
3776 2 1194 1026 1606 1538
3777 3 1033 1105 1122 1050
3778 4 1033 1105 1122 1194
3779 4 1177 1105 1122 1050
3780 5 1177 1105 1122 1194
3781 6 1033 1105 1177 1021
3782 7 1033 1105 1177 1129
3783 8 1122 1105 1177 1021
3784 9 1122 1105 1177 1129
3785 3 1042 1114 1154 1082
3786 4 1042 1114 1154 1214
3787 4 1186 1114 1154 1082
3788 5 1186 1114 1154 1214
3789 6 1042 1114 1186 820
3790 7 1042 1114 1186 1174
3791 8 1154 1114 1186 820
3792 9 1154 1114 1186 1174
3793 6 1050 1122 1194 1026
3794 7 1050 1122 1194 1129
3795 8 1105 1122 1194 1026
3796 9 1105 1122 1194 1129
3797 3 1055 1127 1149 1077
3798 4 1055 1127 1149 1209
3799 4 1199 1127 1149 1077
3800 5 1199 1127 1149 1209
3801 6 1055 1127 1199 206
3802 7 1055 1127 1199 1173
3803 8 1149 1127 1199 206
3804 9 1149 1127 1199 1173
3805 6 1077 1149 1209 215
3806 7 1077 1149 1209 1173
3807 8 1127 1149 1209 215
3808 9 1127 1149 1209 1173
3809 6 1082 1154 1214 825
3810 7 1082 1154 1214 1174
3811 8 1114 1154 1214 825
3812 9 1114 1154 1214 1174
3813 10 1094 355 391 215
3814 11 1094 355 391 331
3815 12 403 355 391 215
3816 13 403 355 391 331
3817 10 1094 355 403 211
3818 11 1094 355 403 343
3819 12 391 355 403 211
3820 13 391 355 403 343
3821 1 1209 215 391 331
3822 2 1209 215 391 355
3823 1 397 215 391 331
3824 2 397 215 391 355
3825 1 1215 215 391 331
3826 2 1215 215 391 355
3827 1 391 215 1209 1149
3828 2 391 215 1209 1173
3829 1 397 215 1209 1149
3830 2 397 215 1209 1173
3831 1 1215 215 1209 1149
3832 2 1215 215 1209 1173
3833 1 391 215 397 337
3834 2 391 215 397 354
3835 1 1209 215 397 337
3836 2 1209 215 397 354
3837 1 1215 215 397 337
3838 2 1215 215 397 354
3839 2 391 215 1215 1136
3840 1 391 215 1215 1155
3841 2 1209 215 1215 1136
3842 1 1209 215 1215 1155
3843 2 397 215 1215 1136
3844 1 397 215 1215 1155
3845 10 1060 1139 1196 1021
3846 11 1060 1139 1196 1124
3847 12 1211 1139 1196 1021
3848 13 1211 1139 1196 1124
3849 10 1060 1139 1211 825
3850 11 1060 1139 1211 1151
3851 12 1196 1139 1211 825
3852 13 1196 1139 1211 1151
3853 10 286 350 362 206
3854 11 286 350 362 290
3855 12 406 350 362 206
3856 13 406 350 362 290
3857 10 286 350 406 12
3858 11 286 350 406 346
3859 12 362 350 406 12
3860 13 362 350 406 346
3861 3 225 297 347 275
3862 4 225 297 347 407
3863 4 369 297 347 275
3864 5 369 297 347 407
3865 6 225 297 369 209
3866 7 225 297 369 321
3867 8 347 297 369 209
3868 9 347 297 369 321
3869 3 230 302 334 262
3870 4 230 302 334 394
3871 4 374 302 334 262
3872 5 374 302 334 394
3873 6 230 302 374 207
3874 7 230 302 374 322
3875 8 334 302 374 207
3876 9 334 302 374 322
3877 1 192 12 392 332
3878 2 192 12 392 356
3879 1 198 12 392 332
3880 2 198 12 392 356
3881 1 406 12 392 332
3882 2 406 12 392 356
3883 1 392 12 192 132
3884 2 392 12 192 156
3885 1 198 12 192 132
3886 2 198 12 192 156
3887 1 406 12 192 132
3888 2 406 12 192 156
3889 1 392 12 198 138
3890 2 392 12 198 145
3891 1 192 12 198 138
3892 2 192 12 198 145
3893 1 406 12 198 138
3894 2 406 12 198 145
3895 1 392 12 406 346
3896 2 392 12 406 350
3897 1 192 12 406 346
3898 2 192 12 406 350
3899 1 198 12 406 346
3900 2 198 12 406 350
3901 10 247 322 374 207
3902 11 247 322 374 302
3903 12 394 322 374 207
3904 13 394 322 374 302
3905 10 247 322 394 622
3906 11 247 322 394 334
3907 12 374 322 394 622
3908 13 374 322 394 334
3909 3 253 325 342 270
3910 4 253 325 342 402
3911 4 385 325 342 270
3912 5 385 325 342 402
3913 6 253 325 385 211
3914 7 253 325 385 349
3915 8 342 325 385 211
3916 9 342 325 385 349
3917 6 262 334 394 622
3918 7 262 334 394 322
3919 8 302 334 394 622
3920 9 302 334 394 322
3921 6 270 342 402 216
3922 7 270 342 402 349
3923 8 325 342 402 216
3924 9 325 342 402 349
3925 6 275 347 407 620
3926 7 275 347 407 321
3927 8 297 347 407 620
3928 9 297 347 407 321
3929 10 287 152 171 209
3930 11 287 152 171 99
3931 12 188 152 171 209
3932 13 188 152 171 99
3933 10 287 152 188 216
3934 11 287 152 188 128
3935 12 171 152 188 216
3936 13 171 152 188 128
3937 2 322 394 622 798
3938 2 322 394 622 405
3939 2 322 394 622 816
3940 1 334 394 622 798
3941 1 334 394 622 405
3942 1 334 394 622 816
3943 2 321 407 620 386
3944 2 321 407 620 796
3945 2 321 407 620 809
3946 1 347 407 620 386
3947 1 347 407 620 796
3948 1 347 407 620 809
3949 10 284 760 796 620
3950 11 284 760 796 736
3951 12 816 760 796 620
3952 13 816 760 796 736
3953 10 284 760 816 622
3954 11 284 760 816 756
3955 12 796 760 816 622
3956 13 796 760 816 756
3957 3 219 291 345 273
3958 4 219 291 345 405
3959 4 363 291 345 273
3960 5 363 291 345 405
3961 6 219 291 363 613
3962 7 219 291 363 315
3963 8 345 291 363 613
3964 9 345 291 363 315
3965 3 221 293 305 233
3966 4 221 293 305 377
3967 4 365 293 305 233
3968 5 365 293 305 377
3969 6 221 293 365 207
3970 7 221 293 365 317
3971 8 305 293 365 207
3972 9 305 293 365 317
3973 3 231 303 332 260
3974 4 231 303 332 392
3975 4 375 303 332 260
3976 5 375 303 332 392
3977 6 231 303 375 5
3978 7 231 303 375 356
3979 8 332 303 375 5
3980 9 332 303 375 356
3981 6 233 305 377 206
3982 7 233 305 377 317
3983 8 293 305 377 206
3984 9 293 305 377 317
3985 6 260 332 392 12
3986 7 260 332 392 356
3987 8 303 332 392 12
3988 9 303 332 392 356
3989 6 273 345 405 622
3990 7 273 345 405 315
3991 8 291 345 405 622
3992 9 291 345 405 315
3993 2 315 405 622 798
3994 2 315 405 622 394
3995 2 315 405 622 816
3996 1 345 405 622 798
3997 1 345 405 622 394
3998 1 345 405 622 816
3999 1 291 363 613 769
4000 1 291 363 613 379
4001 1 291 363 613 788
4002 2 315 363 613 769
4003 2 315 363 613 379
4004 2 315 363 613 788
4005 1 165 5 367 295
4006 2 165 5 367 319
4007 1 169 5 367 295
4008 2 169 5 367 319
4009 1 375 5 367 295
4010 2 375 5 367 319
4011 1 367 5 165 93
4012 2 367 5 165 117
4013 1 169 5 165 93
4014 2 169 5 165 117
4015 1 375 5 165 93
4016 2 375 5 165 117
4017 1 367 5 169 97
4018 2 367 5 169 114
4019 1 165 5 169 97
4020 2 165 5 169 114
4021 1 375 5 169 97
4022 2 375 5 169 114
4023 1 367 5 375 303
4024 2 367 5 375 356
4025 1 165 5 375 303
4026 2 165 5 375 356
4027 1 169 5 375 303
4028 2 169 5 375 356
4029 10 242 319 367 5
4030 11 242 319 367 295
4031 12 379 319 367 5
4032 13 379 319 367 295
4033 10 242 319 379 613
4034 11 242 319 379 307
4035 12 367 319 379 613
4036 13 367 319 379 307
4037 10 280 1175 1187 207
4038 11 280 1175 1187 1115
4039 12 1220 1175 1187 207
4040 13 1220 1175 1187 1115
4041 10 280 1175 1220 211
4042 11 280 1175 1220 1160
4043 12 1187 1175 1220 211
4044 13 1187 1175 1220 1160
4045 1 364 1022 1178 1106
4046 2 364 1022 1178 1166
4047 1 1193 1022 1178 1106
4048 2 1193 1022 1178 1166
4049 1 383 1022 1178 1106
4050 2 383 1022 1178 1166
4051 1 1178 1022 1193 1121
4052 2 1178 1022 1193 1133
4053 1 364 1022 1193 1121
4054 2 364 1022 1193 1133
4055 1 383 1022 1193 1121
4056 2 383 1022 1193 1133
4057 3 222 294 301 229
4058 4 222 294 301 373
4059 4 366 294 301 229
4060 5 366 294 301 373
4061 6 222 294 366 208
4062 7 222 294 366 318
4063 8 301 294 366 208
4064 9 301 294 366 318
4065 3 227 299 344 272
4066 4 227 299 344 404
4067 4 371 299 344 272
4068 5 371 299 344 404
4069 6 227 299 371 1023
4070 7 227 299 371 359
4071 8 344 299 371 1023
4072 9 344 299 371 359
4073 6 229 301 373 209
4074 7 229 301 373 318
4075 8 294 301 373 209
4076 9 294 301 373 318
4077 3 238 310 326 254
4078 4 238 310 326 386
4079 4 382 310 326 254
4080 5 382 310 326 386
4081 6 238 310 382 618
4082 7 238 310 382 314
4083 8 326 310 382 618
4084 9 326 310 382 314
4085 10 245 114 162 4
4086 11 245 114 162 90
4087 12 169 114 162 4
4088 13 169 114 162 90
4089 10 245 114 169 5
4090 11 245 114 169 97
4091 12 162 114 169 5
4092 13 162 114 169 97
4093 1 307 379 613 769
4094 1 307 379 613 363
4095 1 307 379 613 788
4096 2 319 379 613 769
4097 2 319 379 613 363
4098 2 319 379 613 788
4099 6 254 326 386 620
4100 7 254 326 386 314
4101 8 310 326 386 620
4102 9 310 326 386 314
4103 6 272 344 404 1027
4104 7 272 344 404 359
4105 8 299 344 404 1027
4106 9 299 344 404 359
4107 10 288 351 381 208
4108 11 288 351 381 309
4109 12 387 351 381 208
4110 13 387 351 381 309
4111 10 288 351 387 1027
4112 11 288 351 387 327
4113 12 381 351 387 1027
4114 13 381 351 387 327
4115 1 299 371 1023 1181
4116 1 299 371 1023 1190
4117 1 299 371 1023 376
4118 2 359 371 1023 1181
4119 2 359 371 1023 1190
4120 2 359 371 1023 376
4121 1 310 382 618 776
4122 1 310 382 618 372
4123 1 310 382 618 786
4124 2 314 382 618 776
4125 2 314 382 618 372
4126 2 314 382 618 786
4127 2 314 386 620 796
4128 2 314 386 620 809
4129 2 314 386 620 407
4130 1 326 386 620 796
4131 1 326 386 620 809
4132 1 326 386 620 407
4133 1 344 404 1027 1201
4134 1 344 404 1027 387
4135 1 344 404 1027 1219
4136 2 359 404 1027 1201
4137 2 359 404 1027 387
4138 2 359 404 1027 1219
4139 3 220 292 312 240
4140 4 220 292 312 384
4141 4 364 292 312 240
4142 5 364 292 312 384
4143 6 220 292 364 1022
4144 7 220 292 364 316
4145 8 312 292 364 1022
4146 9 312 292 364 316
4147 3 223 295 307 235
4148 4 223 295 307 379
4149 4 367 295 307 235
4150 5 367 295 307 379
4151 6 223 295 367 5
4152 7 223 295 367 319
4153 8 307 295 367 5
4154 9 307 295 367 319
4155 3 228 300 304 232
4156 4 228 300 304 376
4157 4 372 300 304 232
4158 5 372 300 304 376
4159 6 228 300 372 618
4160 7 228 300 372 324
4161 8 304 300 372 618
4162 9 304 300 372 324
4163 6 232 304 376 1023
4164 7 232 304 376 324
4165 8 300 304 376 1023
4166 9 300 304 376 324
4167 6 235 307 379 613
4168 7 235 307 379 319
4169 8 295 307 379 613
4170 9 295 307 379 319
4171 6 240 312 384 4
4172 7 240 312 384 316
4173 8 292 312 384 4
4174 9 292 312 384 316
4175 10 246 721 769 613
4176 11 246 721 769 697
4177 12 786 721 769 613
4178 13 786 721 769 697
4179 10 246 721 786 618
4180 11 246 721 786 714
4181 12 769 721 786 618
4182 13 769 721 786 714
4183 1 370 4 162 90
4184 2 370 4 162 114
4185 1 177 4 162 90
4186 2 177 4 162 114
4187 1 384 4 162 90
4188 2 384 4 162 114
4189 1 162 4 370 298
4190 2 162 4 370 358
4191 1 177 4 370 298
4192 2 177 4 370 358
4193 1 384 4 370 298
4194 2 384 4 370 358
4195 1 162 4 177 105
4196 2 162 4 177 147
4197 1 370 4 177 105
4198 2 370 4 177 147
4199 1 384 4 177 105
4200 2 384 4 177 147
4201 1 162 4 384 312
4202 2 162 4 384 316
4203 1 370 4 384 312
4204 2 370 4 384 316
4205 1 177 4 384 312
4206 2 177 4 384 316
4207 10 249 324 372 618
4208 11 249 324 372 300
4209 12 376 324 372 618
4210 13 376 324 372 300
4211 10 249 324 376 1023
4212 11 249 324 376 304
4213 12 372 324 376 1023
4214 13 372 324 376 304
4215 1 292 364 1022 1178
4216 1 292 364 1022 1193
4217 1 292 364 1022 383
4218 2 316 364 1022 1178
4219 2 316 364 1022 1193
4220 2 316 364 1022 383
4221 1 300 372 618 776
4222 1 300 372 618 786
4223 1 300 372 618 382
4224 2 324 372 618 776
4225 2 324 372 618 786
4226 2 324 372 618 382
4227 1 304 376 1023 1181
4228 1 304 376 1023 371
4229 1 304 376 1023 1190
4230 2 324 376 1023 1181
4231 2 324 376 1023 371
4232 2 324 376 1023 1190
4233 1 387 1027 1201 1141
4234 2 387 1027 1201 1165
4235 1 1219 1027 1201 1141
4236 2 1219 1027 1201 1165
4237 1 404 1027 1201 1141
4238 2 404 1027 1201 1165
4239 1 1201 1027 1219 1159
4240 2 1201 1027 1219 1171
4241 1 387 1027 1219 1159
4242 2 387 1027 1219 1171
4243 1 404 1027 1219 1159
4244 2 404 1027 1219 1171
4245 1 371 1023 1181 1109
4246 2 371 1023 1181 1133
4247 1 1190 1023 1181 1109
4248 2 1190 1023 1181 1133
4249 1 376 1023 1181 1109
4250 2 376 1023 1181 1133
4251 1 1181 1023 1190 1118
4252 2 1181 1023 1190 1138
4253 1 371 1023 1190 1118
4254 2 371 1023 1190 1138
4255 1 376 1023 1190 1118
4256 2 376 1023 1190 1138
4257 10 241 1133 1181 1023
4258 11 241 1133 1181 1109
4259 12 1193 1133 1181 1023
4260 13 1193 1133 1181 1109
4261 10 241 1133 1193 1022
4262 11 241 1133 1193 1121
4263 12 1181 1133 1193 1022
4264 13 1181 1133 1193 1121
4265 10 243 321 369 209
4266 11 243 321 369 297
4267 12 407 321 369 209
4268 13 407 321 369 297
4269 10 243 321 407 620
4270 11 243 321 407 347
4271 12 369 321 407 620
4272 13 369 321 407 347
4273 10 1102 1166 1178 1022
4274 11 1102 1166 1178 1106
4275 12 1222 1166 1178 1022
4276 13 1222 1166 1178 1106
4277 10 1102 1166 1222 828
4278 11 1102 1166 1222 1162
4279 12 1178 1166 1222 828
4280 13 1178 1166 1222 1162
4281 3 1041 1113 1163 1091
4282 4 1041 1113 1163 1223
4283 4 1185 1113 1163 1091
4284 5 1185 1113 1163 1223
4285 6 1041 1113 1185 1025
4286 7 1041 1113 1185 1137
4287 8 1163 1113 1185 1025
4288 9 1163 1113 1185 1137
4289 3 1046 1118 1150 1078
4290 4 1046 1118 1150 1210
4291 4 1190 1118 1150 1078
4292 5 1190 1118 1150 1210
4293 6 1046 1118 1190 1023
4294 7 1046 1118 1190 1138
4295 8 1150 1118 1190 1023
4296 9 1150 1118 1190 1138
4297 1 1008 828 1208 1148
4298 2 1008 828 1208 1172
4299 1 1014 828 1208 1148
4300 2 1014 828 1208 1172
4301 1 1222 828 1208 1148
4302 2 1222 828 1208 1172
4303 1 1208 828 1008 948
4304 2 1208 828 1008 972
4305 1 1014 828 1008 948
4306 2 1014 828 1008 972
4307 1 1222 828 1008 948
4308 2 1222 828 1008 972
4309 1 1208 828 1014 954
4310 2 1208 828 1014 961
4311 1 1008 828 1014 954
4312 2 1008 828 1014 961
4313 1 1222 828 1014 954
4314 2 1222 828 1014 961
4315 1 1208 828 1222 1162
4316 2 1208 828 1222 1166
4317 1 1008 828 1222 1162
4318 2 1008 828 1222 1166
4319 1 1014 828 1222 1162
4320 2 1014 828 1222 1166
4321 10 1063 1138 1190 1023
4322 11 1063 1138 1190 1118
4323 12 1210 1138 1190 1023
4324 13 1210 1138 1190 1118
4325 10 1063 1138 1210 1438
4326 11 1063 1138 1210 1150
4327 12 1190 1138 1210 1438
4328 13 1190 1138 1210 1150
4329 3 1069 1141 1158 1086
4330 4 1069 1141 1158 1218
4331 4 1201 1141 1158 1086
4332 5 1201 1141 1158 1218
4333 6 1069 1141 1201 1027
4334 7 1069 1141 1201 1165
4335 8 1158 1141 1201 1027
4336 9 1158 1141 1201 1165
4337 6 1078 1150 1210 1438
4338 7 1078 1150 1210 1138
4339 8 1118 1150 1210 1438
4340 9 1118 1150 1210 1138
4341 6 1086 1158 1218 1032
4342 7 1086 1158 1218 1165
4343 8 1141 1158 1218 1032
4344 9 1141 1158 1218 1165
4345 6 1091 1163 1223 1436
4346 7 1091 1163 1223 1137
4347 8 1113 1163 1223 1436
4348 9 1113 1163 1223 1137
4349 10 1103 968 987 1025
4350 11 1103 968 987 915
4351 12 1004 968 987 1025
4352 13 1004 968 987 915
4353 10 1103 968 1004 1032
4354 11 1103 968 1004 944
4355 12 987 968 1004 1032
4356 13 987 968 1004 944
4357 2 1138 1210 1438 1614
4358 2 1138 1210 1438 1221
4359 2 1138 1210 1438 1632
4360 1 1150 1210 1438 1614
4361 1 1150 1210 1438 1221
4362 1 1150 1210 1438 1632
4363 2 1137 1223 1436 1202
4364 2 1137 1223 1436 1612
4365 2 1137 1223 1436 1625
4366 1 1163 1223 1436 1202
4367 1 1163 1223 1436 1612
4368 1 1163 1223 1436 1625
4369 10 1100 1576 1612 1436
4370 11 1100 1576 1612 1552
4371 12 1632 1576 1612 1436
4372 13 1632 1576 1612 1552
4373 10 1100 1576 1632 1438
4374 11 1100 1576 1632 1572
4375 12 1612 1576 1632 1438
4376 13 1612 1576 1632 1572
4377 3 1035 1107 1161 1089
4378 4 1035 1107 1161 1221
4379 4 1179 1107 1161 1089
4380 5 1179 1107 1161 1221
4381 6 1035 1107 1179 1429
4382 7 1035 1107 1179 1131
4383 8 1161 1107 1179 1429
4384 9 1161 1107 1179 1131
4385 3 1037 1109 1121 1049
4386 4 1037 1109 1121 1193
4387 4 1181 1109 1121 1049
4388 5 1181 1109 1121 1193
4389 6 1037 1109 1181 1023
4390 7 1037 1109 1181 1133
4391 8 1121 1109 1181 1023
4392 9 1121 1109 1181 1133
4393 3 1047 1119 1148 1076
4394 4 1047 1119 1148 1208
4395 4 1191 1119 1148 1076
4396 5 1191 1119 1148 1208
4397 6 1047 1119 1191 821
4398 7 1047 1119 1191 1172
4399 8 1148 1119 1191 821
4400 9 1148 1119 1191 1172
4401 6 1049 1121 1193 1022
4402 7 1049 1121 1193 1133
4403 8 1109 1121 1193 1022
4404 9 1109 1121 1193 1133
4405 6 1076 1148 1208 828
4406 7 1076 1148 1208 1172
4407 8 1119 1148 1208 828
4408 9 1119 1148 1208 1172
4409 6 1089 1161 1221 1438
4410 7 1089 1161 1221 1131
4411 8 1107 1161 1221 1438
4412 9 1107 1161 1221 1131
4413 2 1131 1221 1438 1614
4414 2 1131 1221 1438 1210
4415 2 1131 1221 1438 1632
4416 1 1161 1221 1438 1614
4417 1 1161 1221 1438 1210
4418 1 1161 1221 1438 1632
4419 1 1107 1179 1429 1585
4420 1 1107 1179 1429 1195
4421 1 1107 1179 1429 1604
4422 2 1131 1179 1429 1585
4423 2 1131 1179 1429 1195
4424 2 1131 1179 1429 1604
4425 1 981 821 1183 1111
4426 2 981 821 1183 1135
4427 1 985 821 1183 1111
4428 2 985 821 1183 1135
4429 1 1191 821 1183 1111
4430 2 1191 821 1183 1135
4431 1 1183 821 981 909
4432 2 1183 821 981 933
4433 1 985 821 981 909
4434 2 985 821 981 933
4435 1 1191 821 981 909
4436 2 1191 821 981 933
4437 1 1183 821 985 913
4438 2 1183 821 985 930
4439 1 981 821 985 913
4440 2 981 821 985 930
4441 1 1191 821 985 913
4442 2 1191 821 985 930
4443 1 1183 821 1191 1119
4444 2 1183 821 1191 1172
4445 1 981 821 1191 1119
4446 2 981 821 1191 1172
4447 1 985 821 1191 1119
4448 2 985 821 1191 1172
4449 10 1058 1135 1183 821
4450 11 1058 1135 1183 1111
4451 12 1195 1135 1183 821
4452 13 1195 1135 1183 1111
4453 10 1058 1135 1195 1429
4454 11 1058 1135 1195 1123
4455 12 1183 1135 1195 1429
4456 13 1183 1135 1195 1123
4457 10 1096 359 371 1023
4458 11 1096 359 371 299
4459 12 404 359 371 1023
4460 13 404 359 371 299
4461 10 1096 359 404 1027
4462 11 1096 359 404 344
4463 12 371 359 404 1027
4464 13 371 359 404 344
4465 1 1123 1195 1429 1585
4466 1 1123 1195 1429 1179
4467 1 1123 1195 1429 1604
4468 2 1135 1195 1429 1585
4469 2 1135 1195 1429 1179
4470 2 1135 1195 1429 1604
4471 3 1038 1110 1117 1045
4472 4 1038 1110 1117 1189
4473 4 1182 1110 1117 1045
4474 5 1182 1110 1117 1189
4475 6 1038 1110 1182 1024
4476 7 1038 1110 1182 1134
4477 8 1117 1110 1182 1024
4478 9 1117 1110 1182 1134
4479 3 1043 1115 1160 1088
4480 4 1043 1115 1160 1220
4481 4 1187 1115 1160 1088
4482 5 1187 1115 1160 1220
4483 6 1043 1115 1187 207
4484 7 1043 1115 1187 1175
4485 8 1160 1115 1187 207
4486 9 1160 1115 1187 1175
4487 6 1045 1117 1189 1025
4488 7 1045 1117 1189 1134
4489 8 1110 1117 1189 1025
4490 9 1110 1117 1189 1134
4491 3 1054 1126 1142 1070
4492 4 1054 1126 1142 1202
4493 4 1198 1126 1142 1070
4494 5 1198 1126 1142 1202
4495 6 1054 1126 1198 1434
4496 7 1054 1126 1198 1130
4497 8 1142 1126 1198 1434
4498 9 1142 1126 1198 1130
4499 10 1061 930 978 820
4500 11 1061 930 978 906
4501 12 985 930 978 820
4502 13 985 930 978 906
4503 10 1061 930 985 821
4504 11 1061 930 985 913
4505 12 978 930 985 821
4506 13 978 930 985 913
4507 6 1070 1142 1202 1436
4508 7 1070 1142 1202 1130
4509 8 1126 1142 1202 1436
4510 9 1126 1142 1202 1130
4511 6 1088 1160 1220 211
4512 7 1088 1160 1220 1175
4513 8 1115 1160 1220 211
4514 9 1115 1160 1220 1175
4515 10 1104 1167 1197 1024
4516 11 1104 1167 1197 1125
4517 12 1203 1167 1197 1024
4518 13 1203 1167 1197 1125
4519 10 1104 1167 1203 211
4520 11 1104 1167 1203 1143
4521 12 1197 1167 1203 211
4522 13 1197 1167 1203 1143
4523 1 1126 1198 1434 1592
4524 1 1126 1198 1434 1188
4525 1 1126 1198 1434 1602
4526 2 1130 1198 1434 1592
4527 2 1130 1198 1434 1188
4528 2 1130 1198 1434 1602
4529 2 1130 1202 1436 1612
4530 2 1130 1202 1436 1625
4531 2 1130 1202 1436 1223
4532 1 1142 1202 1436 1612
4533 1 1142 1202 1436 1625
4534 1 1142 1202 1436 1223
4535 1 1180 206 362 290
4536 2 1180 206 362 350
4537 1 377 206 362 290
4538 2 377 206 362 350
4539 1 1199 206 362 290
4540 2 1199 206 362 350
4541 1 362 206 1180 1108
4542 2 362 206 1180 1132
4543 1 377 206 1180 1108
4544 2 377 206 1180 1132
4545 1 1199 206 1180 1108
4546 2 1199 206 1180 1132
4547 1 362 206 377 305
4548 2 362 206 377 317
4549 1 1180 206 377 305
4550 2 1180 206 377 317
4551 1 1199 206 377 305
4552 2 1199 206 377 317
4553 1 362 206 1199 1127
4554 2 362 206 1199 1173
4555 1 1180 206 1199 1127
4556 2 1180 206 1199 1173
4557 1 377 206 1199 1127
4558 2 377 206 1199 1173
4559 3 1036 1108 1128 1056
4560 4 1036 1108 1128 1200
4561 4 1180 1108 1128 1056
4562 5 1180 1108 1128 1200
4563 6 1036 1108 1180 206
4564 7 1036 1108 1180 1132
4565 8 1128 1108 1180 206
4566 9 1128 1108 1180 1132
4567 3 1039 1111 1123 1051
4568 4 1039 1111 1123 1195
4569 4 1183 1111 1123 1051
4570 5 1183 1111 1123 1195
4571 6 1039 1111 1183 821
4572 7 1039 1111 1183 1135
4573 8 1123 1111 1183 821
4574 9 1123 1111 1183 1135
4575 3 1044 1116 1120 1048
4576 4 1044 1116 1120 1192
4577 4 1188 1116 1120 1048
4578 5 1188 1116 1120 1192
4579 6 1044 1116 1188 1434
4580 7 1044 1116 1188 1140
4581 8 1120 1116 1188 1434
4582 9 1120 1116 1188 1140
4583 6 1048 1120 1192 207
4584 7 1048 1120 1192 1140
4585 8 1116 1120 1192 207
4586 9 1116 1120 1192 1140
4587 6 1051 1123 1195 1429
4588 7 1051 1123 1195 1135
4589 8 1111 1123 1195 1429
4590 9 1111 1123 1195 1135
4591 6 1056 1128 1200 820
4592 7 1056 1128 1200 1132
4593 8 1108 1128 1200 820
4594 9 1108 1128 1200 1132
4595 10 1062 1537 1585 1429
4596 11 1062 1537 1585 1513
4597 12 1602 1537 1585 1429
4598 13 1602 1537 1585 1513
4599 10 1062 1537 1602 1434
4600 11 1062 1537 1602 1530
4601 12 1585 1537 1602 1434
4602 13 1585 1537 1602 1530
4603 1 1186 820 978 906
4604 2 1186 820 978 930
4605 1 993 820 978 906
4606 2 993 820 978 930
4607 1 1200 820 978 906
4608 2 1200 820 978 930
4609 1 978 820 1186 1114
4610 2 978 820 1186 1174
4611 1 993 820 1186 1114
4612 2 993 820 1186 1174
4613 1 1200 820 1186 1114
4614 2 1200 820 1186 1174
4615 1 978 820 993 921
4616 2 978 820 993 963
4617 1 1186 820 993 921
4618 2 1186 820 993 963
4619 1 1200 820 993 921
4620 2 1200 820 993 963
4621 1 978 820 1200 1128
4622 2 978 820 1200 1132
4623 1 1186 820 1200 1128
4624 2 1186 820 1200 1132
4625 1 993 820 1200 1128
4626 2 993 820 1200 1132
4627 10 1065 1140 1188 1434
4628 11 1065 1140 1188 1116
4629 12 1192 1140 1188 1434
4630 13 1192 1140 1188 1116
4631 10 1065 1140 1192 207
4632 11 1065 1140 1192 1120
4633 12 1188 1140 1192 207
4634 13 1188 1140 1192 1120
4635 1 1116 1188 1434 1592
4636 1 1116 1188 1434 1602
4637 1 1116 1188 1434 1198
4638 2 1140 1188 1434 1592
4639 2 1140 1188 1434 1602
4640 2 1140 1188 1434 1198
4641 1 1203 211 385 325
4642 2 1203 211 385 349
4643 1 403 211 385 325
4644 2 403 211 385 349
4645 1 1220 211 385 325
4646 2 1220 211 385 349
4647 1 385 211 1203 1143
4648 2 385 211 1203 1167
4649 1 403 211 1203 1143
4650 2 403 211 1203 1167
4651 1 1220 211 1203 1143
4652 2 1220 211 1203 1167
4653 1 385 211 403 343
4654 2 385 211 403 355
4655 1 1203 211 403 343
4656 2 1203 211 403 355
4657 1 1220 211 403 343
4658 2 1220 211 403 355
4659 1 385 211 1220 1160
4660 2 385 211 1220 1175
4661 1 1203 211 1220 1160
4662 2 1203 211 1220 1175
4663 1 403 211 1220 1160
4664 2 403 211 1220 1175
4665 1 1187 207 365 293
4666 2 1187 207 365 317
4667 1 374 207 365 293
4668 2 374 207 365 317
4669 1 1192 207 365 293
4670 2 1192 207 365 317
4671 1 365 207 1187 1115
4672 2 365 207 1187 1175
4673 1 374 207 1187 1115
4674 2 374 207 1187 1175
4675 1 1192 207 1187 1115
4676 2 1192 207 1187 1175
4677 1 365 207 374 302
4678 2 365 207 374 322
4679 1 1187 207 374 302
4680 2 1187 207 374 322
4681 1 1192 207 374 302
4682 2 1192 207 374 322
4683 1 365 207 1192 1120
4684 2 365 207 1192 1140
4685 1 1187 207 1192 1120
4686 2 1187 207 1192 1140
4687 1 374 207 1192 1120
4688 2 374 207 1192 1140
4689 10 1057 317 365 207
4690 11 1057 317 365 293
4691 12 377 317 365 207
4692 13 377 317 365 293
4693 10 1057 317 377 206
4694 11 1057 317 377 305
4695 12 365 317 377 206
4696 13 365 317 377 305
4697 10 1059 1137 1185 1025
4698 11 1059 1137 1185 1113
4699 12 1223 1137 1185 1025
4700 13 1223 1137 1185 1113
4701 10 1059 1137 1223 1436
4702 11 1059 1137 1223 1163
4703 12 1185 1137 1223 1436
4704 13 1185 1137 1223 1163
4705 1 394 622 798 738
4706 2 394 622 798 762
4707 1 405 622 798 738
4708 2 405 622 798 762
4709 1 816 622 798 738
4710 2 816 622 798 762
4711 1 798 622 816 756
4712 2 798 622 816 760
4713 1 394 622 816 756
4714 2 394 622 816 760
4715 1 405 622 816 756
4716 2 405 622 816 760
4717 3 664 736 756 684
4718 4 664 736 756 816
4719 4 796 736 756 684
4720 5 796 736 756 816
4721 6 664 736 796 620
4722 7 664 736 796 760
4723 8 756 736 796 620
4724 9 756 736 796 760
4725 3 667 739 751 679
4726 4 667 739 751 811
4727 4 799 739 751 679
4728 5 799 739 751 811
4729 6 667 739 799 623
4730 7 667 739 799 763
4731 8 751 739 799 623
4732 9 751 739 799 763
4733 3 672 744 748 676
4734 4 672 744 748 808
4735 4 804 744 748 676
4736 5 804 744 748 808
4737 6 672 744 804 624
4738 7 672 744 804 768
4739 8 748 744 804 624
4740 9 748 744 804 768
4741 6 676 748 808 621
4742 7 676 748 808 768
4743 8 744 748 808 621
4744 9 744 748 808 768
4745 6 679 751 811 619
4746 7 679 751 811 763
4747 8 739 751 811 619
4748 9 739 751 811 763
4749 6 684 756 816 622
4750 7 684 756 816 760
4751 8 736 756 816 622
4752 9 736 756 816 760
4753 10 693 564 600 420
4754 11 693 564 600 540
4755 12 604 564 600 420
4756 13 604 564 600 540
4757 10 693 564 604 417
4758 11 693 564 604 544
4759 12 600 564 604 417
4760 13 600 564 604 544
4761 10 660 315 363 613
4762 11 660 315 363 291
4763 12 405 315 363 613
4764 13 405 315 363 291
4765 10 660 315 405 622
4766 11 660 315 405 345
4767 12 363 315 405 622
4768 13 363 315 405 345
4769 1 803 417 593 533
4770 2 803 417 593 557
4771 1 806 417 593 533
4772 2 806 417 593 557
4773 1 604 417 593 533
4774 2 604 417 593 557
4775 2 593 417 803 731
4776 1 593 417 803 743
4777 2 806 417 803 731
4778 1 806 417 803 743
4779 2 604 417 803 731
4780 1 604 417 803 743
4781 1 593 417 806 746
4782 2 593 417 806 766
4783 1 803 417 806 746
4784 2 803 417 806 766
4785 1 604 417 806 746
4786 2 604 417 806 766
4787 1 593 417 604 544
4788 2 593 417 604 564
4789 1 803 417 604 544
4790 2 803 417 604 564
4791 1 806 417 604 544
4792 2 806 417 604 564
4793 10 690 757 793 619
4794 11 690 757 793 733
4795 12 810 757 793 619
4796 13 810 757 793 733
4797 10 690 757 810 624
4798 11 690 757 810 750
4799 12 793 757 810 624
4800 13 793 757 810 750
4801 3 626 698 754 682
4802 4 626 698 754 814
4803 4 770 698 754 682
4804 5 770 698 754 814
4805 6 626 698 770 614
4806 7 626 698 770 758
4807 8 754 698 770 614
4808 9 754 698 770 758
4809 3 644 716 743 671
4810 4 644 716 743 803
4811 4 788 716 743 671
4812 5 788 716 743 803
4813 6 644 716 788 613
4814 7 644 716 788 731
4815 8 743 716 788 613
4816 9 743 716 788 731
4817 3 666 738 745 673
4818 4 666 738 745 805
4819 4 798 738 745 673
4820 5 798 738 745 805
4821 6 666 738 798 622
4822 7 666 738 798 762
4823 8 745 738 798 622
4824 9 745 738 798 762
4825 6 671 743 803 417
4826 7 671 743 803 731
4827 8 716 743 803 417
4828 9 716 743 803 731
4829 6 673 745 805 623
4830 7 673 745 805 762
4831 8 738 745 805 623
4832 9 738 745 805 762
4833 6 682 754 814 420
4834 7 682 754 814 758
4835 8 698 754 814 420
4836 9 698 754 814 758
4837 10 689 762 798 622
4838 11 689 762 798 738
4839 12 805 762 798 622
4840 13 805 762 798 738
4841 10 689 762 805 623
4842 11 689 762 805 745
4843 12 798 762 805 623
4844 13 798 762 805 745
4845 1 386 620 796 736
4846 2 386 620 796 760
4847 1 809 620 796 736
4848 2 809 620 796 760
4849 1 407 620 796 736
4850 2 407 620 796 760
4851 1 386 620 809 749
4852 2 386 620 809 761
4853 1 796 620 809 749
4854 2 796 620 809 761
4855 1 407 620 809 749
4856 2 407 620 809 761
4857 10 685 761 797 621
4858 11 685 761 797 737
4859 12 809 761 797 621
4860 13 809 761 797 737
4861 10 685 761 809 620
4862 11 685 761 809 749
4863 12 797 761 809 620
4864 13 797 761 809 749
4865 1 363 613 769 697
4866 2 363 613 769 721
4867 1 379 613 769 697
4868 2 379 613 769 721
4869 1 788 613 769 697
4870 2 788 613 769 721
4871 1 769 613 788 716
4872 2 769 613 788 731
4873 1 363 613 788 716
4874 2 363 613 788 731
4875 1 379 613 788 716
4876 2 379 613 788 731
4877 10 687 1581 1607 614
4878 11 687 1581 1607 1535
4879 12 1617 1581 1607 614
4880 13 1617 1581 1607 1535
4881 10 687 1581 1617 623
4882 11 687 1581 1617 1557
4883 12 1607 1581 1617 623
4884 13 1607 1581 1617 1557
4885 10 658 314 382 618
4886 11 658 314 382 310
4887 12 386 314 382 618
4888 13 386 314 382 310
4889 10 658 314 386 620
4890 11 658 314 386 326
4891 12 382 314 386 620
4892 13 382 314 386 326
4893 3 632 704 747 675
4894 4 632 704 747 807
4895 4 776 704 747 675
4896 5 776 704 747 807
4897 6 632 704 776 618
4898 7 632 704 776 728
4899 8 747 704 776 618
4900 9 747 704 776 728
4901 3 645 717 735 663
4902 4 645 717 735 795
4903 4 789 717 735 663
4904 5 789 717 735 795
4905 6 645 717 789 616
4906 7 645 717 789 759
4907 8 735 717 789 616
4908 9 735 717 789 759
4909 10 659 728 776 618
4910 11 659 728 776 704
4911 12 807 728 776 618
4912 13 807 728 776 704
4913 10 659 728 807 1439
4914 11 659 728 807 747
4915 12 776 728 807 1439
4916 13 776 728 807 747
4917 6 663 735 795 1435
4918 7 663 735 795 759
4919 8 717 735 795 1435
4920 9 717 735 795 759
4921 3 665 737 749 677
4922 4 665 737 749 809
4923 4 797 737 749 677
4924 5 797 737 749 809
4925 6 665 737 797 621
4926 7 665 737 797 761
4927 8 749 737 797 621
4928 9 749 737 797 761
4929 6 675 747 807 1439
4930 7 675 747 807 728
4931 8 704 747 807 1439
4932 9 704 747 807 728
4933 6 677 749 809 620
4934 7 677 749 809 761
4935 8 737 749 809 620
4936 9 737 749 809 761
4937 10 691 562 574 616
4938 11 691 562 574 502
4939 12 602 562 574 616
4940 13 602 562 574 502
4941 10 691 562 602 621
4942 11 691 562 602 542
4943 12 574 562 602 621
4944 13 574 562 602 542
4945 10 656 724 772 1430
4946 11 656 724 772 700
4947 12 792 724 772 1430
4948 13 792 724 772 700
4949 10 656 724 792 412
4950 11 656 724 792 720
4951 12 772 724 792 412
4952 13 772 724 792 720
4953 1 735 795 1435 1609
4954 1 735 795 1435 1627
4955 1 735 795 1435 812
4956 2 759 795 1435 1609
4957 2 759 795 1435 1627
4958 2 759 795 1435 812
4959 2 728 807 1439 1615
4960 2 728 807 1439 801
4961 2 728 807 1439 1621
4962 1 747 807 1439 1615
4963 1 747 807 1439 801
4964 1 747 807 1439 1621
4965 1 719 791 1430 1586
4966 1 719 791 1430 772
4967 1 719 791 1430 1601
4968 2 765 791 1430 1586
4969 2 765 791 1430 772
4970 2 765 791 1430 1601
4971 1 372 618 776 704
4972 2 372 618 776 728
4973 1 786 618 776 704
4974 2 786 618 776 728
4975 1 382 618 776 704
4976 2 382 618 776 728
4977 1 776 618 786 714
4978 2 776 618 786 721
4979 1 372 618 786 714
4980 2 372 618 786 721
4981 1 382 618 786 714
4982 2 382 618 786 721
4983 3 625 697 714 642
4984 4 625 697 714 786
4985 4 769 697 714 642
4986 5 769 697 714 786
4987 6 625 697 769 613
4988 7 625 697 769 721
4989 8 714 697 769 613
4990 9 714 697 769 721
4991 3 634 706 746 674
4992 4 634 706 746 806
4993 4 778 706 746 674
4994 5 778 706 746 806
4995 6 634 706 778 412
4996 7 634 706 778 766
4997 8 746 706 778 412
4998 9 746 706 778 766
4999 6 642 714 786 618
5000 7 642 714 786 721
5001 8 697 714 786 618
5002 9 697 714 786 721
5003 3 647 719 741 669
5004 4 647 719 741 801
5005 4 791 719 741 669
5006 5 791 719 741 801
5007 6 647 719 791 1430
5008 7 647 719 791 765
5009 8 741 719 791 1430
5010 9 741 719 791 765
5011 1 741 801 1439 1615
5012 1 741 801 1439 1621
5013 1 741 801 1439 807
5014 2 765 801 1439 1615
5015 2 765 801 1439 1621
5016 2 765 801 1439 807
5017 6 669 741 801 1439
5018 7 669 741 801 765
5019 8 719 741 801 1439
5020 9 719 741 801 765
5021 6 674 746 806 417
5022 7 674 746 806 766
5023 8 706 746 806 417
5024 9 706 746 806 766
5025 10 686 1579 1615 1439
5026 11 686 1579 1615 1555
5027 12 1627 1579 1615 1439
5028 13 1627 1579 1615 1555
5029 10 686 1579 1627 1435
5030 11 686 1579 1627 1567
5031 12 1615 1579 1627 1435
5032 13 1615 1579 1627 1567
5033 1 801 1439 1615 1555
5034 2 801 1439 1615 1579
5035 1 1621 1439 1615 1555
5036 2 1621 1439 1615 1579
5037 1 807 1439 1615 1555
5038 2 807 1439 1615 1579
5039 1 1615 1439 1621 1561
5040 2 1615 1439 1621 1578
5041 1 801 1439 1621 1561
5042 2 801 1439 1621 1578
5043 1 807 1439 1621 1561
5044 2 807 1439 1621 1578
5045 10 652 731 788 613
5046 11 652 731 788 716
5047 12 803 731 788 613
5048 13 803 731 788 716
5049 10 652 731 803 417
5050 11 652 731 803 743
5051 12 788 731 803 417
5052 13 788 731 803 743
5053 1 1210 1438 1614 1554
5054 2 1210 1438 1614 1578
5055 1 1221 1438 1614 1554
5056 2 1221 1438 1614 1578
5057 1 1632 1438 1614 1554
5058 2 1632 1438 1614 1578
5059 1 1614 1438 1632 1572
5060 2 1614 1438 1632 1576
5061 1 1210 1438 1632 1572
5062 2 1210 1438 1632 1576
5063 1 1221 1438 1632 1572
5064 2 1221 1438 1632 1576
5065 3 1480 1552 1572 1500
5066 4 1480 1552 1572 1632
5067 4 1612 1552 1572 1500
5068 5 1612 1552 1572 1632
5069 6 1480 1552 1612 1436
5070 7 1480 1552 1612 1576
5071 8 1572 1552 1612 1436
5072 9 1572 1552 1612 1576
5073 3 1483 1555 1567 1495
5074 4 1483 1555 1567 1627
5075 4 1615 1555 1567 1495
5076 5 1615 1555 1567 1627
5077 6 1483 1555 1615 1439
5078 7 1483 1555 1615 1579
5079 8 1567 1555 1615 1439
5080 9 1567 1555 1615 1579
5081 3 1488 1560 1564 1492
5082 4 1488 1560 1564 1624
5083 4 1620 1560 1564 1492
5084 5 1620 1560 1564 1624
5085 6 1488 1560 1620 1440
5086 7 1488 1560 1620 1584
5087 8 1564 1560 1620 1440
5088 9 1564 1560 1620 1584
5089 6 1492 1564 1624 1437
5090 7 1492 1564 1624 1584
5091 8 1560 1564 1624 1437
5092 9 1560 1564 1624 1584
5093 6 1495 1567 1627 1435
5094 7 1495 1567 1627 1579
5095 8 1555 1567 1627 1435
5096 9 1555 1567 1627 1579
5097 6 1500 1572 1632 1438
5098 7 1500 1572 1632 1576
5099 8 1552 1572 1632 1438
5100 9 1552 1572 1632 1576
5101 10 1509 1380 1416 1236
5102 11 1509 1380 1416 1356
5103 12 1420 1380 1416 1236
5104 13 1420 1380 1416 1356
5105 10 1509 1380 1420 1233
5106 11 1509 1380 1420 1360
5107 12 1416 1380 1420 1233
5108 13 1416 1380 1420 1360
5109 10 1476 1131 1179 1429
5110 11 1476 1131 1179 1107
5111 12 1221 1131 1179 1429
5112 13 1221 1131 1179 1107
5113 10 1476 1131 1221 1438
5114 11 1476 1131 1221 1161
5115 12 1179 1131 1221 1438
5116 13 1179 1131 1221 1161
5117 1 1619 1233 1409 1349
5118 2 1619 1233 1409 1373
5119 1 1622 1233 1409 1349
5120 2 1622 1233 1409 1373
5121 1 1420 1233 1409 1349
5122 2 1420 1233 1409 1373
5123 2 1409 1233 1619 1547
5124 1 1409 1233 1619 1559
5125 2 1622 1233 1619 1547
5126 1 1622 1233 1619 1559
5127 2 1420 1233 1619 1547
5128 1 1420 1233 1619 1559
5129 1 1409 1233 1622 1562
5130 2 1409 1233 1622 1582
5131 1 1619 1233 1622 1562
5132 2 1619 1233 1622 1582
5133 1 1420 1233 1622 1562
5134 2 1420 1233 1622 1582
5135 1 1409 1233 1420 1360
5136 2 1409 1233 1420 1380
5137 1 1619 1233 1420 1360
5138 2 1619 1233 1420 1380
5139 1 1622 1233 1420 1360
5140 2 1622 1233 1420 1380
5141 10 1506 1573 1609 1435
5142 11 1506 1573 1609 1549
5143 12 1626 1573 1609 1435
5144 13 1626 1573 1609 1549
5145 10 1506 1573 1626 1440
5146 11 1506 1573 1626 1566
5147 12 1609 1573 1626 1440
5148 13 1609 1573 1626 1566
5149 3 1442 1514 1570 1498
5150 4 1442 1514 1570 1630
5151 4 1586 1514 1570 1498
5152 5 1586 1514 1570 1630
5153 6 1442 1514 1586 1430
5154 7 1442 1514 1586 1574
5155 8 1570 1514 1586 1430
5156 9 1570 1514 1586 1574
5157 3 1460 1532 1559 1487
5158 4 1460 1532 1559 1619
5159 4 1604 1532 1559 1487
5160 5 1604 1532 1559 1619
5161 6 1460 1532 1604 1429
5162 7 1460 1532 1604 1547
5163 8 1559 1532 1604 1429
5164 9 1559 1532 1604 1547
5165 3 1482 1554 1561 1489
5166 4 1482 1554 1561 1621
5167 4 1614 1554 1561 1489
5168 5 1614 1554 1561 1621
5169 6 1482 1554 1614 1438
5170 7 1482 1554 1614 1578
5171 8 1561 1554 1614 1438
5172 9 1561 1554 1614 1578
5173 6 1487 1559 1619 1233
5174 7 1487 1559 1619 1547
5175 8 1532 1559 1619 1233
5176 9 1532 1559 1619 1547
5177 6 1489 1561 1621 1439
5178 7 1489 1561 1621 1578
5179 8 1554 1561 1621 1439
5180 9 1554 1561 1621 1578
5181 6 1498 1570 1630 1236
5182 7 1498 1570 1630 1574
5183 8 1514 1570 1630 1236
5184 9 1514 1570 1630 1574
5185 10 1505 1578 1614 1438
5186 11 1505 1578 1614 1554
5187 12 1621 1578 1614 1438
5188 13 1621 1578 1614 1554
5189 10 1505 1578 1621 1439
5190 11 1505 1578 1621 1561
5191 12 1614 1578 1621 1439
5192 13 1614 1578 1621 1561
5193 1 1202 1436 1612 1552
5194 2 1202 1436 1612 1576
5195 1 1625 1436 1612 1552
5196 2 1625 1436 1612 1576
5197 1 1223 1436 1612 1552
5198 2 1223 1436 1612 1576
5199 1 1202 1436 1625 1565
5200 2 1202 1436 1625 1577
5201 1 1612 1436 1625 1565
5202 2 1612 1436 1625 1577
5203 1 1223 1436 1625 1565
5204 2 1223 1436 1625 1577
5205 10 1501 1577 1613 1437
5206 11 1501 1577 1613 1553
5207 12 1625 1577 1613 1437
5208 13 1625 1577 1613 1553
5209 10 1501 1577 1625 1436
5210 11 1501 1577 1625 1565
5211 12 1613 1577 1625 1436
5212 13 1613 1577 1625 1565
5213 1 1179 1429 1585 1513
5214 2 1179 1429 1585 1537
5215 1 1195 1429 1585 1513
5216 2 1195 1429 1585 1537
5217 1 1604 1429 1585 1513
5218 2 1604 1429 1585 1537
5219 1 1585 1429 1604 1532
5220 2 1585 1429 1604 1547
5221 1 1179 1429 1604 1532
5222 2 1179 1429 1604 1547
5223 1 1195 1429 1604 1532
5224 2 1195 1429 1604 1547
5225 10 1503 765 791 1430
5226 11 1503 765 791 719
5227 12 801 765 791 1430
5228 13 801 765 791 719
5229 10 1503 765 801 1439
5230 11 1503 765 801 741
5231 12 791 765 801 1439
5232 13 791 765 801 741
5233 10 1474 1130 1198 1434
5234 11 1474 1130 1198 1126
5235 12 1202 1130 1198 1434
5236 13 1202 1130 1198 1126
5237 10 1474 1130 1202 1436
5238 11 1474 1130 1202 1142
5239 12 1198 1130 1202 1436
5240 13 1198 1130 1202 1142
5241 3 1448 1520 1563 1491
5242 4 1448 1520 1563 1623
5243 4 1592 1520 1563 1491
5244 5 1592 1520 1563 1623
5245 6 1448 1520 1592 1434
5246 7 1448 1520 1592 1544
5247 8 1563 1520 1592 1434
5248 9 1563 1520 1592 1544
5249 3 1461 1533 1551 1479
5250 4 1461 1533 1551 1611
5251 4 1605 1533 1551 1479
5252 5 1605 1533 1551 1611
5253 6 1461 1533 1605 1432
5254 7 1461 1533 1605 1575
5255 8 1551 1533 1605 1432
5256 9 1551 1533 1605 1575
5257 10 1475 1544 1592 1434
5258 11 1475 1544 1592 1520
5259 12 1623 1544 1592 1434
5260 13 1623 1544 1592 1520
5261 10 1475 1544 1623 623
5262 11 1475 1544 1623 1563
5263 12 1592 1544 1623 623
5264 13 1592 1544 1623 1563
5265 6 1479 1551 1611 619
5266 7 1479 1551 1611 1575
5267 8 1533 1551 1611 619
5268 9 1533 1551 1611 1575
5269 3 1481 1553 1565 1493
5270 4 1481 1553 1565 1625
5271 4 1613 1553 1565 1493
5272 5 1613 1553 1565 1625
5273 6 1481 1553 1613 1437
5274 7 1481 1553 1613 1577
5275 8 1565 1553 1613 1437
5276 9 1565 1553 1613 1577
5277 6 1491 1563 1623 623
5278 7 1491 1563 1623 1544
5279 8 1520 1563 1623 623
5280 9 1520 1563 1623 1544
5281 6 1493 1565 1625 1436
5282 7 1493 1565 1625 1577
5283 8 1553 1565 1625 1436
5284 9 1553 1565 1625 1577
5285 10 1507 1378 1390 1432
5286 11 1507 1378 1390 1318
5287 12 1418 1378 1390 1432
5288 13 1418 1378 1390 1318
5289 10 1507 1378 1418 1437
5290 11 1507 1378 1418 1358
5291 12 1390 1378 1418 1437
5292 13 1390 1378 1418 1358
5293 10 1472 1540 1588 614
5294 11 1472 1540 1588 1516
5295 12 1608 1540 1588 614
5296 13 1608 1540 1588 1516
5297 10 1472 1540 1608 1228
5298 11 1472 1540 1608 1536
5299 12 1588 1540 1608 1228
5300 13 1588 1540 1608 1536
5301 1 1188 1434 1592 1520
5302 2 1188 1434 1592 1544
5303 1 1602 1434 1592 1520
5304 2 1602 1434 1592 1544
5305 1 1198 1434 1592 1520
5306 2 1198 1434 1592 1544
5307 1 1592 1434 1602 1530
5308 2 1592 1434 1602 1537
5309 1 1188 1434 1602 1530
5310 2 1188 1434 1602 1537
5311 1 1198 1434 1602 1530
5312 2 1198 1434 1602 1537
5313 3 1441 1513 1530 1458
5314 4 1441 1513 1530 1602
5315 4 1585 1513 1530 1458
5316 5 1585 1513 1530 1602
5317 6 1441 1513 1585 1429
5318 7 1441 1513 1585 1537
5319 8 1530 1513 1585 1429
5320 9 1530 1513 1585 1537
5321 3 1450 1522 1562 1490
5322 4 1450 1522 1562 1622
5323 4 1594 1522 1562 1490
5324 5 1594 1522 1562 1622
5325 6 1450 1522 1594 1228
5326 7 1450 1522 1594 1582
5327 8 1562 1522 1594 1228
5328 9 1562 1522 1594 1582
5329 6 1458 1530 1602 1434
5330 7 1458 1530 1602 1537
5331 8 1513 1530 1602 1434
5332 9 1513 1530 1602 1537
5333 3 1463 1535 1557 1485
5334 4 1463 1535 1557 1617
5335 4 1607 1535 1557 1485
5336 5 1607 1535 1557 1617
5337 6 1463 1535 1607 614
5338 7 1463 1535 1607 1581
5339 8 1557 1535 1607 614
5340 9 1557 1535 1607 1581
5341 6 1485 1557 1617 623
5342 7 1485 1557 1617 1581
5343 8 1535 1557 1617 623
5344 9 1535 1557 1617 1581
5345 6 1490 1562 1622 1233
5346 7 1490 1562 1622 1582
5347 8 1522 1562 1622 1233
5348 9 1522 1562 1622 1582
5349 10 1502 763 799 623
5350 11 1502 763 799 739
5351 12 811 763 799 623
5352 13 811 763 799 739
5353 10 1502 763 811 619
5354 11 1502 763 811 751
5355 12 799 763 811 619
5356 13 799 763 811 751
5357 1 1617 623 799 739
5358 2 1617 623 799 763
5359 1 805 623 799 739
5360 2 805 623 799 763
5361 1 1623 623 799 739
5362 2 1623 623 799 763
5363 1 799 623 1617 1557
5364 2 799 623 1617 1581
5365 1 805 623 1617 1557
5366 2 805 623 1617 1581
5367 1 1623 623 1617 1557
5368 2 1623 623 1617 1581
5369 1 799 623 805 745
5370 2 799 623 805 762
5371 1 1617 623 805 745
5372 2 1617 623 805 762
5373 1 1623 623 805 745
5374 2 1623 623 805 762
5375 2 799 623 1623 1544
5376 1 799 623 1623 1563
5377 2 1617 623 1623 1544
5378 1 1617 623 1623 1563
5379 2 805 623 1623 1544
5380 1 805 623 1623 1563
5381 10 1468 1547 1604 1429
5382 11 1468 1547 1604 1532
5383 12 1619 1547 1604 1429
5384 13 1619 1547 1604 1532
5385 10 1468 1547 1619 1233
5386 11 1468 1547 1619 1559
5387 12 1604 1547 1619 1233
5388 13 1604 1547 1619 1559
5389 10 694 758 770 614
5390 11 694 758 770 698
5391 12 814 758 770 614
5392 13 814 758 770 698
5393 10 694 758 814 420
5394 11 694 758 814 754
5395 12 770 758 814 420
5396 13 770 758 814 754
5397 3 633 705 755 683
5398 4 633 705 755 815
5399 4 777 705 755 683
5400 5 777 705 755 815
5401 6 633 705 777 617
5402 7 633 705 777 729
5403 8 755 705 777 617
5404 9 755 705 777 729
5405 3 638 710 742 670
5406 4 638 710 742 802
5407 4 782 710 742 670
5408 5 782 710 742 802
5409 6 638 710 782 615
5410 7 638 710 782 730
5411 8 742 710 782 615
5412 9 742 710 782 730
5413 1 600 420 800 740
5414 2 600 420 800 764
5415 1 606 420 800 740
5416 2 606 420 800 764
5417 1 814 420 800 740
5418 2 814 420 800 764
5419 1 800 420 600 540
5420 2 800 420 600 564
5421 1 606 420 600 540
5422 2 606 420 600 564
5423 1 814 420 600 540
5424 2 814 420 600 564
5425 1 800 420 606 546
5426 2 800 420 606 553
5427 1 600 420 606 546
5428 2 600 420 606 553
5429 1 814 420 606 546
5430 2 814 420 606 553
5431 1 800 420 814 754
5432 2 800 420 814 758
5433 1 600 420 814 754
5434 2 600 420 814 758
5435 1 606 420 814 754
5436 2 606 420 814 758
5437 10 655 730 782 615
5438 11 655 730 782 710
5439 12 802 730 782 615
5440 13 802 730 782 710
5441 10 655 730 802 214
5442 11 655 730 802 742
5443 12 782 730 802 214
5444 13 782 730 802 742
5445 3 661 733 750 678
5446 4 661 733 750 810
5447 4 793 733 750 678
5448 5 793 733 750 810
5449 6 661 733 793 619
5450 7 661 733 793 757
5451 8 750 733 793 619
5452 9 750 733 793 757
5453 6 670 742 802 214
5454 7 670 742 802 730
5455 8 710 742 802 214
5456 9 710 742 802 730
5457 6 678 750 810 624
5458 7 678 750 810 757
5459 8 733 750 810 624
5460 9 733 750 810 757
5461 6 683 755 815 212
5462 7 683 755 815 729
5463 8 705 755 815 212
5464 9 705 755 815 729
5465 10 695 560 579 617
5466 11 695 560 579 507
5467 12 596 560 579 617
5468 13 596 560 579 507
5469 10 695 560 596 624
5470 11 695 560 596 536
5471 12 579 560 596 624
5472 13 579 560 596 536
5473 10 692 352 388 212
5474 11 692 352 388 328
5475 12 408 352 388 212
5476 13 408 352 388 328
5477 10 692 352 408 214
5478 11 692 352 408 348
5479 12 388 352 408 214
5480 13 388 352 408 348
5481 3 627 699 753 681
5482 4 627 699 753 813
5483 4 771 699 753 681
5484 5 771 699 753 813
5485 6 627 699 771 205
5486 7 627 699 771 723
5487 8 753 699 771 205
5488 9 753 699 771 723
5489 3 629 701 713 641
5490 4 629 701 713 785
5491 4 773 701 713 641
5492 5 773 701 713 785
5493 6 629 701 773 615
5494 7 629 701 773 725
5495 8 713 701 773 615
5496 9 713 701 773 725
5497 3 639 711 740 668
5498 4 639 711 740 800
5499 4 783 711 740 668
5500 5 783 711 740 800
5501 6 639 711 783 413
5502 7 639 711 783 764
5503 8 740 711 783 413
5504 9 740 711 783 764
5505 6 641 713 785 614
5506 7 641 713 785 725
5507 8 701 713 785 614
5508 9 701 713 785 725
5509 6 668 740 800 420
5510 7 668 740 800 764
5511 8 711 740 800 420
5512 9 711 740 800 764
5513 6 681 753 813 214
5514 7 681 753 813 723
5515 8 699 753 813 214
5516 9 699 753 813 723
5517 1 573 413 775 703
5518 2 573 413 775 727
5519 1 577 413 775 703
5520 2 577 413 775 727
5521 1 783 413 775 703
5522 2 783 413 775 727
5523 1 775 413 573 501
5524 2 775 413 573 525
5525 1 577 413 573 501
5526 2 577 413 573 525
5527 1 783 413 573 501
5528 2 783 413 573 525
5529 1 775 413 577 505
5530 2 775 413 577 522
5531 1 573 413 577 505
5532 2 573 413 577 522
5533 1 783 413 577 505
5534 2 783 413 577 522
5535 1 775 413 783 711
5536 2 775 413 783 764
5537 1 573 413 783 711
5538 2 573 413 783 764
5539 1 577 413 783 711
5540 2 577 413 783 764
5541 10 650 727 775 413
5542 11 650 727 775 703
5543 12 787 727 775 413
5544 13 787 727 775 703
5545 10 650 727 787 205
5546 11 650 727 787 715
5547 12 775 727 787 205
5548 13 775 727 787 715
5549 10 688 1583 1595 615
5550 11 688 1583 1595 1523
5551 12 1628 1583 1595 615
5552 13 1628 1583 1595 1523
5553 10 688 1583 1628 619
5554 11 688 1583 1628 1568
5555 12 1595 1583 1628 619
5556 13 1595 1583 1628 1568
5557 1 772 1430 1586 1514
5558 2 772 1430 1586 1574
5559 1 1601 1430 1586 1514
5560 2 1601 1430 1586 1574
5561 1 791 1430 1586 1514
5562 2 791 1430 1586 1574
5563 1 1586 1430 1601 1529
5564 2 1586 1430 1601 1541
5565 1 772 1430 1601 1529
5566 2 772 1430 1601 1541
5567 1 791 1430 1601 1529
5568 2 791 1430 1601 1541
5569 3 630 702 709 637
5570 4 630 702 709 781
5571 4 774 702 709 637
5572 5 774 702 709 781
5573 6 630 702 774 616
5574 7 630 702 774 726
5575 8 709 702 774 616
5576 9 709 702 774 726
5577 3 635 707 752 680
5578 4 635 707 752 812
5579 4 779 707 752 680
5580 5 779 707 752 812
5581 6 635 707 779 1431
5582 7 635 707 779 767
5583 8 752 707 779 1431
5584 9 752 707 779 767
5585 6 637 709 781 617
5586 7 637 709 781 726
5587 8 702 709 781 617
5588 9 702 709 781 726
5589 3 646 718 734 662
5590 4 646 718 734 794
5591 4 790 718 734 662
5592 5 790 718 734 794
5593 6 646 718 790 210
5594 7 646 718 790 722
5595 8 734 718 790 210
5596 9 734 718 790 722
5597 10 653 522 570 412
5598 11 653 522 570 498
5599 12 577 522 570 412
5600 13 577 522 570 498
5601 10 653 522 577 413
5602 11 653 522 577 505
5603 12 570 522 577 413
5604 13 570 522 577 505
5605 6 662 734 794 212
5606 7 662 734 794 722
5607 8 718 734 794 212
5608 9 718 734 794 722
5609 6 680 752 812 1435
5610 7 680 752 812 767
5611 8 707 752 812 1435
5612 9 707 752 812 767
5613 10 696 759 789 616
5614 11 696 759 789 717
5615 12 795 759 789 616
5616 13 795 759 789 717
5617 10 696 759 795 1435
5618 11 696 759 795 735
5619 12 789 759 795 1435
5620 13 789 759 795 735
5621 1 707 779 1431 1589
5622 1 707 779 1431 1598
5623 1 707 779 1431 784
5624 2 767 779 1431 1589
5625 2 767 779 1431 1598
5626 2 767 779 1431 784
5627 1 752 812 1435 1609
5628 1 752 812 1435 795
5629 1 752 812 1435 1627
5630 2 767 812 1435 1609
5631 2 767 812 1435 795
5632 2 767 812 1435 1627
5633 3 628 700 720 648
5634 4 628 700 720 792
5635 4 772 700 720 648
5636 5 772 700 720 792
5637 6 628 700 772 1430
5638 7 628 700 772 724
5639 8 720 700 772 1430
5640 9 720 700 772 724
5641 3 631 703 715 643
5642 4 631 703 715 787
5643 4 775 703 715 643
5644 5 775 703 715 787
5645 6 631 703 775 413
5646 7 631 703 775 727
5647 8 715 703 775 413
5648 9 715 703 775 727
5649 3 636 708 712 640
5650 4 636 708 712 784
5651 4 780 708 712 640
5652 5 780 708 712 784
5653 6 636 708 780 210
5654 7 636 708 780 732
5655 8 712 708 780 210
5656 9 712 708 780 732
5657 6 640 712 784 1431
5658 7 640 712 784 732
5659 8 708 712 784 1431
5660 9 708 712 784 732
5661 6 643 715 787 205
5662 7 643 715 787 727
5663 8 703 715 787 205
5664 9 703 715 787 727
5665 6 648 720 792 412
5666 7 648 720 792 724
5667 8 700 720 792 412
5668 9 700 720 792 724
5669 10 654 313 361 205
5670 11 654 313 361 289
5671 12 378 313 361 205
5672 13 378 313 361 289
5673 10 654 313 378 210
5674 11 654 313 378 306
5675 12 361 313 378 210
5676 13 361 313 378 306
5677 1 778 412 570 498
5678 2 778 412 570 522
5679 1 585 412 570 498
5680 2 585 412 570 522
5681 1 792 412 570 498
5682 2 792 412 570 522
5683 1 570 412 778 706
5684 2 570 412 778 766
5685 1 585 412 778 706
5686 2 585 412 778 766
5687 1 792 412 778 706
5688 2 792 412 778 766
5689 1 570 412 585 513
5690 2 570 412 585 555
5691 1 778 412 585 513
5692 2 778 412 585 555
5693 1 792 412 585 513
5694 2 792 412 585 555
5695 1 570 412 792 720
5696 2 570 412 792 724
5697 1 778 412 792 720
5698 2 778 412 792 724
5699 1 585 412 792 720
5700 2 585 412 792 724
5701 10 657 732 780 210
5702 11 657 732 780 708
5703 12 784 732 780 210
5704 13 784 732 780 708
5705 10 657 732 784 1431
5706 11 657 732 784 712
5707 12 780 732 784 1431
5708 13 780 732 784 712
5709 1 700 772 1430 1586
5710 1 700 772 1430 1601
5711 1 700 772 1430 791
5712 2 724 772 1430 1586
5713 2 724 772 1430 1601
5714 2 724 772 1430 791
5715 1 712 784 1431 1589
5716 1 712 784 1431 779
5717 1 712 784 1431 1598
5718 2 732 784 1431 1589
5719 2 732 784 1431 779
5720 2 732 784 1431 1598
5721 1 795 1435 1609 1549
5722 2 795 1435 1609 1573
5723 1 1627 1435 1609 1549
5724 2 1627 1435 1609 1573
5725 1 812 1435 1609 1549
5726 2 812 1435 1609 1573
5727 1 1609 1435 1627 1567
5728 2 1609 1435 1627 1579
5729 1 795 1435 1627 1567
5730 2 795 1435 1627 1579
5731 1 812 1435 1627 1567
5732 2 812 1435 1627 1579
5733 1 779 1431 1589 1517
5734 2 779 1431 1589 1541
5735 1 1598 1431 1589 1517
5736 2 1598 1431 1589 1541
5737 1 784 1431 1589 1517
5738 2 784 1431 1589 1541
5739 1 1589 1431 1598 1526
5740 2 1589 1431 1598 1546
5741 1 779 1431 1598 1526
5742 2 779 1431 1598 1546
5743 1 784 1431 1598 1526
5744 2 784 1431 1598 1546
5745 10 649 1541 1589 1431
5746 11 649 1541 1589 1517
5747 12 1601 1541 1589 1431
5748 13 1601 1541 1589 1517
5749 10 649 1541 1601 1430
5750 11 649 1541 1601 1529
5751 12 1589 1541 1601 1430
5752 13 1589 1541 1601 1529
5753 10 651 729 777 617
5754 11 651 729 777 705
5755 12 815 729 777 617
5756 13 815 729 777 705
5757 10 651 729 815 212
5758 11 651 729 815 755
5759 12 777 729 815 212
5760 13 777 729 815 755
5761 10 1510 1574 1586 1430
5762 11 1510 1574 1586 1514
5763 12 1630 1574 1586 1430
5764 13 1630 1574 1586 1514
5765 10 1510 1574 1630 1236
5766 11 1510 1574 1630 1570
5767 12 1586 1574 1630 1236
5768 13 1586 1574 1630 1570
5769 3 1449 1521 1571 1499
5770 4 1449 1521 1571 1631
5771 4 1593 1521 1571 1499
5772 5 1593 1521 1571 1631
5773 6 1449 1521 1593 1433
5774 7 1449 1521 1593 1545
5775 8 1571 1521 1593 1433
5776 9 1571 1521 1593 1545
5777 3 1454 1526 1558 1486
5778 4 1454 1526 1558 1618
5779 4 1598 1526 1558 1486
5780 5 1598 1526 1558 1618
5781 6 1454 1526 1598 1431
5782 7 1454 1526 1598 1546
5783 8 1558 1526 1598 1431
5784 9 1558 1526 1598 1546
5785 1 1416 1236 1616 1556
5786 2 1416 1236 1616 1580
5787 1 1422 1236 1616 1556
5788 2 1422 1236 1616 1580
5789 1 1630 1236 1616 1556
5790 2 1630 1236 1616 1580
5791 1 1616 1236 1416 1356
5792 2 1616 1236 1416 1380
5793 1 1422 1236 1416 1356
5794 2 1422 1236 1416 1380
5795 1 1630 1236 1416 1356
5796 2 1630 1236 1416 1380
5797 1 1616 1236 1422 1362
5798 2 1616 1236 1422 1369
5799 1 1416 1236 1422 1362
5800 2 1416 1236 1422 1369
5801 1 1630 1236 1422 1362
5802 2 1630 1236 1422 1369
5803 1 1616 1236 1630 1570
5804 2 1616 1236 1630 1574
5805 1 1416 1236 1630 1570
5806 2 1416 1236 1630 1574
5807 1 1422 1236 1630 1570
5808 2 1422 1236 1630 1574
5809 10 1471 1546 1598 1431
5810 11 1471 1546 1598 1526
5811 12 1618 1546 1598 1431
5812 13 1618 1546 1598 1526
5813 10 1471 1546 1618 1030
5814 11 1471 1546 1618 1558
5815 12 1598 1546 1618 1030
5816 13 1598 1546 1618 1558
5817 3 1477 1549 1566 1494
5818 4 1477 1549 1566 1626
5819 4 1609 1549 1566 1494
5820 5 1609 1549 1566 1626
5821 6 1477 1549 1609 1435
5822 7 1477 1549 1609 1573
5823 8 1566 1549 1609 1435
5824 9 1566 1549 1609 1573
5825 6 1486 1558 1618 1030
5826 7 1486 1558 1618 1546
5827 8 1526 1558 1618 1030
5828 9 1526 1558 1618 1546
5829 6 1494 1566 1626 1440
5830 7 1494 1566 1626 1573
5831 8 1549 1566 1626 1440
5832 9 1549 1566 1626 1573
5833 6 1499 1571 1631 1028
5834 7 1499 1571 1631 1545
5835 8 1521 1571 1631 1028
5836 9 1521 1571 1631 1545
5837 10 1511 1376 1395 1433
5838 11 1511 1376 1395 1323
5839 12 1412 1376 1395 1433
5840 13 1412 1376 1395 1323
5841 10 1511 1376 1412 1440
5842 11 1511 1376 1412 1352
5843 12 1395 1376 1412 1440
5844 13 1395 1376 1412 1352
5845 10 1508 1168 1204 1028
5846 11 1508 1168 1204 1144
5847 12 1224 1168 1204 1028
5848 13 1224 1168 1204 1144
5849 10 1508 1168 1224 1030
5850 11 1508 1168 1224 1164
5851 12 1204 1168 1224 1030
5852 13 1204 1168 1224 1164
5853 3 1443 1515 1569 1497
5854 4 1443 1515 1569 1629
5855 4 1587 1515 1569 1497
5856 5 1587 1515 1569 1629
5857 6 1443 1515 1587 1021
5858 7 1443 1515 1587 1539
5859 8 1569 1515 1587 1021
5860 9 1569 1515 1587 1539
5861 3 1445 1517 1529 1457
5862 4 1445 1517 1529 1601
5863 4 1589 1517 1529 1457
5864 5 1589 1517 1529 1601
5865 6 1445 1517 1589 1431
5866 7 1445 1517 1589 1541
5867 8 1529 1517 1589 1431
5868 9 1529 1517 1589 1541
5869 3 1455 1527 1556 1484
5870 4 1455 1527 1556 1616
5871 4 1599 1527 1556 1484
5872 5 1599 1527 1556 1616
5873 6 1455 1527 1599 1229
5874 7 1455 1527 1599 1580
5875 8 1556 1527 1599 1229
5876 9 1556 1527 1599 1580
5877 6 1457 1529 1601 1430
5878 7 1457 1529 1601 1541
5879 8 1517 1529 1601 1430
5880 9 1517 1529 1601 1541
5881 6 1484 1556 1616 1236
5882 7 1484 1556 1616 1580
5883 8 1527 1556 1616 1236
5884 9 1527 1556 1616 1580
5885 6 1497 1569 1629 1030
5886 7 1497 1569 1629 1539
5887 8 1515 1569 1629 1030
5888 9 1515 1569 1629 1539
5889 1 1389 1229 1591 1519
5890 2 1389 1229 1591 1543
5891 1 1393 1229 1591 1519
5892 2 1393 1229 1591 1543
5893 1 1599 1229 1591 1519
5894 2 1599 1229 1591 1543
5895 1 1591 1229 1389 1317
5896 2 1591 1229 1389 1341
5897 1 1393 1229 1389 1317
5898 2 1393 1229 1389 1341
5899 1 1599 1229 1389 1317
5900 2 1599 1229 1389 1341
5901 1 1591 1229 1393 1321
5902 2 1591 1229 1393 1338
5903 1 1389 1229 1393 1321
5904 2 1389 1229 1393 1338
5905 1 1599 1229 1393 1321
5906 2 1599 1229 1393 1338
5907 1 1591 1229 1599 1527
5908 2 1591 1229 1599 1580
5909 1 1389 1229 1599 1527
5910 2 1389 1229 1599 1580
5911 1 1393 1229 1599 1527
5912 2 1393 1229 1599 1580
5913 10 1466 1543 1591 1229
5914 11 1466 1543 1591 1519
5915 12 1603 1543 1591 1229
5916 13 1603 1543 1591 1519
5917 10 1466 1543 1603 1021
5918 11 1466 1543 1603 1531
5919 12 1591 1543 1603 1021
5920 13 1591 1543 1603 1531
5921 10 1504 767 779 1431
5922 11 1504 767 779 707
5923 12 812 767 779 1431
5924 13 812 767 779 707
5925 10 1504 767 812 1435
5926 11 1504 767 812 752
5927 12 779 767 812 1435
5928 13 779 767 812 752
5929 3 1446 1518 1525 1453
5930 4 1446 1518 1525 1597
5931 4 1590 1518 1525 1453
5932 5 1590 1518 1525 1597
5933 6 1446 1518 1590 1432
5934 7 1446 1518 1590 1542
5935 8 1525 1518 1590 1432
5936 9 1525 1518 1590 1542
5937 3 1451 1523 1568 1496
5938 4 1451 1523 1568 1628
5939 4 1595 1523 1568 1496
5940 5 1595 1523 1568 1628
5941 6 1451 1523 1595 615
5942 7 1451 1523 1595 1583
5943 8 1568 1523 1595 615
5944 9 1568 1523 1595 1583
5945 6 1453 1525 1597 1433
5946 7 1453 1525 1597 1542
5947 8 1518 1525 1597 1433
5948 9 1518 1525 1597 1542
5949 3 1462 1534 1550 1478
5950 4 1462 1534 1550 1610
5951 4 1606 1534 1550 1478
5952 5 1606 1534 1550 1610
5953 6 1462 1534 1606 1026
5954 7 1462 1534 1606 1538
5955 8 1550 1534 1606 1026
5956 9 1550 1534 1606 1538
5957 10 1469 1338 1386 1228
5958 11 1469 1338 1386 1314
5959 12 1393 1338 1386 1228
5960 13 1393 1338 1386 1314
5961 10 1469 1338 1393 1229
5962 11 1469 1338 1393 1321
5963 12 1386 1338 1393 1229
5964 13 1386 1338 1393 1321
5965 6 1478 1550 1610 1028
5966 7 1478 1550 1610 1538
5967 8 1534 1550 1610 1028
5968 9 1534 1550 1610 1538
5969 6 1496 1568 1628 619
5970 7 1496 1568 1628 1583
5971 8 1523 1568 1628 619
5972 9 1523 1568 1628 1583
5973 10 1512 1575 1605 1432
5974 11 1512 1575 1605 1533
5975 12 1611 1575 1605 1432
5976 13 1611 1575 1605 1533
5977 10 1512 1575 1611 619
5978 11 1512 1575 1611 1551
5979 12 1605 1575 1611 619
5980 13 1605 1575 1611 1551
5981 1 1588 614 770 698
5982 2 1588 614 770 758
5983 1 785 614 770 698
5984 2 785 614 770 758
5985 1 1607 614 770 698
5986 2 1607 614 770 758
5987 1 770 614 1588 1516
5988 2 770 614 1588 1540
5989 1 785 614 1588 1516
5990 2 785 614 1588 1540
5991 1 1607 614 1588 1516
5992 2 1607 614 1588 1540
5993 1 770 614 785 713
5994 2 770 614 785 725
5995 1 1588 614 785 713
5996 2 1588 614 785 725
5997 1 1607 614 785 713
5998 2 1607 614 785 725
5999 1 770 614 1607 1535
6000 2 770 614 1607 1581
6001 1 1588 614 1607 1535
6002 2 1588 614 1607 1581
6003 1 785 614 1607 1535
6004 2 785 614 1607 1581
6005 3 1444 1516 1536 1464
6006 4 1444 1516 1536 1608
6007 4 1588 1516 1536 1464
6008 5 1588 1516 1536 1608
6009 6 1444 1516 1588 614
6010 7 1444 1516 1588 1540
6011 8 1536 1516 1588 614
6012 9 1536 1516 1588 1540
6013 3 1447 1519 1531 1459
6014 4 1447 1519 1531 1603
6015 4 1591 1519 1531 1459
6016 5 1591 1519 1531 1603
6017 6 1447 1519 1591 1229
6018 7 1447 1519 1591 1543
6019 8 1531 1519 1591 1229
6020 9 1531 1519 1591 1543
6021 3 1452 1524 1528 1456
6022 4 1452 1524 1528 1600
6023 4 1596 1524 1528 1456
6024 5 1596 1524 1528 1600
6025 6 1452 1524 1596 1026
6026 7 1452 1524 1596 1548
6027 8 1528 1524 1596 1026
6028 9 1528 1524 1596 1548
6029 6 1456 1528 1600 615
6030 7 1456 1528 1600 1548
6031 8 1524 1528 1600 615
6032 9 1524 1528 1600 1548
6033 6 1459 1531 1603 1021
6034 7 1459 1531 1603 1543
6035 8 1519 1531 1603 1021
6036 9 1519 1531 1603 1543
6037 6 1464 1536 1608 1228
6038 7 1464 1536 1608 1540
6039 8 1516 1536 1608 1228
6040 9 1516 1536 1608 1540
6041 10 1470 1129 1177 1021
6042 11 1470 1129 1177 1105
6043 12 1194 1129 1177 1021
6044 13 1194 1129 1177 1105
6045 10 1470 1129 1194 1026
6046 11 1470 1129 1194 1122
6047 12 1177 1129 1194 1026
6048 13 1177 1129 1194 1122
6049 1 1594 1228 1386 1314
6050 2 1594 1228 1386 1338
6051 1 1401 1228 1386 1314
6052 2 1401 1228 1386 1338
6053 1 1608 1228 1386 1314
6054 2 1608 1228 1386 1338
6055 1 1386 1228 1594 1522
6056 2 1386 1228 1594 1582
6057 1 1401 1228 1594 1522
6058 2 1401 1228 1594 1582
6059 1 1608 1228 1594 1522
6060 2 1608 1228 1594 1582
6061 1 1386 1228 1401 1329
6062 2 1386 1228 1401 1371
6063 1 1594 1228 1401 1329
6064 2 1594 1228 1401 1371
6065 1 1608 1228 1401 1329
6066 2 1608 1228 1401 1371
6067 1 1386 1228 1608 1536
6068 2 1386 1228 1608 1540
6069 1 1594 1228 1608 1536
6070 2 1594 1228 1608 1540
6071 1 1401 1228 1608 1536
6072 2 1401 1228 1608 1540
6073 10 1473 1548 1596 1026
6074 11 1473 1548 1596 1524
6075 12 1600 1548 1596 1026
6076 13 1600 1548 1596 1524
6077 10 1473 1548 1600 615
6078 11 1473 1548 1600 1528
6079 12 1596 1548 1600 615
6080 13 1596 1548 1600 1528
6081 1 1611 619 793 733
6082 2 1611 619 793 757
6083 1 811 619 793 733
6084 2 811 619 793 757
6085 1 1628 619 793 733
6086 2 1628 619 793 757
6087 1 793 619 1611 1551
6088 2 793 619 1611 1575
6089 1 811 619 1611 1551
6090 2 811 619 1611 1575
6091 1 1628 619 1611 1551
6092 2 1628 619 1611 1575
6093 1 793 619 811 751
6094 2 793 619 811 763
6095 1 1611 619 811 751
6096 2 1611 619 811 763
6097 1 1628 619 811 751
6098 2 1628 619 811 763
6099 1 793 619 1628 1568
6100 2 793 619 1628 1583
6101 1 1611 619 1628 1568
6102 2 1611 619 1628 1583
6103 1 811 619 1628 1568
6104 2 811 619 1628 1583
6105 1 1595 615 773 701
6106 2 1595 615 773 725
6107 1 782 615 773 701
6108 2 782 615 773 725
6109 1 1600 615 773 701
6110 2 1600 615 773 725
6111 1 773 615 1595 1523
6112 2 773 615 1595 1583
6113 1 782 615 1595 1523
6114 2 782 615 1595 1583
6115 1 1600 615 1595 1523
6116 2 1600 615 1595 1583
6117 1 773 615 782 710
6118 2 773 615 782 730
6119 1 1595 615 782 710
6120 2 1595 615 782 730
6121 1 1600 615 782 710
6122 2 1600 615 782 730
6123 1 773 615 1600 1528
6124 2 773 615 1600 1548
6125 1 1595 615 1600 1528
6126 2 1595 615 1600 1548
6127 1 782 615 1600 1528
6128 2 782 615 1600 1548
6129 10 1465 725 773 615
6130 11 1465 725 773 701
6131 12 785 725 773 615
6132 13 785 725 773 701
6133 10 1465 725 785 614
6134 11 1465 725 785 713
6135 12 773 725 785 614
6136 13 773 725 785 713
6137 10 1467 1545 1593 1433
6138 11 1467 1545 1593 1521
6139 12 1631 1545 1593 1433
6140 13 1631 1545 1593 1521
6141 10 1467 1545 1631 1028
6142 11 1467 1545 1631 1571
6143 12 1593 1545 1631 1028
6144 13 1593 1545 1631 1571

Impropers

1 3 186 10 126 150
2 3 204 10 144 148
3 3 598 10 526 538
4 3 609 10 519 549
5 1 124 52 144 184
6 1 127 55 139 187
7 1 132 60 136 192
8 1 136 64 132 196
9 1 139 67 127 199
10 1 144 72 124 204
11 2 149 73 185 197
12 2 150 77 186 193
13 2 145 78 181 198
14 3 191 213 119 131
15 3 194 213 134 154
16 3 389 213 329 353
17 3 400 213 340 360
18 1 86 14 142 158
19 1 104 32 131 176
20 2 519 48 567 609
21 1 126 54 133 186
22 1 131 59 104 191
23 1 133 61 126 193
24 1 142 70 86 202
25 2 969 75 995 1005
26 2 360 81 396 400
27 3 184 8 124 148
28 3 197 8 137 149
29 3 590 8 518 530
30 3 611 8 525 551
31 3 157 1 85 109
32 3 176 1 104 119
33 3 567 1 495 519
34 3 583 1 511 523
35 1 92 20 135 164
36 1 105 33 123 177
37 2 518 46 586 590
38 1 123 51 105 183
39 1 125 53 137 185
40 1 135 63 92 195
41 1 137 65 125 197
42 2 967 74 1003 1015
43 2 358 79 370 398
44 3 164 6 92 116
45 3 174 6 102 109
46 3 576 6 504 528
47 3 586 6 514 518
48 1 85 13 102 157
49 1 94 22 134 166
50 1 102 30 85 174
51 1 107 35 129 179
52 2 119 40 176 191
53 2 112 44 160 180
54 2 116 47 164 195
55 1 129 57 107 189
56 1 134 62 94 194
57 3 189 827 129 153
58 3 195 827 116 135
59 3 1003 827 943 967
60 3 1009 827 949 966
61 3 1002 826 942 966
62 3 1020 826 960 964
63 3 1414 826 1342 1354
64 3 1425 826 1335 1365
65 1 940 868 960 1000
66 1 943 871 955 1003
67 1 948 876 952 1008
68 1 952 880 948 1012
69 1 955 883 943 1015
70 1 960 888 940 1020
71 2 965 889 1001 1013
72 2 966 893 1002 1009
73 2 961 894 997 1014
74 3 1007 1029 935 947
75 3 1010 1029 950 970
76 3 1205 1029 1145 1169
77 3 1216 1029 1156 1176
78 1 902 830 958 974
79 1 920 848 947 992
80 2 1335 864 1383 1425
81 1 942 870 949 1002
82 1 947 875 920 1007
83 1 949 877 942 1009
84 1 958 886 902 1018
85 2 153 891 179 189
86 2 1176 897 1212 1216
87 3 1000 824 940 964
88 3 1013 824 953 965
89 3 1406 824 1334 1346
90 3 1427 824 1341 1367
91 3 973 817 901 925
92 3 992 817 920 935
93 3 1383 817 1311 1335
94 3 1399 817 1327 1339
95 1 908 836 951 980
96 1 921 849 939 993
97 2 1334 862 1402 1406
98 1 939 867 921 999
99 1 941 869 953 1001
100 1 951 879 908 1011
101 1 953 881 941 1013
102 2 151 890 187 199
103 2 1174 895 1186 1214
104 3 980 822 908 932
105 3 990 822 918 925
106 3 1392 822 1320 1344
107 3 1402 822 1330 1334
108 1 901 829 918 973
109 1 910 838 950 982
110 1 918 846 901 990
111 1 923 851 945 995
112 2 935 856 992 1007
113 2 928 860 976 996
114 2 932 863 980 1011
115 1 945 873 923 1005
116 1 950 878 910 1010
117 3 187 11 127 151
118 3 193 11 133 150
119 3 1005 11 945 969
120 3 1011 11 932 951
121 1 93 21 143 165
122 1 98 26 130 170
123 1 121 49 138 181
124 1 130 58 98 190
125 1 138 66 121 198
126 1 143 71 93 203
127 2 971 76 983 1016
128 2 556 80 592 612
129 2 356 83 375 392
130 3 188 216 128 152
131 3 202 216 142 146
132 3 396 216 336 360
133 3 402 216 342 349
134 1 87 15 141 159
135 1 89 17 101 161
136 1 99 27 128 171
137 1 101 29 89 173
138 2 115 38 163 175
139 2 118 43 170 190
140 1 128 56 99 188
141 1 141 69 87 201
142 2 146 82 158 202
143 3 163 209 91 115
144 3 171 209 99 152
145 3 369 209 297 321
146 3 373 209 301 318
147 3 160 818 88 112
148 3 179 818 107 153
149 3 974 818 902 962
150 3 989 818 917 929
151 1 90 18 97 162
152 1 95 23 140 167
153 1 97 25 90 169
154 1 106 34 122 178
155 2 117 39 165 203
156 2 120 45 168 172
157 1 122 50 106 182
158 1 140 68 95 200
159 2 147 84 177 183
160 1 88 16 108 160
161 1 91 19 103 163
162 1 96 24 100 168
163 1 100 28 96 172
164 1 103 31 91 175
165 1 108 36 88 180
166 2 929 37 977 989
167 2 318 41 366 373
168 2 517 42 565 582
169 3 166 208 94 154
170 3 180 208 108 112
171 3 366 208 294 318
172 3 381 208 309 351
173 3 183 823 123 147
174 3 200 823 140 155
175 3 997 823 937 961
176 3 1015 823 955 967
177 3 167 819 95 155
178 3 172 819 100 120
179 3 977 819 905 929
180 3 986 819 914 934
181 1 909 837 959 981
182 1 914 842 946 986
183 1 937 865 954 997
184 1 946 874 914 1006
185 1 954 882 937 1014
186 1 959 887 909 1019
187 2 155 892 167 200
188 2 1372 896 1408 1428
189 2 1172 899 1191 1208
190 3 1004 1032 944 968
191 3 1018 1032 958 962
192 3 1212 1032 1152 1176
193 3 1218 1032 1158 1165
194 1 903 831 957 975
195 1 905 833 917 977
196 1 915 843 944 987
197 1 917 845 905 989
198 2 931 854 979 991
199 2 934 859 986 1006
200 1 944 872 915 1004
201 1 957 885 903 1017
202 2 962 898 974 1018
203 3 979 1025 907 931
204 3 987 1025 915 968
205 3 1185 1025 1113 1137
206 3 1189 1025 1117 1134
207 1 906 834 913 978
208 1 911 839 956 983
209 1 913 841 906 985
210 1 922 850 938 994
211 2 933 855 981 1019
212 2 936 861 984 988
213 1 938 866 922 998
214 1 956 884 911 1016
215 2 963 900 993 999
216 3 158 2 86 146
217 3 173 2 101 113
218 3 976 2 904 928
219 3 995 2 923 969
220 1 904 832 924 976
221 1 907 835 919 979
222 1 912 840 916 984
223 1 916 844 912 988
224 1 919 847 907 991
225 1 924 852 904 996
226 2 113 853 161 173
227 2 1134 857 1182 1189
228 2 1333 858 1381 1398
229 3 982 1024 910 970
230 3 996 1024 924 928
231 3 1182 1024 1110 1134
232 3 1197 1024 1125 1167
233 3 181 7 121 145
234 3 199 7 139 151
235 3 999 7 939 963
236 3 1016 7 956 971
237 3 161 3 89 113
238 3 170 3 98 118
239 3 983 3 911 971
240 3 988 3 916 936
241 3 190 418 118 130
242 3 201 418 111 141
243 3 594 418 534 558
244 3 612 418 552 556
245 1 532 460 552 592
246 1 535 463 547 595
247 1 540 468 544 600
248 1 544 472 540 604
249 1 547 475 535 607
250 1 552 480 532 612
251 2 557 481 593 605
252 2 558 485 594 601
253 2 553 486 589 606
254 3 599 621 527 539
255 3 602 621 542 562
256 3 797 621 737 761
257 3 808 621 748 768
258 1 494 422 550 566
259 1 512 440 539 584
260 2 111 456 159 201
261 1 534 462 541 594
262 1 539 467 512 599
263 1 541 469 534 601
264 1 550 478 494 610
265 2 1377 483 1403 1413
266 2 768 489 804 808
267 3 182 416 110 122
268 3 203 416 117 143
269 3 592 416 532 556
270 3 605 416 545 557
271 3 159 409 87 111
272 3 175 409 103 115
273 3 565 409 493 517
274 3 584 409 512 527
275 1 500 428 543 572
276 1 513 441 531 585
277 2 110 454 178 182
278 1 531 459 513 591
279 1 533 461 545 593
280 1 543 471 500 603
281 1 545 473 533 605
282 2 1375 482 1411 1423
283 2 766 487 778 806
284 3 168 414 96 120
285 3 178 414 106 110
286 3 572 414 500 524
287 3 582 414 510 517
288 1 493 421 510 565
289 1 502 430 542 574
290 1 510 438 493 582
291 1 515 443 537 587
292 2 527 448 584 599
293 2 520 452 568 588
294 2 524 455 572 603
295 1 537 465 515 597
296 1 542 470 502 602
297 3 597 1235 537 561
298 3 603 1235 524 543
299 3 1411 1235 1351 1375
300 3 1417 1235 1357 1374
301 3 1006 1234 934 946
302 3 1017 1234 927 957
303 3 1410 1234 1350 1374
304 3 1428 1234 1368 1372
305 1 1348 1276 1368 1408
306 1 1351 1279 1363 1411
307 1 1356 1284 1360 1416
308 1 1360 1288 1356 1420
309 1 1363 1291 1351 1423
310 1 1368 1296 1348 1428
311 2 1373 1297 1409 1421
312 2 1374 1301 1410 1417
313 2 1369 1302 1405 1422
314 3 1415 1437 1343 1355
315 3 1418 1437 1358 1378
316 3 1613 1437 1553 1577
317 3 1624 1437 1564 1584
318 1 1310 1238 1366 1382
319 1 1328 1256 1355 1400
320 2 927 1272 975 1017
321 1 1350 1278 1357 1410
322 1 1355 1283 1328 1415
323 1 1357 1285 1350 1417
324 1 1366 1294 1310 1426
325 2 561 1299 587 597
326 2 1584 1305 1620 1624
327 3 998 1232 926 938
328 3 1019 1232 933 959
329 3 1408 1232 1348 1372
330 3 1421 1232 1361 1373
331 3 975 1225 903 927
332 3 991 1225 919 931
333 3 1381 1225 1309 1333
334 3 1400 1225 1328 1343
335 1 1316 1244 1359 1388
336 1 1329 1257 1347 1401
337 2 926 1270 994 998
338 1 1347 1275 1329 1407
339 1 1349 1277 1361 1409
340 1 1359 1287 1316 1419
341 1 1361 1289 1349 1421
342 2 559 1298 595 607
343 2 1582 1303 1594 1622
344 3 984 1230 912 936
345 3 994 1230 922 926
346 3 1388 1230 1316 1340
347 3 1398 1230 1326 1333
348 1 1309 1237 1326 1381
349 1 1318 1246 1358 1390
350 1 1326 1254 1309 1398
351 1 1331 1259 1353 1403
352 2 1343 1264 1400 1415
353 2 1336 1268 1384 1404
354 2 1340 1271 1388 1419
355 1 1353 1281 1331 1413
356 1 1358 1286 1318 1418
357 3 595 419 535 559
358 3 601 419 541 558
359 3 1413 419 1353 1377
360 3 1419 419 1340 1359
361 1 501 429 551 573
362 1 506 434 538 578
363 1 529 457 546 589
364 1 538 466 506 598
365 1 546 474 529 606
366 1 551 479 501 611
367 2 1379 484 1391 1424
368 2 148 488 184 204
369 2 764 491 783 800
370 3 596 624 536 560
371 3 610 624 550 554
372 3 804 624 744 768
373 3 810 624 750 757
374 1 495 423 549 567
375 1 497 425 509 569
376 1 507 435 536 579
377 1 509 437 497 581
378 2 523 446 571 583
379 2 526 451 578 598
380 1 536 464 507 596
381 1 549 477 495 609
382 2 554 490 566 610
383 3 571 617 499 523
384 3 579 617 507 560
385 3 777 617 705 729
386 3 781 617 709 726
387 3 568 1226 496 520
388 3 587 1226 515 561
389 3 1382 1226 1310 1370
390 3 1397 1226 1325 1337
391 1 498 426 505 570
392 1 503 431 548 575
393 1 505 433 498 577
394 1 514 442 530 586
395 2 525 447 573 611
396 2 528 453 576 580
397 1 530 458 514 590
398 1 548 476 503 608
399 2 555 492 585 591
400 1 496 424 516 568
401 1 499 427 511 571
402 1 504 432 508 576
403 1 508 436 504 580
404 1 511 439 499 583
405 1 516 444 496 588
406 2 1337 445 1385 1397
407 2 726 449 774 781
408 2 109 450 157 174
409 3 574 616 502 562
410 3 588 616 516 520
411 3 774 616 702 726
412 3 789 616 717 759
413 3 591 1231 531 555
414 3 608 1231 548 563
415 3 1405 1231 1345 1369
416 3 1423 1231 1363 1375
417 3 575 1227 503 563
418 3 580 1227 508 528
419 3 1385 1227 1313 1337
420 3 1394 1227 1322 1342
421 1 1317 1245 1367 1389
422 1 1322 1250 1354 1394
423 1 1345 1273 1362 1405
424 1 1354 1282 1322 1414
425 1 1362 1290 1345 1422
426 1 1367 1295 1317 1427
427 2 563 1300 575 608
428 2 964 1304 1000 1020
429 2 1580 1307 1599 1616
430 3 1412 1440 1352 1376
431 3 1426 1440 1366 1370
432 3 1620 1440 1560 1584
433 3 1626 1440 1566 1573
434 1 1311 1239 1365 1383
435 1 1313 1241 1325 1385
436 1 1323 1251 1352 1395
437 1 1325 1253 1313 1397
438 2 1339 1262 1387 1399
439 2 1342 1267 1394 1414
440 1 1352 1280 1323 1412
441 1 1365 1293 1311 1425
442 2 1370 1306 1382 1426
443 3 1387 1433 1315 1339
444 3 1395 1433 1323 1376
445 3 1593 1433 1521 1545
446 3 1597 1433 1525 1542
447 1 1314 1242 1321 1386
448 1 1319 1247 1364 1391
449 1 1321 1249 1314 1393
450 1 1330 1258 1346 1402
451 2 1341 1263 1389 1427
452 2 1344 1269 1392 1396
453 1 1346 1274 1330 1406
454 1 1364 1292 1319 1424
455 2 1371 1308 1401 1407
456 3 566 410 494 554
457 3 581 410 509 521
458 3 1384 410 1312 1336
459 3 1403 410 1331 1377
460 1 1312 1240 1332 1384
461 1 1315 1243 1327 1387
462 1 1320 1248 1324 1392
463 1 1324 1252 1320 1396
464 1 1327 1255 1315 1399
465 1 1332 1260 1312 1404
466 2 521 1261 569 581
467 2 1542 1265 1590 1597
468 2 925 1266 973 990
469 3 1390 1432 1318 1378
470 3 1404 1432 1332 1336
471 3 1590 1432 1518 1542
472 3 1605 1432 1533 1575
473 3 589 415 529 553
474 3 607 415 547 559
475 3 1407 415 1347 1371
476 3 1424 415 1364 1379
477 3 569 411 497 521
478 3 578 411 506 526
479 3 1391 411 1319 1379
480 3 1396 411 1324 1344
481 3 390 214 330 354
482 3 408 214 348 352
483 3 802 214 730 742
484 3 813 214 723 753
485 1 328 256 348 388
486 1 331 259 343 391
487 1 336 264 340 396
488 1 340 268 336 400
489 1 343 271 331 403
490 1 348 276 328 408
491 2 353 277 389 401
492 2 354 281 390 397
493 2 349 282 385 402
494 3 185 9 125 149
495 3 196 9 136 156
496 3 395 9 323 335
497 3 398 9 338 358
498 1 290 218 346 362
499 1 308 236 335 380
500 2 723 252 771 813
501 1 330 258 337 390
502 1 335 263 308 395
503 1 337 265 330 397
504 1 346 274 290 406
505 2 1173 279 1199 1209
506 2 156 285 192 196
507 3 388 212 328 352
508 3 401 212 341 353
509 3 794 212 722 734
510 3 815 212 729 755
511 3 361 205 289 313
512 3 380 205 308 323
513 3 771 205 699 723
514 3 787 205 715 727
515 1 296 224 339 368
516 1 309 237 327 381
517 2 722 250 790 794
518 1 327 255 309 387
519 1 329 257 341 389
520 1 339 267 296 399
521 1 341 269 329 401
522 2 1171 278 1207 1219
523 2 154 283 166 194
524 3 368 210 296 320
525 3 378 210 306 313
526 3 780 210 708 732
527 3 790 210 718 722
528 1 289 217 306 361
529 1 298 226 338 370
530 1 306 234 289 378
531 1 311 239 333 383
532 2 323 244 380 395
533 2 316 248 364 384
534 2 320 251 368 399
535 1 333 261 311 393
536 1 338 266 298 398
537 3 393 1031 333 357
538 3 399 1031 320 339
539 3 1207 1031 1147 1171
540 3 1213 1031 1153 1170
541 3 1206 1030 1146 1170
542 3 1224 1030 1164 1168
543 3 1618 1030 1546 1558
544 3 1629 1030 1539 1569
545 1 1144 1072 1164 1204
546 1 1147 1075 1159 1207
547 1 1152 1080 1156 1212
548 1 1156 1084 1152 1216
549 1 1159 1087 1147 1219
550 1 1164 1092 1144 1224
551 2 1169 1093 1205 1217
552 2 1170 1097 1206 1213
553 2 1165 1098 1201 1218
554 3 1001 825 941 965
555 3 1012 825 952 972
556 3 1211 825 1139 1151
557 3 1214 825 1154 1174
558 1 1106 1034 1162 1178
559 1 1124 1052 1151 1196
560 2 1539 1068 1587 1629
561 1 1146 1074 1153 1206
562 1 1151 1079 1124 1211
563 1 1153 1081 1146 1213
564 1 1162 1090 1106 1222
565 2 357 1095 383 393
566 2 972 1101 1008 1012
567 3 1204 1028 1144 1168
568 3 1217 1028 1157 1169
569 3 1610 1028 1538 1550
570 3 1631 1028 1545 1571
571 3 1177 1021 1105 1129
572 3 1196 1021 1124 1139
573 3 1587 1021 1515 1539
574 3 1603 1021 1531 1543
575 1 1112 1040 1155 1184
576 1 1125 1053 1143 1197
577 2 1538 1066 1606 1610
578 1 1143 1071 1125 1203
579 1 1145 1073 1157 1205
580 1 1155 1083 1112 1215
581 1 1157 1085 1145 1217
582 2 355 1094 391 403
583 2 970 1099 982 1010
584 3 1184 1026 1112 1136
585 3 1194 1026 1122 1129
586 3 1596 1026 1524 1548
587 3 1606 1026 1534 1538
588 1 1105 1033 1122 1177
589 1 1114 1042 1154 1186
590 1 1122 1050 1105 1194
591 1 1127 1055 1149 1199
592 2 1139 1060 1196 1211
593 2 1132 1064 1180 1200
594 2 1136 1067 1184 1215
595 1 1149 1077 1127 1209
596 1 1154 1082 1114 1214
597 3 391 215 331 355
598 3 397 215 337 354
599 3 1209 215 1149 1173
600 3 1215 215 1136 1155
601 1 297 225 347 369
602 1 302 230 334 374
603 1 325 253 342 385
604 1 334 262 302 394
605 1 342 270 325 402
606 1 347 275 297 407
607 2 1175 280 1187 1220
608 2 760 284 796 816
609 2 152 287 171 188
610 3 192 12 132 156
611 3 198 12 138 145
612 3 392 12 332 356
613 3 406 12 346 350
614 1 291 219 345 363
615 1 293 221 305 365
616 1 303 231 332 375
617 1 305 233 293 377
618 2 319 242 367 379
619 2 322 247 374 394
620 1 332 260 303 392
621 1 345 273 291 405
622 2 350 286 362 406
623 3 165 5 93 117
624 3 169 5 97 114
625 3 367 5 295 319
626 3 375 5 303 356
627 3 364 1022 292 316
628 3 383 1022 311 357
629 3 1178 1022 1106 1166
630 3 1193 1022 1121 1133
631 1 294 222 301 366
632 1 299 227 344 371
633 1 301 229 294 373
634 1 310 238 326 382
635 2 321 243 369 407
636 2 324 249 372 376
637 1 326 254 310 386
638 1 344 272 299 404
639 2 351 288 381 387
640 1 292 220 312 364
641 1 295 223 307 367
642 1 300 228 304 372
643 1 304 232 300 376
644 1 307 235 295 379
645 1 312 240 292 384
646 2 1133 241 1181 1193
647 2 114 245 162 169
648 2 721 246 769 786
649 3 162 4 90 114
650 3 177 4 105 147
651 3 370 4 298 358
652 3 384 4 312 316
653 3 387 1027 327 351
654 3 404 1027 344 359
655 3 1201 1027 1141 1165
656 3 1219 1027 1159 1171
657 3 371 1023 299 359
658 3 376 1023 304 324
659 3 1181 1023 1109 1133
660 3 1190 1023 1118 1138
661 1 1113 1041 1163 1185
662 1 1118 1046 1150 1190
663 1 1141 1069 1158 1201
664 1 1150 1078 1118 1210
665 1 1158 1086 1141 1218
666 1 1163 1091 1113 1223
667 2 359 1096 371 404
668 2 1576 1100 1612 1632
669 2 968 1103 987 1004
670 3 1008 828 948 972
671 3 1014 828 954 961
672 3 1208 828 1148 1172
673 3 1222 828 1162 1166
674 1 1107 1035 1161 1179
675 1 1109 1037 1121 1181
676 1 1119 1047 1148 1191
677 1 1121 1049 1109 1193
678 2 1135 1058 1183 1195
679 2 1138 1063 1190 1210
680 1 1148 1076 1119 1208
681 1 1161 1089 1107 1221
682 2 1166 1102 1178 1222
683 3 981 821 909 933
684 3 985 821 913 930
685 3 1183 821 1111 1135
686 3 1191 821 1119 1172
687 1 1110 1038 1117 1182
688 1 1115 1043 1160 1187
689 1 1117 1045 1110 1189
690 1 1126 1054 1142 1198
691 2 1137 1059 1185 1223
692 2 1140 1065 1188 1192
693 1 1142 1070 1126 1202
694 1 1160 1088 1115 1220
695 2 1167 1104 1197 1203
696 3 362 206 290 350
697 3 377 206 305 317
698 3 1180 206 1108 1132
699 3 1199 206 1127 1173
700 1 1108 1036 1128 1180
701 1 1111 1039 1123 1183
702 1 1116 1044 1120 1188
703 1 1120 1048 1116 1192
704 1 1123 1051 1111 1195
705 1 1128 1056 1108 1200
706 2 317 1057 365 377
707 2 930 1061 978 985
708 2 1537 1062 1585 1602
709 3 978 820 906 930
710 3 993 820 921 963
711 3 1186 820 1114 1174
712 3 1200 820 1128 1132
713 3 385 211 325 349
714 3 403 211 343 355
715 3 1203 211 1143 1167
716 3 1220 211 1160 1175
717 3 365 207 293 317
718 3 374 207 302 322
719 3 1187 207 1115 1175
720 3 1192 207 1120 1140
721 3 394 622 322 334
722 3 405 622 315 345
723 3 798 622 738 762
724 3 816 622 756 760
725 1 736 664 756 796
726 1 739 667 751 799
727 1 744 672 748 804
728 1 748 676 744 808
729 1 751 679 739 811
730 1 756 684 736 816
731 2 761 685 797 809
732 2 762 689 798 805
733 2 757 690 793 810
734 3 593 417 533 557
735 3 604 417 544 564
736 3 803 417 731 743
737 3 806 417 746 766
738 1 698 626 754 770
739 1 716 644 743 788
740 2 315 660 363 405
741 1 738 666 745 798
742 1 743 671 716 803
743 1 745 673 738 805
744 1 754 682 698 814
745 2 1581 687 1607 1617
746 2 564 693 600 604
747 3 386 620 314 326
748 3 407 620 321 347
749 3 796 620 736 760
750 3 809 620 749 761
751 3 363 613 291 315
752 3 379 613 307 319
753 3 769 613 697 721
754 3 788 613 716 731
755 1 704 632 747 776
756 1 717 645 735 789
757 2 314 658 382 386
758 1 735 663 717 795
759 1 737 665 749 797
760 1 747 675 704 807
761 1 749 677 737 809
762 2 1579 686 1615 1627
763 2 562 691 574 602
764 3 372 618 300 324
765 3 382 618 310 314
766 3 776 618 704 728
767 3 786 618 714 721
768 1 697 625 714 769
769 1 706 634 746 778
770 1 714 642 697 786
771 1 719 647 741 791
772 2 731 652 788 803
773 2 724 656 772 792
774 2 728 659 776 807
775 1 741 669 719 801
776 1 746 674 706 806
777 3 801 1439 741 765
778 3 807 1439 728 747
779 3 1615 1439 1555 1579
780 3 1621 1439 1561 1578
781 3 1210 1438 1138 1150
782 3 1221 1438 1131 1161
783 3 1614 1438 1554 1578
784 3 1632 1438 1572 1576
785 1 1552 1480 1572 1612
786 1 1555 1483 1567 1615
787 1 1560 1488 1564 1620
788 1 1564 1492 1560 1624
789 1 1567 1495 1555 1627
790 1 1572 1500 1552 1632
791 2 1577 1501 1613 1625
792 2 1578 1505 1614 1621
793 2 1573 1506 1609 1626
794 3 1409 1233 1349 1373
795 3 1420 1233 1360 1380
796 3 1619 1233 1547 1559
797 3 1622 1233 1562 1582
798 1 1514 1442 1570 1586
799 1 1532 1460 1559 1604
800 2 1131 1476 1179 1221
801 1 1554 1482 1561 1614
802 1 1559 1487 1532 1619
803 1 1561 1489 1554 1621
804 1 1570 1498 1514 1630
805 2 765 1503 791 801
806 2 1380 1509 1416 1420
807 3 1202 1436 1130 1142
808 3 1223 1436 1137 1163
809 3 1612 1436 1552 1576
810 3 1625 1436 1565 1577
811 3 1179 1429 1107 1131
812 3 1195 1429 1123 1135
813 3 1585 1429 1513 1537
814 3 1604 1429 1532 1547
815 1 1520 1448 1563 1592
816 1 1533 1461 1551 1605
817 2 1130 1474 1198 1202
818 1 1551 1479 1533 1611
819 1 1553 1481 1565 1613
820 1 1563 1491 1520 1623
821 1 1565 1493 1553 1625
822 2 763 1502 799 811
823 2 1378 1507 1390 1418
824 3 1188 1434 1116 1140
825 3 1198 1434 1126 1130
826 3 1592 1434 1520 1544
827 3 1602 1434 1530 1537
828 1 1513 1441 1530 1585
829 1 1522 1450 1562 1594
830 1 1530 1458 1513 1602
831 1 1535 1463 1557 1607
832 2 1547 1468 1604 1619
833 2 1540 1472 1588 1608
834 2 1544 1475 1592 1623
835 1 1557 1485 1535 1617
836 1 1562 1490 1522 1622
837 3 799 623 739 763
838 3 805 623 745 762
839 3 1617 623 1557 1581
840 3 1623 623 1544 1563
841 1 705 633 755 777
842 1 710 638 742 782
843 1 733 661 750 793
844 1 742 670 710 802
845 1 750 678 733 810
846 1 755 683 705 815
847 2 1583 688 1595 1628
848 2 352 692 388 408
849 2 560 695 579 596
850 3 600 420 540 564
851 3 606 420 546 553
852 3 800 420 740 764
853 3 814 420 754 758
854 1 699 627 753 771
855 1 701 629 713 773
856 1 711 639 740 783
857 1 713 641 701 785
858 2 727 650 775 787
859 2 730 655 782 802
860 1 740 668 711 800
861 1 753 681 699 813
862 2 758 694 770 814
863 3 573 413 501 525
864 3 577 413 505 522
865 3 775 413 703 727
866 3 783 413 711 764
867 3 772 1430 700 724
868 3 791 1430 719 765
869 3 1586 1430 1514 1574
870 3 1601 1430 1529 1541
871 1 702 630 709 774
872 1 707 635 752 779
873 1 709 637 702 781
874 1 718 646 734 790
875 2 729 651 777 815
876 2 732 657 780 784
877 1 734 662 718 794
878 1 752 680 707 812
879 2 759 696 789 795
880 1 700 628 720 772
881 1 703 631 715 775
882 1 708 636 712 780
883 1 712 640 708 784
884 1 715 643 703 787
885 1 720 648 700 792
886 2 1541 649 1589 1601
887 2 522 653 570 577
888 2 313 654 361 378
889 3 570 412 498 522
890 3 585 412 513 555
891 3 778 412 706 766
892 3 792 412 720 724
893 3 795 1435 735 759
894 3 812 1435 752 767
895 3 1609 1435 1549 1573
896 3 1627 1435 1567 1579
897 3 779 1431 707 767
898 3 784 1431 712 732
899 3 1589 1431 1517 1541
900 3 1598 1431 1526 1546
901 1 1521 1449 1571 1593
902 1 1526 1454 1558 1598
903 1 1549 1477 1566 1609
904 1 1558 1486 1526 1618
905 1 1566 1494 1549 1626
906 1 1571 1499 1521 1631
907 2 767 1504 779 812
908 2 1168 1508 1204 1224
909 2 1376 1511 1395 1412
910 3 1416 1236 1356 1380
911 3 1422 1236 1362 1369
912 3 1616 1236 1556 1580
913 3 1630 1236 1570 1574
914 1 1515 1443 1569 1587
915 1 1517 1445 1529 1589
916 1 1527 1455 1556 1599
917 1 1529 1457 1517 1601
918 2 1543 1466 1591 1603
919 2 1546 1471 1598 1618
920 1 1556 1484 1527 1616
921 1 1569 1497 1515 1629
922 2 1574 1510 1586 1630
923 3 1389 1229 1317 1341
924 3 1393 1229 1321 1338
925 3 1591 1229 1519 1543
926 3 1599 1229 1527 1580
927 1 1518 1446 1525 1590
928 1 1523 1451 1568 1595
929 1 1525 1453 1518 1597
930 1 1534 1462 1550 1606
931 2 1545 1467 1593 1631
932 2 1548 1473 1596 1600
933 1 1550 1478 1534 1610
934 1 1568 1496 1523 1628
935 2 1575 1512 1605 1611
936 3 770 614 698 758
937 3 785 614 713 725
938 3 1588 614 1516 1540
939 3 1607 614 1535 1581
940 1 1516 1444 1536 1588
941 1 1519 1447 1531 1591
942 1 1524 1452 1528 1596
943 1 1528 1456 1524 1600
944 1 1531 1459 1519 1603
945 1 1536 1464 1516 1608
946 2 725 1465 773 785
947 2 1338 1469 1386 1393
948 2 1129 1470 1177 1194
949 3 1386 1228 1314 1338
950 3 1401 1228 1329 1371
951 3 1594 1228 1522 1582
952 3 1608 1228 1536 1540
953 3 793 619 733 757
954 3 811 619 751 763
955 3 1611 619 1551 1575
956 3 1628 619 1568 1583
957 3 773 615 701 725
958 3 782 615 710 730
959 3 1595 615 1523 1583
960 3 1600 615 1528 1548
